128
Lattice="16.776 0.0 0.0 0.0 16.776 0.0 0.0 0.0 16.776" Properties=species:S:1:pos:R:3:momenta:R:3 config_type=highT_Na128_600K pbc="T T T"
Na       0.30714306       0.21612457      -0.32485157       0.41190126       0.32295855       0.99537442
Na       2.18195102       2.14178290       1.44355036      -0.06163320       0.65161919      -0.01289006
Na      -2.21191535       0.39210289       4.07526061      -0.34877814       0.80525002      -0.04577167
Na       1.51346589       2.58565635       7.80728097       0.19730672       0.53603967      -1.25828981
Na       0.71257757      -0.32109241       8.56974319       2.58994831      -0.19851194       0.10496345
Na       1.99534239       2.97095387      11.30591500       0.40647265       0.79007920      -0.25377715
Na      -0.16185518      -0.01267549      12.64366130       1.10306518      -1.16979532       0.74934896
Na       1.97417996       3.15018261      15.38041733       0.47166262       2.03422367       0.46127279
Na      -0.37705174       4.21448742       0.00181784       0.30386039       0.12314487       2.35092807
Na       1.43819341       5.25491437       2.61333886       1.22677538       0.94312915       0.42507787
Na       0.96259186       1.35320025       4.99596097       0.41701112      -0.80190634      -0.19757716
Na       1.69414652       5.60818092       5.71889203       0.11796066      -0.66896083      -0.18737821
Na      -1.15448478       5.40429540       8.63144134      -1.04547596      -0.28643739       1.68785006
Na       1.65477756       6.67520191      10.22776624       2.09386165       0.87229279      -0.52356630
Na      -0.77620504       4.38497601      13.30797325      -1.11659755       0.24779451       0.00528432
Na       1.26232536       6.95305535      13.65707419       1.36662630       0.77061538      -0.95923028
Na      -0.64510120       8.68658772      -0.25191477      -1.29669960       0.23959173       0.21422966
Na       2.21819939      10.37916054       2.35587316       0.97777066       1.77015940       1.44848193
Na      -0.09720738       8.78330104       4.17681908       0.36758514      -2.52382921       0.92873375
Na       3.48813121      11.97831794       5.89357919       2.06185641       1.09015388       1.31208071
Na       0.65742352       9.35406578       7.60962656      -0.30507538       0.95855870      -0.90094910
Na       4.18996637      10.30942959       8.82564449       2.00771881      -1.86101830      -2.12020834
Na       1.17212037      10.41300723      11.87739465      -0.63531311      -0.10543625       0.50124114
Na       1.97493477      10.51695777      14.63974611      -0.23394042      -0.01122273       0.11467637
Na      -0.62019119      11.99717859       0.50712978      -2.08927474      -1.19516407       2.27750420
Na       0.86845743      15.35108488       2.53711701      -1.23320363       0.14321932      -1.46940897
Na       0.06154561      12.16655985       4.59487151       0.06951684       1.16409986       0.19536878
Na       1.65892514      14.82173223       5.65664823      -0.22363629       0.96972226      -1.52801066
Na       1.46676834      12.48338064       8.62660721       0.75716557      -1.70000872       1.49439514
Na       2.97627214      16.12345081      10.87528302      -0.18863284       1.66707038       0.04059737
Na       0.52692091      13.70189567      12.07944577       0.30625744       2.20873337      -0.36682769
Na       1.61817801      13.73678590      15.18537632       1.43899803       0.12428447      -0.70250934
Na       3.84425250      -1.07688019       0.69978036      -0.22958364      -0.69542245       3.86972229
Na       5.75855545       1.41242049       1.29770693      -0.41308786      -0.38857131      -1.11419594
Na       3.91022836      -0.37787032       4.14767126      -0.82559082      -1.50822428      -0.38852431
Na       6.90158943       2.86058149       6.97108405      -0.32441412      -0.41067452      -1.25086071
Na       4.28254618       0.31338965       7.69387246      -0.41742689       1.19119178       1.85233418
Na       6.20934548       1.50096491      11.50486552      -0.52612378       0.71350893       0.05610639
Na       3.35523141       0.33852575      13.93852811      -1.91091601       0.52379941       1.01979212
Na       7.89353202       0.18946610      15.01828765      -1.60291029      -0.06779765       0.84866339
Na       5.81296262       2.86496736      -2.36048554      -1.30878636       1.01352014       0.35145667
Na       5.21996133       5.28780813       1.41914186      -0.04774710       1.86169215      -0.69835127
Na       4.04027886       3.40316141       5.32282063       0.57091076      -1.09986290       0.29698211
Na       6.63172670       6.26975764       6.53319169      -0.01528415      -0.49861724      -0.20765971
Na       4.71221368       4.13951098       9.42034576      -0.27893965      -0.30747103       0.60986027
Na       7.15188971       5.52362398      11.29718888       0.25537334       0.00689480      -0.39341389
Na       4.44904366       5.18517782      13.16278076       1.07479096      -0.85357551      -0.76684298
Na       7.48822289       5.45103451      15.04090011      -0.39258103      -1.54379814      -0.15432379
Na       2.69546011       7.73952316       0.43535227      -1.76726664       0.10585906       0.29232487
Na       6.76716786      11.39473164       3.47112963      -0.18078777       1.11797621       0.62155848
Na       4.20130036       8.46646579       3.86433951       0.64675548       1.09693709      -2.17621796
Na       6.59396268      10.29060100       6.63649013       1.02533762       2.10933431       0.00736845
Na       3.80343726       7.14586780       7.46747749      -0.03039789      -0.23829619      -1.16674555
Na       7.55372686      10.94268858      10.33204373      -1.29958422       0.74648205      -0.34757698
Na       4.41942244       8.53808191      11.33905315      -0.29064094      -1.23264631       0.08800691
Na       6.17404188      10.36562264      14.86711065       1.03614566      -0.63992238      -0.60872920
Na       4.57293306      11.66805847       0.64144534       0.80585128       0.02065320       2.53980497
Na       6.92038830      14.90073723       1.73394892       1.83706178      -1.36747682      -1.35146091
Na       3.35204273      13.42080283       3.40714135       0.05568712       0.71245184      -0.60003287
Na       5.71005543      14.36485522       5.79132352      -1.14570014       0.91438100       0.53271025
Na       4.31195627      14.06460714       9.08539235      -1.15279297      -0.24512642      -0.91242887
Na       6.38103652      14.91242801      11.42070914      -1.10550029       0.04989334       0.61702156
Na       3.83879536      12.06990475      11.92974311       0.23559840      -1.64324675       0.14630017
Na       4.81976814      13.86533476      14.76823622       0.42639747      -0.59955997       0.32191542
Na      10.01758126      -0.29876652       1.03289054       0.53255630      -0.81319485      -1.64061059
Na      11.42161696       2.77238988       2.54740517      -0.80199695      -0.40218990      -0.10851712
Na       7.88437794       0.93719983       4.08851566      -0.12770721       1.12397298      -2.32721816
Na       9.75484950       2.65782522       6.09898377       0.19269020       1.01812073      -0.06203592
Na       7.74809316       0.36434307       8.55976765       0.54740448      -2.07373165       1.36376781
Na      11.93956087       2.38317230      10.50367327       2.20921827      -2.03179890       0.81296436
Na       9.83696149       0.40540591      12.04912318      -3.04793563      -0.85088092       1.17411694
Na      11.47300434       2.09259335      14.75046530       0.33889022       0.07797388      -0.05794084
Na       9.06152363       3.08224099      -0.02534901      -2.54583446       0.22395531      -0.59635001
Na       9.20703379       5.98788004       1.01441183       2.51860633       0.07632420       1.19191651
Na       7.77078519       4.66171647       3.31593999       0.18308090      -0.28701428      -0.73865623
Na      10.78853965       8.73656308       7.02882431      -0.67496059       1.15307425       0.19834627
Na       9.60783026       4.14416501       9.05800632      -1.61213842      -0.15854339      -0.39990822
Na      10.18834162       7.21625131      10.30504821       0.37906367       0.42209265      -0.44922041
Na       8.69557158       3.54000938      13.04564338      -0.97755906       1.08382066      -0.34014546
Na      10.94384819       5.82428413      13.06825143      -0.71815328       1.76128235       0.35915547
Na       6.67309243       8.40461036       1.09503230       0.35645832      -1.02894972      -0.00974210
Na      10.46186049       9.99760398       2.28447428       0.04056679       0.84631555       0.00280328
Na       8.14942403       8.05921115       4.11771273      -0.22692761       0.99343348       0.29403239
Na      12.62064354       9.45973825       4.72173439       0.78048027       0.49860072       0.97741383
Na       7.04951585       8.05575633       8.92445283      -0.86106518      -1.70954258      -0.04996405
Na      11.03151996      10.40845519       9.28365249       1.47720181      -1.70421740      -0.11731289
Na       8.13462601       8.61346193      12.54814503       2.74430704      -1.74540663       0.05439006
Na       9.68421293       8.90326092      15.42884594      -0.73293994       1.54012793      -0.92447679
Na       8.24779637      12.32565507      -0.00705841       0.26248081       2.64327197      -0.79365586
Na      11.11801271      13.21714107       1.32050835      -0.63095543      -0.30682608      -0.49159592
Na       9.50386367      11.25595447       5.56582699      -0.71426508      -0.78736882       0.52735527
Na       8.68953344      14.42989013       4.31426288      -1.14757027      -1.85940978      -0.94182880
Na       8.12936878      13.54013779       8.19717499      -0.07575094      -0.31847691      -1.01344236
Na       9.85675178      14.46028167      10.54209667      -0.33135974       0.95320131       0.47226019
Na       8.50570287      12.11034562      13.02482983      -0.09330024      -0.88000694      -0.04768886
Na      10.17396084      14.62333053      15.12086581      -0.68715627       0.44646483       0.85776334
Na      12.85742499      -0.56221521      -0.26735476       0.36744689      -1.10874813       1.59620742
Na      14.75703995       2.21879639       1.78681957      -1.47042197      -0.75367033       0.87810295
Na      11.79339459      -0.11192093       3.86091653      -0.39428441       1.08609049      -0.84559753
Na      14.20196437       1.38251875       7.16194953       0.87244824      -0.42711145      -0.98571047
Na      11.06037825      -0.13943854       8.21172556       0.35784060       0.05929479      -0.60965559
Na      15.42618385       2.48566025      10.17595659       0.01672321      -1.66634797      -1.16081041
Na      13.01983218      -0.37091908      12.35697238       0.43198550       1.00722531       2.02788826
Na      14.72873132       2.04608625      14.65874224       0.25210318       0.63802438      -0.25144581
Na      12.52898349       4.56246870      -0.07750537       0.08865533       0.04671749      -0.11142776
Na      14.06081679       6.44299018       2.69300084       1.18933748      -0.84515659       0.17925938
Na      15.12007357       4.38028404       5.25371536       1.24568462       1.05601006       2.49728751
Na      14.57486411       6.97472212       5.89895586       0.21669341       0.80130746      -2.44202205
Na      12.52624497       4.87723288       7.68359320      -1.88220176       0.44913728       0.57818313
Na      15.17669646       7.58847265      11.20662970       0.22785780       0.21588390      -2.46559440
Na      12.85078228       5.25806387      10.81944198      -0.82750255       1.18314831      -1.69953106
Na      14.04788707       6.50298267      14.58436565       0.98952839      -0.86180413       0.84382577
Na      12.48737005       8.74090930       0.38152748      -0.34108338      -0.50888219       0.04136875
Na      14.03658263      11.07997101       2.29186101      -0.40636583      -0.28866515      -1.96960294
Na      10.97313945       5.91574944       4.78790670       0.93083212      -0.30589537       3.07396644
Na      14.22710434      11.16277747       7.40578376      -0.00591687       1.13951475       0.17540838
Na      13.24994715       7.88638867       9.10427535      -0.43882287      -0.88524704      -1.48658760
Na      14.69359612      11.28020210      10.75733395      -1.34309805       1.26959904      -0.35536473
Na      12.51884142       9.34041552      12.61065020       0.60208250      -1.44562156       0.21783769
Na      15.53589419      10.63430983      13.91310160      -0.51281958       0.24746149      -0.73420654
Na      12.44915891      11.36038325      -1.43921921       0.86184668      -0.85357486       0.63826757
Na      14.46807163      14.50844003       2.25234909      -0.54993175       0.31260528       0.68217368
Na      12.11761769      12.86261846       4.54324127      -0.13419038      -1.97332518       0.80208769
Na      14.65083399      14.14667994       6.33298100       0.69139939      -0.31523529       1.44707453
Na      11.33337714      13.30822525       7.20586983       0.76553640      -0.56950326       0.21294097
Na      14.22180814      14.61426143      10.13273742       0.47752784      -1.59970794      -0.35985526
Na      12.09848461      12.84354351      11.98661748      -0.87982685       0.12830376      -2.29567903
Na      14.98586765      14.65303814      14.71379379      -0.57340003       0.10896392      -2.01034185
128
Lattice="16.776 0.0 0.0 0.0 16.776 0.0 0.0 0.0 16.776" Properties=species:S:1:pos:R:3:momenta:R:3 config_type=highT_Na128_600K pbc="T T T"
Na      -0.32812838      -1.30744168       0.10926801      -0.47603492       0.10179161      -0.61161354
Na       0.73710265       1.94438328      -0.15999157      -0.60917230       0.06621465       1.66732696
Na      -1.51402482       0.46139156       5.07244814       0.04698388      -0.32196556       0.86132852
Na       2.12898044       2.39304516       8.80623877       0.49675312       0.01738031      -0.83332611
Na       1.44141970      -0.65653883       8.72879610       0.85070612      -0.33913698      -1.73741943
Na       1.33509660       1.49347030      12.27270043      -2.25212208      -2.20545401       1.03420139
Na      -1.02356446      -0.55591706      14.04953454      -1.61207939       0.93216032      -1.06191467
Na       2.40370730       4.56908682      15.21597183      -0.66963284       0.59453114       1.32849595
Na      -0.31444813       5.82146649       0.27862311      -0.12399195      -0.48219653       0.60099599
Na       2.41180439       3.76248352       2.32136058      -0.57152819      -0.99296627       0.12984532
Na       1.41478682       0.92765130       6.17013826      -1.18259083      -0.12214535       0.33321932
Na       2.42748250       4.21975334       5.44782172      -0.07462754       0.48502195       0.05635990
Na      -0.52462141       4.75259316       6.86094201      -0.43357083       1.55677477      -0.99389324
Na       1.97477406       6.03236062       8.92010869      -0.62478263       1.19759826       0.84722762
Na      -0.88894459       3.91433914      10.25736450      -1.14940149       1.00370850      -0.64704520
Na       0.99553605       7.48949084      14.49640174      -1.84723712       0.31536343      -0.18877539
Na       1.39134402      10.10410466       1.27934127      -1.67609119       0.17529770       0.02024475
Na       1.91897815      13.07793956       2.40339157       0.43962695       0.38083071      -1.66087424
Na       0.95081204       6.69149793       3.77603993       1.64729342      -0.48283200      -0.33809815
Na       4.12284613      10.75011688       3.90459024       0.81684397      -0.18287990       0.78681115
Na       0.04387071       8.61777999       8.31184686      -0.31703887      -1.45210019      -0.18080081
Na       2.85619250      10.17328465       9.00986078      -0.45232171       0.02258277       0.29915360
Na       1.04304596      10.12662470      11.53639535      -0.04974510      -1.35776373       0.78150672
Na       1.92406178      10.28198517      14.81894571       0.74778879      -0.77485397      -0.99353786
Na      -1.00642503      11.69756765      -0.54219804       1.61377105       1.96806946       0.76230946
Na       1.60384968      16.85956661       2.70221926       1.71302503      -0.29766935      -0.31016933
Na       0.83488457       9.75797234       4.73454300      -1.15577021      -1.91740653       0.26485459
Na       1.57628895      13.96042900       5.64206845       0.69365247       0.69224473       0.94318867
Na       0.20089536      12.29526764       8.47316863       2.45975541      -1.55868264       0.75583222
Na       2.99551462      15.83297693      11.17121620       1.77167088       0.54619503      -1.38087329
Na       0.57074538      13.75113748      11.35964181       0.72562489       0.54838700      -0.42544944
Na       1.35507988      13.52829626      14.68001072       1.12141332      -1.13182083       0.07322042
Na       3.63699286      -1.30329989       0.13380909       0.74492459       0.67953783       1.94548949
Na       4.75481179       1.90174816       0.53836786      -0.83999484       0.25604307       1.95452727
Na       4.57109656       1.36677793       3.44416978       0.53774755       1.98969847      -0.75641305
Na       7.56006692       1.42162929       5.37898780       1.41632416       0.00172519      -1.79545102
Na       4.81429219       0.22690360       6.85435959       2.19755250       0.17655600       0.38606956
Na       5.93928143       1.55249909      10.50993660       0.82804190       2.09161728      -0.53497391
Na       3.37839376       0.51002914      14.12513527       1.18289980       0.62818080      -0.30759052
Na       7.74803689       0.92561816      14.62191653      -0.60841074      -1.73099115       1.07801284
Na       5.11413351       4.04541674      -2.43553079      -0.03006307       1.29865995       0.90364187
Na       5.71308873       4.85307884       1.32899840       0.29414046       0.15228663       1.07716787
Na       5.74575130       4.49881450       4.61117062      -0.22610473       0.43667676      -0.85032141
Na       7.92669102       4.92459807       6.43662673       0.83775614       0.47060923       1.74035324
Na       5.06498856       3.93338187       7.97816064       1.39794282       0.02962410       2.34137676
Na       5.60809852       5.78177216      11.23166791       0.15584524       0.52621754       0.02403054
Na       2.35774974       4.72357897      12.00669364      -0.67170654      -0.27195992       1.28847851
Na       5.98457934       6.71295210      14.69492160       0.06421064      -1.97666893       1.13650413
Na       3.45228533       7.71938091      -0.13281930      -1.44638727       1.26729647      -1.32228134
Na       6.84317347      12.37175322       2.90093293      -0.98744385       0.71268543      -1.51673896
Na       4.50756616       7.81575886       2.55575864       1.55416800       0.95335211       0.45275368
Na       5.91249422      10.92210030       6.54026488       0.13662241       0.16404577      -1.41464703
Na       3.17158043       8.26636749       6.19942406       2.06139903      -0.13077117       0.63500912
Na       6.49649581       9.96366595      10.50215090       2.28287404       0.35111339       0.79597386
Na       3.19275025       8.33832182      11.63191917       0.07299306       1.65148279       0.95980046
Na       5.69144587       9.75439965      14.31676825       0.06050864       0.34849133       1.58310136
Na       4.26743460      11.07894313       0.91021387      -0.60079476      -0.42440432      -1.09025640
Na       7.11505890      15.87582305       1.06706784      -2.07767059      -0.53131208      -1.23167892
Na       4.52620234      14.73806719       3.26195357       0.20921542       0.33346351      -0.65279195
Na       6.77565932      15.00159014       5.63717081       1.03093983       0.84971186       0.88344234
Na       3.90366216      13.62569816       9.05221937       0.34671711       0.87682915      -1.16295036
Na       6.64299648      14.69072203      11.21340440       1.17958820       2.16119573      -0.67123908
Na       3.84317695      12.13528513      12.45073282      -0.99467991       0.29481732      -1.06235959
Na       5.75451743      14.69089884      14.40234322       0.39767438       0.53326435      -0.50012264
Na      10.42503678       0.98354749       0.59216384       1.01033062      -1.62096681      -2.51499418
Na      11.03010397       3.72659627       2.91631183       0.39918696       0.53373395      -1.65534148
Na       7.90057943       2.90406024       2.89714051      -3.03568307      -0.74558581       0.38351134
Na      10.88051739       2.74586356       6.75256721       0.57457364      -0.43526016      -0.81813244
Na       8.47035363      -0.10930071       8.53081143      -0.39204153      -0.13105506       0.97578258
Na      12.28047587       1.58333886      10.33727352      -1.40722624       0.52686599      -0.52054245
Na       9.92471485       0.18179264      11.55833498      -1.42757542       1.96584810       1.54345391
Na      12.11424648       2.38417024      14.91218946       1.35350872       0.22036436       0.39647844
Na       8.58550447       3.66962795      -0.27117410      -0.56876190      -1.40587654       0.69528660
Na      11.77969495       7.55332128       2.18675582      -1.44635821       0.77782242       0.52320279
Na       8.91432738       6.40042881       1.32360696       1.31864381       1.21891727      -0.08220459
Na       8.88048421       9.36155237       7.49604970      -1.31547092      -1.56891069      -1.36287592
Na       9.05967262       3.22471763       9.46200545      -2.64452616      -0.28955693      -0.04855642
Na      10.31133065       6.99500143       9.74226755      -0.32024934      -0.65971902       0.59557058
Na       8.64522413       3.75918020      12.89934824      -0.68203084       0.64626413       0.09050275
Na      10.60683387       5.59000531      15.25085179      -0.25519213      -1.80864898       0.18609104
Na       6.63978854       8.93052149       0.67232090      -0.29529597      -0.60268405      -0.35697377
Na       9.59804771      10.59798893       2.43414177       0.49491875      -1.08932544      -0.88409632
Na       7.49389447       7.69123737       4.45982812      -1.80180306      -1.34659297       2.33148450
Na      11.36232859       9.92905795       5.12169581      -0.05451348       0.66131293       1.16776191
Na       6.09746103       7.21520499       8.21908099      -0.91620735       0.69818572      -0.39992177
Na       9.88900766      10.56810466      11.45405455       0.25508113      -1.35958575      -0.54306018
Na       8.08760728       7.41915571      12.73399272       1.74904940      -0.59054967       0.88717154
Na      10.02301041       9.36106189      15.99139789       0.36765723      -0.11620328      -0.63339749
Na       7.47253551      12.86351818      -0.21479465      -1.65697029       0.71220843      -0.84717163
Na       9.10396464      14.60744389       2.66842738      -0.13165791       1.98927747       1.05678313
Na       8.80757185      12.31968498       5.50338786       1.37397902      -0.35991432      -0.54518621
Na      10.42114998      15.89520145       5.78325629       0.21715908       1.06321463       0.14181301
Na       7.69605455      12.96706135       8.76997284       0.05990291      -2.60823355      -2.31573281
Na      10.79000577      13.83968741      11.53780388       1.38922572      -0.24722607      -0.92814752
Na       8.35482540      12.32306835      13.33849348       1.28940325       0.56392428       1.11694392
Na       9.70881217      15.22302239      15.13422344      -0.35894970      -0.77433594      -1.70873263
Na      13.18193091      -1.05876682      -0.10801721      -1.11065082      -0.04608509      -1.95497316
Na      14.90586739       1.98765316       2.05597707       1.18516827       0.84833761      -0.16377561
Na      12.13117987       0.53549197       3.58531391       0.21208848       1.22862088      -0.69856209
Na      14.74993064       1.81795860       7.99257284       0.42647807      -2.04911424      -0.24902722
Na      12.13772157      -0.62571861       8.44569973       0.11814984      -0.12294572      -1.31214807
Na      15.18134326       0.53650293      11.06620627      -0.01031696      -0.05119053      -0.19189560
Na      12.14148629      -0.74856449      13.73760206      -0.41266283      -0.26280303       2.15285272
Na      15.74261531       2.85168806      13.38991363      -0.90916075      -1.24290723       0.69519411
Na      13.03498029       3.97095032       0.53688507       0.05092554      -0.62123036       1.32479748
Na      15.01972203       6.14460741       2.95925704       0.50883897      -2.25167709      -0.20547080
Na      13.83911734       3.68336795       4.98734448      -0.38641014      -1.39635099      -1.83470790
Na      13.94359552       7.27602984       5.94228938      -0.16690329       1.62881693      -0.53242312
Na      12.82989608       4.53447583       8.63808344      -0.86242858       1.01161931      -2.38915735
Na      15.68347212       7.16511543      11.09902902       1.51445972      -0.85878678       0.15270215
Na      12.25703708       4.52049456      12.10466059      -0.36873569       0.41075446      -2.16913356
Na      13.36399254       6.70299148      15.01242222      -2.00602497       0.40930380       2.22707146
Na      14.61479960       8.76250370       0.22747597       2.17888984       1.03021962       0.50709819
Na      13.99409146      10.46831437       3.17543758       0.17155620      -1.63637234      -0.61568968
Na      10.63700952       6.58182260       5.56045673      -0.27315558       1.59313814       0.90549513
Na      14.83536189      11.04139955       6.35721207       0.52877280       0.03298475      -0.23609633
Na      12.19118346       8.60045202       8.33084140       0.16253545       1.19952672      -0.55306923
Na      14.36917135      10.90012092      10.10697217       0.84658691      -0.25770525       0.16225679
Na      12.36938579       8.19644236      12.38472977       1.42157347      -0.90879176      -0.12690664
Na      15.05216568       9.54441936      13.86463846      -1.81342529      -1.60038717       0.56282119
Na      12.36921891      12.33422168       0.99986809      -0.22306309      -1.82675071       1.23868006
Na      15.38710123      14.17598579       3.19391786      -0.22084097      -0.87104207       1.10342644
Na      12.17077659      13.73257491       3.90605071      -0.35411756       1.69066940      -2.79579337
Na      14.48433320      14.90551617       6.99141027      -0.59384398      -0.23996262      -0.67514395
Na      11.19701399      13.25559760       8.18567027      -1.51808486       3.00993281      -0.86027856
Na      14.27453794      14.43175300      10.60515114      -1.75921900      -1.04150270       0.48056527
Na      12.08668249      11.86566884      14.51350478      -0.64982584      -0.67208362       3.94706830
Na      14.85061616      12.82756487      13.33593041       0.79674015      -1.10729675       1.67920414
128
Lattice="16.776 0.0 0.0 0.0 16.776 0.0 0.0 0.0 16.776" Properties=species:S:1:pos:R:3:momenta:R:3 config_type=highT_Na128_600K pbc="T T T"
Na      -1.51343650      -1.29667427       1.64303865       0.16110523      -1.48816056      -0.79394503
Na       2.74069034       2.16822331      -0.80189973       1.55137401       1.18502839      -0.79260678
Na      -2.13361269      -0.31592857       5.00959268      -0.54501268       0.02785120       2.59966141
Na       2.12091223       2.35783561       8.27889864      -1.36107696      -1.14638060      -0.06450962
Na       0.43727285      -0.01214619       9.66037092       0.01366625       2.28904121       0.41669774
Na       1.14192821       0.87628623      13.14818695       1.68254769       1.18402734      -2.45419939
Na      -2.25167245       0.43707149      15.93431403      -0.63364910      -0.57978901       0.84123466
Na       2.87688449       4.90360404      14.65744742       1.40504018      -0.92087002       1.96084306
Na      -0.48783170       5.50468939       0.17051039       0.70866954      -1.26978474      -1.76358340
Na       2.39061297       4.53919459       1.52420806      -2.38267386       1.29928768       0.25714877
Na       0.71256602       2.28477269       4.58916480      -0.60709165       2.15658253       0.74214059
Na       2.22015231       5.68810080       5.34239539      -0.22093056       1.23608924      -2.38208344
Na       0.04047811       4.07700006       7.58089360      -0.43824108      -0.16740576       0.29495100
Na       3.09097934       5.96727102       8.52824909       0.16101932      -2.13242445      -2.11804711
Na      -1.18915023       3.01787490      10.74899728      -0.37448408      -0.48218159       0.45969641
Na       0.61555676       6.92009933      13.93973463      -0.13565780       1.01676454       0.46300249
Na       0.97597353      10.14008677       1.48229665      -2.51255334      -0.82617344      -1.04455462
Na       0.92808435      13.28205195       1.48864307       1.55516689      -1.80630254       1.24723522
Na       0.70405566       7.11640937       3.14800941       0.59273272      -0.08166088       0.88125035
Na       2.53771414      11.76108690       4.01324555       0.08797275      -0.03809982       0.31045444
Na       0.74229510       9.21254767       9.10255198       1.36325650       1.28062839       0.53196460
Na       3.59833120      10.43893210      10.03346830       1.73569182       1.10595336      -1.08947683
Na       1.02299525      10.53592089      12.08793440       1.41060811       0.69367947      -0.43355698
Na       0.38155417      11.79657429      15.10768820       1.27658458       1.16722033      -1.67307527
Na      -2.27674997      12.33334475       0.94388750      -0.33055475       1.62866673       0.28674356
Na       1.78750662      16.66536035       2.09199457       0.43786302       0.49591186      -0.74128168
Na       0.57082159       9.95086217       4.94003602       0.14448402      -0.93900307      -1.13732634
Na       1.72017896      15.78666508       6.79197022      -1.58204509      -1.03813281       0.55372587
Na       1.70510430      12.11035892       8.10664995      -0.31705799       2.31002507       0.68189036
Na       3.12017927      14.65033492      10.03303190      -0.16971049      -1.76063787       0.71586799
Na       1.00801967      14.26403214      12.20422768       1.44196830       0.31498392      -1.01342873
Na       0.84902032      15.43190192      15.62708881      -1.08538436       0.47271824       1.14689108
Na       3.60653593      -0.53246823      -0.40069677       0.58195584       0.73134988      -0.60734269
Na       4.62510262       2.72462944       2.30141879      -0.41826979       0.48742244       1.02074176
Na       3.83528513       1.86355899       5.17111174       0.90297295      -1.34457163       0.78329461
Na       7.71929990       1.04622104       6.77739566       1.58227726      -0.28655568       1.42296497
Na       5.48335666      -0.55768402       8.06629459       0.91251245      -1.90275882      -0.46592986
Na       4.62162023       1.78680902      10.74825546       0.72379334      -1.47315849      -1.85882926
Na       5.00109828      -1.32274224      13.71507910       1.74456913      -0.98090763      -0.48491201
Na       6.23824544       1.99240370      15.43554542      -1.52473581      -1.65251926       2.02511112
Na       5.07588166       4.27643676      -3.42925485      -0.77960528       0.45411299       0.55441645
Na       5.38880065       6.65626895       0.88284675       1.07994298      -2.10806752      -0.26805164
Na       4.74506062       5.69541066       3.96222676      -1.39618088      -0.14277199      -0.37979411
Na       7.95133719       4.79342344       6.06784352      -1.82973464      -0.61735484      -0.09098539
Na       5.52384778       3.19168776       7.76662577      -2.53569227      -1.47278574       1.43113720
Na       6.45488367       6.53037206      11.31852296       2.64043384       0.03368375      -2.17070630
Na       2.33065186       4.03691689      11.52204355      -0.88091546       0.51590729      -2.41114847
Na       6.79419264       7.11987925      14.29188543      -1.15651521      -0.50326629       2.26622008
Na       2.31303981       7.69734760       0.08859603       0.87325256      -1.17745791      -0.04199009
Na       6.95833775      11.54076720       3.67424834      -0.79726554      -0.96759722      -2.32056119
Na       4.24842743       8.95501368       2.90611860      -0.52296170      -0.27349703       0.25625670
Na       7.01773673      10.11658429       8.78419785       1.01172802      -0.25551572       1.29023405
Na       3.12436672       8.83406501       6.12557939       0.00259695       0.00856798       0.55672889
Na       6.65445099       9.67959114      12.00964726       0.28117449       0.79096107       1.99440577
Na       3.54432678       7.37138095      12.08302938      -0.67165234       0.86193085      -1.11691693
Na       4.32744247       9.47561552      14.62391728       0.64919644      -0.92925535      -1.42558640
Na       5.45610617      11.47462611       0.55038065       1.94923431      -0.27203869      -0.27302953
Na       6.83520723      15.06607210       0.10858627       0.34487689      -0.92214481      -0.53470180
Na       4.45145710      15.02382677       2.59875903       0.69907326       0.05811012      -0.44643133
Na       6.16772843      15.19822150       5.18712826       0.52021699      -1.18692796      -0.09836831
Na       5.09732739      11.37101851       6.66726879       0.27197348       0.56476403      -0.51401049
Na       7.61133751      16.18980741      10.62388344       0.67910125       1.12506037      -1.64372666
Na       5.13401060      12.74296711      12.22725986      -0.61082664       1.40684046      -0.10047715
Na       3.60460337      12.90079807      15.16542738      -0.57530955      -0.54553979       0.50525406
Na       9.19529178       1.10263299      -0.02313209       0.98803603       0.12250671       0.22167975
Na      11.10918092       4.05324159       1.98160928      -0.16864873      -1.82694586       1.33176383
Na       7.42392110       1.44015168       3.02769211      -0.64997292       0.94591198      -0.89024432
Na      10.38788383       3.22778945       6.99519148      -0.28611022      -2.10154961      -1.89665782
Na       9.16575487      -2.48893759       7.81639128       0.84201611       0.20221963      -1.57678427
Na      11.62911372       1.86823937      10.34054828       1.79652380      -0.09720570       2.16606266
Na       8.76482148       0.68531682      13.80056126      -0.74324465      -0.81840229       1.85390156
Na      11.64888407       1.82229869      14.81236668       1.06621255      -0.95109505      -0.04720215
Na       7.40848564       4.48049828       1.50669786      -0.67773938       0.80841088       3.18893333
Na      11.29803514       7.04047642       1.17581177       1.33151691       2.64443707       0.28755066
Na       9.24760270       6.47220766       3.75746009      -0.14229101       0.63103233       0.39761550
Na       9.67266461       8.74562696       6.29254716      -0.35887442       0.12327825      -0.34776486
Na       8.77939407       2.22290362       9.16483778       0.97276946      -0.09247964      -1.18944040
Na       9.79040424       6.06870363       8.44492095       0.21002943      -1.01077052       0.20868722
Na       7.76404950       3.54504509      11.89485639       0.37258070       0.24735887       0.81196597
Na       9.40508544       5.27044376      14.98807646       0.79050394       0.22186718      -2.84149964
Na       8.23172869       8.62924045       1.39265020      -1.16171358      -0.45930693      -0.41322613
Na      10.90327191      10.55291111       3.14592188       1.60221949       1.21860466       0.97744126
Na       6.46828616       8.17350490       5.05374904      -1.20552387      -0.13969517      -0.88572332
Na      12.45334066       9.38508840       5.69894370       0.86469807       0.83899083       0.53965178
Na       5.82856895       7.22805372       7.62790469       0.27716058      -0.18287637      -0.68117648
Na       9.41603377       8.84404928      10.03641291       0.62132421       0.81788706       1.37732643
Na      10.28143210       6.39548348      11.75992578       1.49747202      -1.31673336      -0.05554004
Na       9.67683492       8.59667863      15.28927339      -0.62784511      -0.98254023      -0.61975869
Na       9.20070508      12.66816695       0.65181760      -0.47060550       1.16117554      -0.82809094
Na       9.77483951      15.85661427       2.35150428      -0.49401970      -1.65768991      -1.05286043
Na       9.03934586      12.93850130       5.11719266      -1.43992683      -0.89253876       1.81509392
Na      11.03077255      16.53583037       5.87602396       0.57618915       1.32338820      -0.05228546
Na       6.88601665      12.97369177       9.58650128      -2.28815838       0.26805280      -0.38874898
Na      10.71142165      12.38751189      10.25051016      -2.25324823      -2.26245496       0.70728343
Na       7.59967682      11.32559837      14.99955361      -1.89669955       0.15820999      -0.08904584
Na       8.16574102      13.89095581      13.48771952      -0.13235444       0.50209539      -2.78205257
Na      11.44983178      -1.39994784      -0.61452982      -0.51438898      -1.73410212      -0.20125892
Na      15.93362446       2.26249050       1.82129049      -0.82026962       1.33505520      -0.23562179
Na      12.73402957       0.37743982       1.95699589      -1.01122333       3.11314619       1.34653995
Na      14.28554692       2.31505971       7.89514638      -1.79495192       1.19787715      -0.29522019
Na      12.10685389      -1.23846237       8.57690854       0.85427440       0.39780524      -0.07105072
Na      14.17873817       1.05276530      12.63995169       0.19205179       0.15532174       0.64564544
Na      11.27156429      -1.51587092      12.38487812      -0.77492041      -0.23999590       0.11297304
Na      16.34658331       3.81700670      13.76868956       0.08499383      -0.08754631      -2.64040983
Na      13.10860573       4.55532971      -0.67808663      -2.35457923       1.32978573      -1.26497436
Na      14.12530659       6.14022827       2.23922726       0.27060239       0.28338768      -0.53621568
Na      14.03944478       3.47601926       4.86682291      -0.36243320       1.85868151      -2.48021308
Na      15.26812139       7.20543881       6.66147147       1.31239736      -1.85815904      -0.62513511
Na      12.89402134       5.66774322       9.26013328      -0.97811476       0.41465111       0.80472407
Na      16.48798793       6.16917283      10.18125621       0.18552024      -1.32333030       2.09292524
Na      12.92749085       4.38450634      12.09019018      -0.00923330       1.41822094       1.02453097
Na      13.70620249       6.94144505      13.87440103       2.88266335       0.65882223      -1.41229080
Na      14.76279992       8.59707836      -0.39531329      -2.19846789       1.23892270       1.42024571
Na      14.56478466       9.29573704       2.77720603       0.43791195      -1.11313371      -1.54769117
Na      11.88350194       5.88800363       5.29692665       0.31183708      -1.47762539       2.76998920
Na      15.58114537      10.76017972       7.42000064       1.02167049      -0.75424698       1.17795878
Na      12.56083356      10.88226560       8.81773555       0.51725468       1.41338373       0.08119545
Na      15.14047941      12.51393030      10.62586118      -0.60509250       2.67100931       1.91276222
Na      13.17963184       8.50277079      11.03054734      -0.29602754       2.24411866       0.67628244
Na      14.85362210      10.15646030      13.65003223       0.07698655       0.85506645      -1.15902513
Na      12.26236872      10.34570627       0.14424836      -0.39250339       0.33092109       1.54214093
Na      15.64396911      12.58554964       4.04861962       0.93515301       0.17248754      -0.40589371
Na      12.52448922      14.44713198       3.00183515       0.74395787      -1.76013661      -0.52544369
Na      15.69267872      13.83449100       7.60236516      -1.65198534       0.12323034       1.28691296
Na      12.47404081      12.56808928       5.81612260       0.12622302      -0.12595521       2.34842906
Na      14.86035509      15.39797179      11.30570025      -1.79589303       0.68752038      -0.37665909
Na      11.41745845      11.81339320      13.55789700      -0.91995525      -1.11554484       0.56674441
Na      14.70277720      14.18578653      14.75142894       0.92942135      -0.96425275       0.97725804
128
Lattice="16.776 0.0 0.0 0.0 16.776 0.0 0.0 0.0 16.776" Properties=species:S:1:pos:R:3:momenta:R:3 config_type=highT_Na128_600K pbc="T T T"
Na      -2.08957632      -1.96877408       3.63198709       0.08478383      -0.01005872      -0.59661200
Na       1.60937879       4.07905316      -1.71800297      -1.12255114       2.99821646      -0.82303221
Na      -2.12491213       0.09342422       5.69159011      -0.28787002       0.94820171      -1.23941447
Na       0.59189488       2.44182518       5.90888771      -0.18919265       0.23846164      -0.82118044
Na       0.47104370      -1.21160426       9.11680725      -0.90192803       1.18978226       0.07394200
Na       1.85989945       1.21949254      11.17895449      -0.31937085       0.37172286      -2.18918287
Na      -3.16011077      -0.42598811      17.44754380      -0.42543591       2.37338104       1.08757708
Na       3.47105444       6.74761635      13.93274985      -1.94809160       0.90876129      -0.21165807
Na      -0.52392171       6.78278247      -0.95762176       1.07549021      -0.52642807       1.07782170
Na       2.35614100       3.64390960       1.50192425      -0.21853020       1.18132091       0.97070717
Na      -0.49313273       1.32205119       2.51188467       0.50215606      -2.56214201      -0.58203080
Na       2.00954403       5.53644659       5.35355866      -1.20269105       0.01658284      -0.79006459
Na      -0.98257863       5.32469295       7.32660304      -0.23350265      -0.30638973      -0.11818984
Na       1.46586050       6.65598909       8.92301367      -0.88558903       1.25678743      -0.65816335
Na      -1.34839185       2.55817774       9.62430000      -0.62618400      -0.30735963       0.61699883
Na       1.24778158       9.34392657      14.24526358       1.09468066      -0.45621018      -0.16803345
Na      -0.78984856      10.03064024       0.76327006      -1.64765079      -1.14480016      -0.15836950
Na       1.35593568      12.88721742       2.33660123       0.15938926      -0.81139253       1.84286381
Na       0.52932888       6.84098563       2.93796325      -0.85392126       0.65648520      -1.76140732
Na       3.54033338      13.19267974       6.22822675       1.35813758      -0.17781849       0.19144014
Na       0.74461654       9.24986677      10.46976921       1.35502875      -0.05017464       1.69749335
Na       4.55380075       9.10583066      11.30192517       2.15732446       1.30154418       1.13595215
Na       2.27489092      11.43714262      12.03350840      -0.55399841      -2.09992083       1.69117907
Na       1.07565898      11.96077050      15.94619354       2.08428553       1.65383251       1.33653776
Na      -1.67683131      13.38328619      -0.45018970       1.18118639       1.78015974      -0.91533460
Na       3.07769373      17.54621240       1.82836242       0.10831876       0.66871230      -1.32831671
Na      -0.49571864       9.95236370       4.22536422      -1.18593562      -0.85858045       0.67387993
Na       1.18943736      15.88801757       4.05755325      -0.51213073       0.01497646       0.13533583
Na       1.74112342      12.83154059       9.41990993      -1.36758290       0.72092387       0.79426088
Na       4.18646217      14.81550426      11.87303756       0.23486292       0.44448563       2.22322653
Na       1.06223076      14.40698926      13.97978086       0.80205255      -0.88493331      -0.83141189
Na       0.21799075      16.01622436      17.15116418       0.93972989       1.20316789      -0.97362137
Na       3.27116086       0.49088956      -2.34007228      -0.51937852      -0.69940301      -1.88162570
Na       5.90354476       2.37013183       2.71284392      -1.32894844       0.82715890      -1.09559139
Na       3.71439845       1.26499484       4.89554289      -0.84784067       0.38304775       0.77992428
Na       7.38020930       1.82848042       6.15146121       0.44412002       1.35118375      -0.08299995
Na       3.28394060      -0.58402071       7.61334372       0.10823776       0.05715267      -0.29974679
Na       5.61818911       0.39530654       9.26466274      -0.01427091      -0.04367559       1.58998800
Na       7.04759451      -0.67846785      13.25807238      -1.38211125      -0.62426101      -0.49953075
Na       5.50691123       0.51950160      16.62211404      -0.80601811      -0.41076116       0.69887769
Na       5.06173681       2.56972986      -4.01056483      -0.19707112      -1.30974319      -1.54327885
Na       4.79037485       3.38657507      -0.99226124       2.32705384      -1.05557198      -1.11670749
Na       4.24008798       5.75668444       3.55166490      -0.59279928      -0.26405822       0.10697254
Na       5.74992457       4.14714750       5.62838801       1.22505181      -0.25392702       0.97708619
Na       6.66227965       3.59797372       9.74714409       0.72362624       0.14274705      -1.33371704
Na       7.77623223       6.93393521      10.90065653      -1.85563084       1.03678091       0.34691394
Na       3.34622214       2.97215970       8.14773795      -0.41228536       1.91688227      -1.51307377
Na       6.17817747       5.85025113      14.02740480       0.18254980       0.76088350       1.22915376
Na       2.77875182       7.28323310       0.14575246      -0.33936071      -2.14872465      -0.35858015
Na       6.67864219      11.23971525       4.83760133      -0.69555267       0.54432246       1.45635911
Na       3.06070430       9.13694150       3.05418723      -0.49265971      -0.37651976      -0.24924477
Na       7.50051060       8.89597412       8.15882914      -1.38112345      -0.69205081       0.27359544
Na       1.50725512       9.84470388       6.79589057      -0.01084579       1.51450664       0.17079955
Na       8.25367657       9.24275062      13.53876810      -0.93222144       0.44082827       0.03344581
Na       4.41355538       5.92303403      10.40685427      -0.18512118      -2.26693004      -1.28507286
Na       4.53796064       9.78162639      15.15707072      -0.07933081       1.16201398       1.65193498
Na       5.39870276      11.15121357       1.32865563      -1.74895912      -0.20327005       1.49635641
Na       7.08937819      13.28125742      -0.40846651      -1.24469128      -2.19332920      -1.18934840
Na       4.99195971      14.80073386       2.11288556       0.12873360      -1.32053018       1.71391543
Na       6.87987429      14.87726029       6.03851315      -0.33285551      -0.52410415       0.70215820
Na       4.43366534      10.24765557       8.75696224       0.22535753      -0.94992714       0.67860888
Na       9.04197643      18.41849837      10.64021996      -0.01286869      -0.39553473       1.17641840
Na       6.33950977      12.05661362      12.29283547       1.46105152      -0.92818968       0.12908807
Na       4.21716162      13.12570846      15.00699205       0.08977395      -2.42073972      -1.16613035
Na      11.75785207       2.01933439       0.26008563       2.32750553       0.74114040      -1.22240499
Na      12.81550135       4.40427335       1.79617387      -0.22946962      -0.63966371       1.18940321
Na       8.93677205       0.60474662       2.39967440       0.46182843       1.69033589      -1.65936102
Na       9.88428562       3.72405479       4.54784202      -1.73280061       2.13542626       0.82020510
Na       8.35008860      -1.15742153       8.88752180      -0.96013771      -1.35180450       0.46179704
Na      12.48201873       2.34216487      10.78012151       1.31884026       0.96726265       1.25119850
Na       9.35127893       1.35964481      14.25309383      -0.87054121      -0.81127272       0.80268359
Na      13.02521768       0.50347857      14.31898222       0.65457052      -1.07574947      -0.20751562
Na       7.57482404       5.04704721       3.36853874       1.05253441       0.27647670       1.65499641
Na      10.11639974       7.63867287       1.36977974       0.87191000      -3.99954894       0.96069068
Na       9.73731256       6.98677838       4.60834839       1.83488293       1.04440894      -0.21823068
Na       9.66063816       9.54658060       6.40848080       0.85824529      -0.88422293      -1.51135740
Na       9.84844242       3.17914405       7.92727802      -0.93780656       0.22083687      -0.44129592
Na       7.65087438       5.78182751       7.51120965       0.56469231      -0.83661359      -1.78538509
Na       7.77273425       3.83992004      13.00573088       0.76512288      -0.52900503      -0.20398226
Na       7.79708181       3.31453707      16.70508330      -0.61650641      -0.23164527      -1.60664274
Na       6.89302430       7.73532120       0.08717998      -0.84370109       2.44515583      -0.28764690
Na      10.69991385      10.86849103       3.47378993       0.54186794       2.05731474      -2.02431947
Na       6.88987011       7.79407915       4.36513914       1.48417924       0.87303932      -0.33184259
Na      12.84453587      10.73629242       6.77945833       1.62111148       2.13010657      -0.83722556
Na       4.46863047       7.07684148       6.65588453      -2.86941758       0.13266288       1.14588339
Na      10.42758724       8.53091514       9.06406061       1.77242836       0.75705542       0.35567180
Na      10.77035265       5.40066539      11.75251362      -0.24020244      -0.79674473      -0.78490003
Na       9.97041409       5.16094014      15.58355953      -0.07255176      -0.51049778       0.94406528
Na       8.52840057      10.74744923       0.51438630      -0.83129172       0.56144288       0.08146845
Na       8.31024473      13.32498579       3.12708790      -1.09138627      -1.98577153      -0.53965335
Na       9.35618439      12.90218703       7.39058390      -0.22963452       0.37228797       3.02404249
Na      10.43387202      16.27023526       5.10048321      -1.57979149       0.27287567       1.91061124
Na       6.13571888      12.91619448       8.52875691       0.59132697      -1.36831332      -1.94241625
Na       8.40425370      11.28433286      10.02155661       0.26463835       1.12877611       1.00709782
Na      10.68665877       8.24985818      14.54832070       1.24192014      -0.88163481       0.35278926
Na       9.36814962      13.17431526      13.74143684      -0.31354143       0.54636905       0.23267585
Na      10.23425694      -1.39198899      -0.33737280      -0.11736640       0.70466959      -0.38336358
Na      15.24393090       3.88308594      -0.16601217       1.40745898       1.70829060      -1.64764066
Na      12.14066109       1.51581049       3.52975876       0.45710759      -1.19455754      -1.54659255
Na      12.99402229       2.91360078       6.08596409       1.11674220      -0.23941532       0.82739108
Na      11.58041584       0.15669707       8.22606940      -1.09137382      -1.10716282      -2.00963941
Na      16.33645474       0.13827674      13.57771634       0.13774943      -1.67494879       0.47846914
Na      10.45643777      -1.13398536      12.10243616       1.34859473       0.93410205       1.67184131
Na      18.41733493       4.39108453      11.39046024       0.91761102       0.77930713      -0.86198988
Na      12.14453172       3.76942013      -3.11188268      -0.76166316       1.96975002      -1.35624170
Na      13.25700885       8.51440574       3.53983507      -1.66940267       0.53047136       0.44569151
Na      15.09513946       4.37512865       4.12578784       0.59226382      -1.13386843      -1.19496494
Na      15.14827248       8.13977401       6.77303257      -0.41007370       1.28381155       0.11350665
Na      13.22947686       5.41039639       9.60626204       2.21221988      -3.11724425       1.35567098
Na      16.54811457       7.18405205      12.75809417       0.45844557      -0.95661658      -0.31650993
Na      15.34698089       3.75432824      13.01811456       0.51652210       0.14429120       0.18579331
Na      13.54877601       6.83940990      13.55638357      -0.22976629       0.16389615       0.55053176
Na      13.59709083       7.32983690       0.43595869       0.81354647       1.50988633       0.01074768
Na      13.60015671      11.84375128       2.95356629       1.33783326       0.85236408       2.26475675
Na      12.22983948       6.30369228       6.85352275       1.01383932       1.04871347       0.92005620
Na      15.70870126      11.32007625       8.32492723       0.24350801       0.19289620       0.21158235
Na      11.76269537      12.99277566       9.72593052       0.62195655      -1.22196324      -1.60883077
Na      15.88061997      12.28868263      12.13029319      -0.20064444      -1.22156872       0.25262036
Na      13.72929562      10.12024172      10.73125395      -0.49123072      -0.34881372      -0.04266835
Na      14.23759891       9.79957557      14.45643295      -0.61343491       0.06245568      -0.34192254
Na      11.97931494      11.00588132       0.02377026       0.33672982      -1.37177934      -0.01615649
Na      17.33806136      13.67495154       6.32434672      -0.29378948       2.04130701       1.62822687
Na      11.53013974      14.05190834       2.11951362       0.92510682       3.34298885      -1.12722795
Na      14.69531562      14.24113638       7.71392512      -1.11752276      -2.13111252      -0.83767175
Na      12.14001264      13.31432908       5.77823647      -0.10599726      -1.91080807       0.16196560
Na      14.88521085      15.02861465      11.18844182      -0.88250117      -1.05741440       0.19236436
Na      11.04609051      10.83764904      12.40146467      -0.22066000      -2.08274761      -1.25882443
Na      12.82355889      13.71902745      13.87405179      -1.21951464       0.26277993      -0.29221235
128
Lattice="16.776 0.0 0.0 0.0 16.776 0.0 0.0 0.0 16.776" Properties=species:S:1:pos:R:3:momenta:R:3 config_type=highT_Na128_600K pbc="T T T"
Na       0.40420617      -1.08686861       1.53152323       1.60642143      -0.42002667      -1.22165386
Na       1.61407755       2.47547346      -1.83120162      -0.72672043      -1.75433470      -1.04767211
Na      -2.61502702      -1.10918556       5.89774028       0.46683847      -1.44464499      -1.12636308
Na      -0.22007411       1.02566685       6.22930299       0.02247445       0.80328107       0.42891552
Na       0.23524819      -1.56380536       8.02964754      -0.29382086      -0.01158563      -0.19682355
Na       2.22013385       0.81753026       8.93845476      -0.23276875      -0.74538091       0.17829457
Na      -0.71097945      -0.32018812      15.11473247       1.17934660       1.79959577       0.51939197
Na       1.81393438       7.29228026      13.27507107      -0.42735359       0.96443720      -0.75759125
Na      -0.36117447       6.82574313      -1.60250456       0.80880797       0.56099159       1.37689007
Na       1.37675200       4.79468015       1.44261522      -1.49152201       0.41977698      -2.79954509
Na       1.11813312       1.61656699       2.39664325       1.26347392       0.39463024       1.54332609
Na       2.02809121       6.18571091       4.89595048      -0.60684935       0.58658099      -0.65830928
Na       0.66404364       3.57380120       8.60226648      -1.21678211       1.71692458      -0.81198151
Na       1.29938569       7.42663044      10.02127553       0.58415728      -0.32039645       1.24123947
Na      -2.07932090       0.99671160       8.94128679       0.12230019       0.89604397      -2.11101487
Na       0.12632443      10.28342830      15.88276506      -0.55536917       1.53517229       0.35530734
Na      -2.89944578      10.24585652       1.73941595       0.08169719       2.12565826      -0.92795830
Na       0.44947017      12.21147398       2.30369212      -0.39217655       0.34658485      -1.09658848
Na       0.10455710       7.68496917       1.73187093      -0.10319518      -1.26184439      -1.77049602
Na       2.65356469      12.03460264       4.44510130       1.49068611      -1.61213368       0.29842139
Na      -0.26233039      10.55609447      12.15300874      -0.06464495      -0.62831513      -2.05553051
Na       4.68941413       8.50120568      12.20159145      -0.81281029      -1.63115489       0.20788791
Na       3.02910550      11.99491763      13.65283839       0.26256761       0.31252942       0.96010862
Na       3.43580239      13.01155288      17.38685665      -2.11355211       1.14578107      -1.61225002
Na      -1.76297785      12.87914918      -0.04189244      -1.27820786      -0.35520574       0.14316827
Na       3.31256070      18.01365580       0.66836611      -1.81507182      -1.32579964       0.71555334
Na      -0.74114055       9.87765537       4.39239928      -1.33639417       0.78302738       0.92334156
Na       1.41416547      15.13215480       4.59685853      -0.45137847      -1.04131458      -0.27959868
Na       3.07996156      13.03266195       8.00193336       0.00512129       0.12210859      -1.13251499
Na       4.68316558      15.19365036      10.62762701       0.48430285       1.04011823       0.26520678
Na       1.20582735      15.04304965      11.16224311      -0.42473951       0.37565174      -0.23646809
Na       1.00297253      13.81907512      15.43395841      -1.25067757      -0.71770339       0.18013204
Na       3.94972663       1.17798354      -4.53635725       1.15349997      -0.67281124      -0.43483889
Na       5.20534196       3.83739654       1.84994333      -1.48576491      -0.90690379       0.24857387
Na       2.63894799       3.02148176       5.23806105      -0.10306980      -0.13001998      -1.13244652
Na       6.45265379       1.40761923       4.35524260      -0.99661601      -1.24891622       1.81673327
Na       4.05162204      -0.29994912       6.34740608       0.94230964      -0.04166471       0.58901079
Na       6.25301930       0.68155013       9.33110024      -2.34897136      -1.47195412       0.93629834
Na       6.96023911      -0.90969508      13.23866567      -0.95012538       2.29578484       0.54291744
Na       6.72227649       0.82701402      17.36192989      -2.15317675       0.26111086      -1.86537335
Na       3.99820987       4.63014434      -5.20656289      -1.46796671       1.88985816      -0.12108169
Na       5.90334298       3.43863352      -1.32867658       1.04245491       1.33588000      -0.15673441
Na       3.42409547       6.95038074       2.73620487      -0.11970534      -0.18323924      -0.91048202
Na       5.13982864       5.62868935       6.18199855       0.46271102       2.28103555      -0.68390511
Na       7.24649024       4.22364579       8.77568747      -0.44632287      -0.02380265       0.53089213
Na       8.51490134       7.17578793      10.58310987       1.17070925       1.49857343      -0.04973058
Na       4.77048866       3.11046229       7.81111856      -1.89664871      -1.09773601       1.52873735
Na       5.81599807       6.54339971      13.90299863       0.86111881       2.04632045       0.17064345
Na       3.01303843       6.01261642      -1.31474122      -0.34300987       1.35734193       1.05617103
Na       6.82568231      11.33269940       4.75416622       1.95173933       1.84069834      -0.18738317
Na       2.17525260       9.72420242       1.65640984      -1.10535637       0.48082098       0.04956872
Na       7.82127088       9.21462997       7.70304061      -0.81762170      -0.47265821       0.20314440
Na       1.05814926      10.23605550       7.85139554       0.80994892       1.07068465       0.52985443
Na       7.48437525       9.58809938      14.42981949      -0.17154713       0.10089193       1.37103371
Na       5.25349742       7.06071548       8.86585087      -1.75954311      -0.44754921       0.14329159
Na       4.61454485       9.32324526      15.78425090      -1.48896264      -0.12992711      -0.44066995
Na       4.94967456      10.01176000       2.69329945       0.76390169      -2.33546184       0.27049043
Na       6.72253147      13.42738386      -0.32615983      -1.39045330       0.15327282      -0.81004269
Na       4.29873608      15.52511774       2.85362688      -0.01598424      -0.91788754       0.89055695
Na       5.55044171      13.80720359       6.13402462       0.34406253      -0.06165043       1.37797164
Na       2.79866710      10.71820932      10.54260262       0.61152830       0.18573543      -0.13320476
Na       9.20645160      18.03524431      10.90734234       0.48237401       0.32617088      -0.36397572
Na       6.15448405      12.06386275      13.44302293       0.86576691       0.19261107      -0.42766684
Na       4.00417440      16.18179777      15.14695706       2.31882125       0.11484277       0.22441444
Na      12.04741854       2.62527749      -0.42808202       1.67984297      -0.83416268       0.66848791
Na      12.18308870       4.48909287       3.09908203       1.02324966       1.07296203       1.02475754
Na      10.20151229       1.32951695       1.76609886       0.78448519      -1.45313969      -0.74623029
Na       9.35701379       2.28543911       5.82478343      -0.66404417      -1.94305527      -0.30273156
Na       8.03873357      -1.75909191       9.81974208      -0.19197560      -0.72660154      -0.02508705
Na      12.66460543       1.23808700      11.82757285       2.17829186       1.81596983       0.41085744
Na       9.16172823       1.41860733      14.52989983      -1.91460489       1.92917418       0.80759394
Na      12.51977788      -0.73975747      14.57132466      -0.68714488       0.63688909       2.97447302
Na       7.89675633       4.50787009       3.31883360       2.05119507       1.51659696      -1.73014942
Na      10.21836085       7.20413763       2.33390991       0.22148927      -0.50416344       0.34298399
Na      10.84057539       5.92201379       5.61614245       1.93841920      -1.13710208       0.09329967
Na       9.84762658       9.66252070       4.53797535       2.40057801      -1.35292287      -0.71820391
Na      10.88246262       3.57367656       8.58951593       1.41319862      -1.56694216       1.63522136
Na       8.57128362       6.08354201       7.38393266      -2.41952724      -0.03479893       0.94739296
Na       6.79622210       4.03917235      12.22929465       2.10605832       0.85727548      -1.00161082
Na       8.92035647       4.17690120      17.41074496      -0.77669946      -1.12127838       0.86687128
Na       6.63733444       6.80981171       0.55686918       0.98601713      -0.25224886      -0.27475434
Na      11.18367856      12.30439849       4.67943577      -2.40360558       0.25272371       2.01877589
Na       7.18739365       7.70825191       4.46833307       0.74289131      -0.56020135      -0.26473183
Na      14.19175379       9.51540557       7.07835949       0.32091982      -1.84635668       0.19187492
Na       4.05997966       8.85097254       6.73634239       0.17636410       0.74897521       2.06589779
Na      11.18812648       9.31402402       8.29970818       1.75802768      -0.43109112      -1.44478079
Na      11.95100611       6.20989350      10.16461174      -0.76908824       1.63546194       1.39751283
Na       9.02532923       6.55360642      14.27915525       0.39192423       1.02262586      -1.10827798
Na       7.79144345      10.68343885       1.13963630      -0.37346881      -0.05494886       0.43892621
Na       8.76384326      14.66002742       2.80321292      -0.44673691       0.97812510       1.78797721
Na       8.90603498      12.94626923       7.40415036       0.67161110      -0.73121177      -1.84365184
Na       8.15226865      15.57219845       5.86176752       0.58206850      -0.34933626       1.66017383
Na       5.91283788      11.92726613       9.33870219       1.61828315      -2.68585508      -0.10882517
Na       8.52253703      10.92491999      10.81637259      -0.26212045       0.14618091      -1.42419180
Na      10.57470205       9.31171089      16.56107168      -0.29298096       0.07692190       0.11115290
Na       9.13775805      12.41543112      14.02669339      -0.41990608       0.01632797      -0.46312902
Na      10.23067529      -1.07087732      -0.41046523       1.61849372       1.07839763      -0.75437120
Na      14.95439233       3.96940530       0.81137421      -0.66722709      -1.31987770       0.59028603
Na      13.80936379       1.37594880       3.24730559       0.98165077      -0.04193848       0.61770826
Na      13.16179191       2.73816523       5.99130154       0.81261688       1.34065657      -0.14327594
Na      11.23997365      -1.15325231       8.54845641       0.98372220      -0.45485399       0.15470503
Na      16.32255652       0.67722992      12.06648456      -0.98083961      -0.87672705      -1.01874327
Na      10.74277122      -2.28789954      12.64221396       1.07345444       1.12610655       0.69768964
Na      17.31811435       3.74514519      12.27743508      -0.46571807       1.04134311      -0.92981068
Na      10.51369139       3.49066547      -3.91513472      -0.44287910      -0.70828446      -0.49585368
Na      13.28731973       7.59981913       4.41955731       1.07352680      -0.75816025       2.04624649
Na      16.35939676       4.22831620       4.93021802      -1.60542660       2.26681248      -0.21059246
Na      16.85606462       7.16065315       6.93113340       0.84273622      -0.33905594      -0.80629838
Na      14.24494093       3.88223360      10.16338926       0.80311869      -2.19202212       0.94399299
Na      15.55869561       6.40132953      11.99018593      -3.29106927      -1.23554030      -0.15644814
Na      14.33235706       2.83887526      14.35723480      -0.54083149      -0.44936884      -3.14026372
Na      12.88235612       6.04114135      14.11301370      -0.02666352      -1.56043136      -0.82140250
Na      13.18565667       6.74390433       0.40683197      -0.26277816      -1.33018403       1.24188349
Na      14.80259496      13.10394843       3.52401812      -0.27157436      -1.03371950       0.30794636
Na      13.93351269       5.47303666       7.19452476      -0.26714037      -0.63338470       0.28305557
Na      16.48119274      12.59109355       9.54801747      -0.04405051       0.27758269      -2.51997278
Na      12.42881400      11.18392824      10.67325009       0.24318699       0.05169979       0.74568600
Na      15.41363133      13.57116557      13.19978188       0.95965020       1.54931175      -0.71004142
Na      14.25166972       8.62434994      10.70755627       1.36452029      -0.27335626       1.62395067
Na      13.79050703       9.22243974      14.43046678      -0.22529363      -0.93986658       0.43747416
Na      10.84291651      12.79814249       0.39458747      -1.44015447       0.01619250       0.63951169
Na      15.84839326      12.36988243       6.53316930       1.87864983      -0.29828115      -0.99153241
Na      13.28497485      15.43097563       1.25411118       0.25252721       1.49792433       0.02644725
Na      13.19021108      13.35013131       7.92537858       1.38464310       0.09499564      -0.24121336
Na      11.01194951      15.55407659       5.20080613      -0.70422695       0.19195516      -0.31832450
Na      13.58894629      14.92808076      10.57458208       0.73772652      -0.85166578      -1.01275654
Na      10.83886663       9.04809874      12.70193443      -0.75097757       0.43576263       0.54302286
Na      12.12757037      11.88792576      14.38987015      -1.95064595      -0.74132072       1.12582611
128
Lattice="16.776 0.0 0.0 0.0 16.776 0.0 0.0 0.0 16.776" Properties=species:S:1:pos:R:3:momenta:R:3 config_type=highT_Na128_600K pbc="T T T"
Na       0.33096256      -0.88634590       3.05266486       1.50623680      -0.81914662       2.01512177
Na       3.54682634       0.30453538      -2.86483934      -0.38323328      -0.63424330       1.41387173
Na      -0.24809412      -0.92986723       6.65987810      -0.92140897      -0.50135556       1.50670732
Na       1.03395502       1.71444450       7.02405584      -0.62643405      -0.33049839      -0.94855844
Na       0.27863477      -0.28136353       9.94485008       0.05829389      -0.02094632      -1.24693497
Na       2.09354148       2.66365954      11.83246230      -0.69743390       2.36816786       0.06574158
Na      -1.42164067       1.23924257      16.93535439      -0.91646357      -0.46664859       1.73476313
Na       0.88056304       9.31807933      13.65887758      -1.31558057       1.94847029       1.31889986
Na      -0.15711096       6.60020072      -0.49915655       1.13786740       1.20270377       0.56843720
Na       1.86097610       3.11985371      -0.44772192      -1.09674089       0.55341542       1.05242656
Na       0.95121894       1.99477649       2.09712208       2.05776891       1.37271770      -0.31429890
Na       2.56554596       7.33809596       5.02918568       0.69021763      -0.03667897      -0.55922204
Na      -1.04370297       3.68422079      10.17483985      -1.96340669       0.34997409       0.41531818
Na       1.60621343       7.64547598       9.43336185       0.74647928       1.38684359       2.03634332
Na      -3.55999961      -1.52209568       6.64464654       0.59152026      -0.14627845       1.08386931
Na      -0.23547649       9.90245107      17.56494154       0.24413603       0.42607895      -0.41926770
Na      -3.15228183      11.12620744       1.74329944      -0.59082871       0.89701891      -0.86959482
Na      -0.21434606      12.83385257       2.19555804      -0.03260558       1.35731166      -0.30544898
Na       0.11075146       6.55523037       2.91210954      -1.96844812      -0.06114137       0.38268524
Na       2.75888664      12.14105829       5.13908197       0.15715627       0.98695986      -0.00036666
Na      -0.10283196      12.19097520      15.08232220      -0.76753759       0.73115505       0.77445403
Na       3.98221483       8.16628412      11.49530319      -0.29472483      -0.65428410      -0.94705180
Na       3.62219853      10.32056261      14.73118900       1.21216562       1.16976207       0.92407820
Na       2.68794635      13.13644218      18.03820234       1.44093307       0.25743901       0.29594288
Na      -2.56880266      13.70290019      -0.67452910      -0.03582057      -1.36671389       1.23209511
Na       3.07236653      16.22673338       0.20169246      -1.71896385       1.45516516      -0.20373130
Na      -0.98781652       9.62063968       4.54959463      -1.08440016      -0.04459638       0.65406568
Na       2.67068045      16.65178827       4.49287737      -0.55795557      -1.41189023       0.26027166
Na       3.46605537      14.78052923       7.17752715       1.57522893       0.69528644       2.27051670
Na       3.96505041      15.73097410      10.43631542      -0.01908102      -0.05675844       0.74128877
Na       0.80335147      14.41289691      12.56262576      -2.41023130      -0.32336876      -1.42931987
Na       0.11208629      15.71283509      15.44999867       0.62351093       2.11689760      -0.30551321
Na       5.42172137       1.89095644      -5.81010931       1.00733908      -1.15321861       1.54589972
Na       4.63053948       2.51388290       0.87625868       0.00180323      -0.89173125       0.08869670
Na       2.83993469       3.70722610       4.22230523      -1.01049252      -0.79160850      -0.69638681
Na       5.74665817       1.61539338       4.17969331      -0.93732008      -2.23321973       0.33607147
Na       4.16503851       1.15085947       7.93172025       1.61010875      -0.99843805      -0.57185350
Na       6.80638061      -0.75800176       8.21460321      -1.41279451       0.78866496      -0.38231912
Na       6.81085622      -0.09342954      13.42393084      -1.99056913       0.58314314      -0.67162430
Na       5.85770723      -0.32371586      16.54795945      -2.21997270      -0.89520686      -1.04949096
Na       4.93748236       5.34415129      -4.28801943       0.00772765       0.38083512       0.31071392
Na       5.01082434       3.36882863      -2.32991493       0.48587752       1.81195689      -0.97943556
Na       3.78268522       5.84685748       1.94808540       1.72497037       0.64785006       1.19241487
Na       5.73419500       5.08576816       4.56889966       0.27507304      -0.06349338      -0.13718477
Na       6.71573821       3.02000704       6.95336533       0.33105182      -0.85442237       0.11100076
Na       7.69342482       7.39573167      11.46600511      -0.38132058       0.00226205       0.27630494
Na       2.24592075       4.92690271       7.04427598       0.56037837      -0.57863194      -0.17218762
Na       6.46562495       6.07142865      15.35310388      -0.03019199       0.34972949      -0.89479850
Na       3.28839953       6.57036830      -1.41704442      -0.07645605       1.14664938      -1.56199823
Na       5.79966248      11.90130856       2.66415674       0.23627408       2.18823591       0.92817333
Na       3.38284847       9.43150977       2.54649645       0.31491524       1.07486671       0.47801282
Na       6.52516911      11.02616840       6.28302707      -1.79567787      -1.25043026       0.60664907
Na       1.74677701      10.40784472       7.98240417       1.53314379      -1.01056850       1.16370027
Na       7.68227396       9.04375237      15.00273919      -1.12935569      -1.10657332       1.37495477
Na       4.71974230       5.32928925       9.32288862       1.38362485      -1.43630814      -0.03618685
Na       5.29145042       8.98560440      17.14819505      -0.46091248      -1.60218162       1.23488318
Na       5.79302581       8.26497074       4.05425094      -0.18333439      -1.07264078       0.48347092
Na       6.34585744      12.20357999      -0.46790450      -0.87766586      -0.50014844      -1.25192331
Na       5.16311421      15.31738891       2.70267846      -1.24667952       0.34651146      -0.94178900
Na       6.18930643      14.01066782       5.57057282       0.68615749      -1.59755042      -0.47622982
Na       2.21182784      11.07418783      11.76483487      -0.56570256       1.94118601       1.86301000
Na       8.79303281      17.56619980      11.07966727      -0.93972139       1.42938218       1.22403959
Na       6.11043255      10.35725246      12.53232344       0.26655378      -0.85594892      -0.88061304
Na       3.28354737      13.61908058      14.58772475       1.84742014       0.28334460      -0.46490270
Na      10.59336984       1.49835164      -1.74481057      -0.91067706      -1.14771020      -1.14608108
Na      12.21357061       2.93189663       0.59934937       1.63834888      -0.62449882      -2.02196044
Na       8.96046160       1.73978006       2.16972731       0.42711576       0.63986912       0.67058038
Na       9.71508930       1.02826125       7.08350518      -0.97121279      -1.44075877      -0.86761978
Na       7.46770373      -2.95546864      10.21127983      -1.95091557      -0.33562231       0.26750284
Na      11.93482927       1.06389591       9.72232746      -0.21027527      -0.52393689      -2.29838148
Na       8.38756092       3.34405532      13.19973500      -0.23062019       1.30081574       0.03889377
Na      13.24824200      -1.39941576      13.31561080       0.23949346       2.43776349      -0.25175942
Na       9.53049047       4.73352763       5.33464069      -0.32952553       1.94239691       0.65013401
Na      11.06498283       6.12072105       2.77321364       1.12841414       0.01286445      -0.16622929
Na      11.55023254       7.86590350       6.47667543       0.07455945      -0.64529055       0.68018863
Na      12.30714475       9.66069639       3.81518387       1.76530052      -0.35665849       0.15508928
Na      12.38935365       4.68586405       7.98011257       0.70491260       0.51584795      -0.93899587
Na       7.41970591       7.92655080       7.52263524      -0.49267168       0.75475113       0.07457339
Na       8.52361402       3.98792702       9.86419909       0.14335075      -0.23908264       0.17866137
Na       8.14690558       3.03933459      16.48456909      -1.89653258      -0.06418708      -0.55988774
Na       7.63807037       6.03297687       2.00177626      -1.83591711      -1.49021361       0.05448934
Na       9.09385623      12.39079601       5.08642938      -1.31626541       0.67877183      -0.03113688
Na       8.84845855       8.90325241       4.52818111       0.51341168      -0.50703927       0.14339718
Na      14.84963010       9.95872709       7.54327108       1.40762959      -0.98206696       0.78491925
Na       4.32800255       8.12530330       7.70344368       0.58455610       1.31116380       0.75669401
Na      10.08127476       8.58610251       9.08925490      -2.08449665       0.25492340       1.45213724
Na      11.15970358       5.58398100      10.95599869       1.22715836       1.72221227      -0.70560352
Na       9.82696060       6.55484466      13.86993516      -0.55778189       0.75177939      -1.46444925
Na       9.04631514      10.50827274       1.92660692       0.21215400      -0.15660252      -0.67232408
Na       8.61014594      14.96274722       1.48426389       0.59177190      -1.53229724      -0.67313021
Na       9.53796275      11.83525774       8.50877819      -0.84371400      -0.79853023      -1.27621246
Na       7.93600914      16.17278026       5.11622033       0.87177579       2.14569097       0.18391957
Na       5.50553954      11.87002487       9.18323402       0.21988813       0.81340911      -1.14860220
Na       9.58854979      10.29541029      12.16160815       0.64382418       1.09892865       0.38011629
Na      11.13763080       8.34856445      16.47369482       1.38857638      -1.73453911       0.54001015
Na       7.16882095      13.22132514      13.16199596       0.09371872      -0.73578137       0.45845457
Na       9.29253499      -0.98931743      -1.93620532       1.57648835      -0.14289682      -1.29239152
Na      15.59877716       4.31456454       1.28307300      -0.45410580       1.80143569      -0.00864730
Na      14.42990544       0.81737796       3.32154294       1.77286737      -0.59665177       0.39019812
Na      12.39442325       3.08719309       4.69038602      -2.44690940      -1.21134309      -0.85757527
Na       9.76311654      -2.04359150       8.01883408       1.07728366      -3.09079233      -0.31201217
Na      15.43447915       1.21111604      12.86749152       0.38138846      -1.57629875       1.25850608
Na      10.56830956      -3.19717228      11.63283202      -0.30346660      -1.79801773      -1.28155978
Na      18.27718532       5.37558447      13.25771825      -0.90729133      -2.36088968       0.03635742
Na      12.35917681       2.51917365      -4.42770408       0.33610009      -1.26555267       0.26494734
Na      13.51515761       6.46181084       4.69321600       1.50394343      -0.92954732      -0.77645128
Na      15.87433671       3.86229518       4.85513959       0.38250337      -0.76223508      -1.67559222
Na      15.82213309       6.88102545       6.90972888       1.87474449      -0.91082308      -1.33321932
Na      14.83931406       1.67810324       7.81793878      -0.23505192      -0.81313563      -1.24396753
Na      14.63652124       6.43939203      12.92774620       0.22862187       1.56647808      -0.94720020
Na      15.73028502       3.44419313      14.30584307      -1.15131952      -0.34829349      -0.92947176
Na      12.88009152       5.31852835      14.78994919      -1.17160583      -0.70631993       0.31512549
Na      13.79678624       7.07437382       1.08687012       1.39913461      -1.36059632       3.56579735
Na      13.66466862      14.34302903       3.22780292       1.25904140      -1.81200785      -1.84825929
Na      15.01584276       7.39643189      10.03457195      -0.02633997       1.79760536       0.49374901
Na      16.55672682      13.20516449       9.42944535       0.96791836       0.73102543      -0.56540608
Na      12.54461696      12.45564360       9.62384907      -0.42877106       0.21694051      -0.62860680
Na      14.31883136      12.65328937      12.71410173       1.78718814       1.36990091      -0.61640422
Na      16.12369404      10.10681026      10.71714994       1.95111860      -0.23054111       0.59217183
Na      13.51486003      10.66212645      15.09331651      -1.05002733       1.62522132      -1.63829894
Na      11.08591659      12.71034595       2.00800173       0.27570692       1.30518540      -0.33044885
Na      15.96772120      12.87501110       5.87577235      -0.23420046       0.45244704       0.26150947
Na      11.60055518      16.27304758       0.42429216       1.36434826      -0.34369736      -1.21234289
Na      12.78049291      11.99344514       5.37573010       0.85751419      -1.35714995      -0.38410608
Na      11.06757813      16.37864579       4.02287707       0.60685467       0.56411110       0.85646523
Na      13.45651242      15.16669678      10.41613150      -0.58935015      -0.24110247       0.38290630
Na      12.83236173       8.86873726      11.97309558      -2.05149817       0.75731353       1.67663575
Na      10.00377791      12.40338274      15.38995067      -0.45265105       0.12074098      -0.70645727
128
Lattice="16.776 0.0 0.0 0.0 16.776 0.0 0.0 0.0 16.776" Properties=species:S:1:pos:R:3:momenta:R:3 config_type=highT_Na128_600K pbc="T T T"
Na       1.43915111      -1.35007464       1.31084254      -0.76605656      -1.41592443      -1.09308859
Na       2.09411228       1.56121798      -3.06609166       1.13378970       0.73037749      -1.24976689
Na       0.41377030      -1.27146518       6.68106361       1.99133869       0.37229829       0.59235436
Na       1.40726657       2.81632290       6.96183780       0.15336559       0.05552131       0.00690577
Na       0.69712953       0.40980035       9.22706312       0.18397218       0.34393591       1.56682780
Na       2.79322885       3.12322721      10.02244740      -1.08438261      -2.33464734       0.53591147
Na      -1.77162300       1.01609038      17.22839607      -1.22644234       1.09693518       0.04093241
Na      -0.78375644       7.76737363      14.19730807       0.43760006      -0.03778351      -0.77878634
Na       1.05489708       4.94245771      -1.27842441       1.11196994       0.36381847      -1.85130068
Na       1.40221273       1.76170195      -0.06056298      -0.43992803       0.68814589      -1.19792108
Na       0.26484273       2.97797217       2.86436044       0.24913851       0.05060818      -0.14498870
Na       1.93266617       8.52349605       6.33043946      -0.27606171      -0.12078238       0.35800009
Na      -0.97564587       4.31197542       8.91392094       2.31764112       0.04620369      -0.79031698
Na       0.60191222       8.92569894      10.59897880      -0.47945521       1.70223409      -0.27449309
Na      -3.36568926      -2.39713660       7.56456618       0.44156971       0.70892314      -3.08964262
Na       1.50906693       8.80822797      16.94824115      -0.21664813      -2.12242278       0.36980553
Na      -0.49053001      11.66946115       2.14908934       0.22215684       1.24165680       0.15773306
Na       0.08143294      13.21796964      -1.60093340       0.82951536       1.07119637      -1.77308316
Na       1.24099401       5.69829625       4.66187164      -1.14088491       0.03310949       1.02781492
Na       2.85107592      13.98294025       5.29925910      -0.75178338       1.02245026       1.44316385
Na       0.95048803      10.10127904      14.05243141       0.12917850      -3.73788621       2.21153342
Na       3.48603179       9.20995971      12.22040832      -0.64503979       0.14775954       1.15343480
Na       3.23696206      12.01584297      15.06697516      -0.48137844      -0.17019578      -0.67289653
Na       2.89291230      12.30657269      18.16905571      -0.55382959      -1.27105825      -0.57197890
Na      -3.48358572      13.32925296      -0.62224357      -1.59199895       1.59941581      -0.58549321
Na       4.43486320      16.67967747       1.66658556       0.70921205       0.19099643       1.46837340
Na      -0.09290575       8.32500733       3.73745476       0.65824508      -2.44506510       0.28957296
Na       2.56196974      17.14161277       4.48603087       0.76475784       2.50995508       0.02406444
Na       2.94578245      14.04960429       8.47680144       0.28398275       1.86298503       0.60111707
Na       3.51253020      16.15540433      11.32512214      -0.34928109      -0.42279038      -0.74708752
Na      -0.31658430      14.72190264      12.19039662       0.37409007      -1.39216499       0.34002524
Na      -0.97611413      17.03772126      14.53032725       0.36754448       1.51875699       0.68867250
Na       6.54798230       2.43474091      -5.83147737       0.37930581      -0.28193139       1.52915904
Na       5.44986939       3.22458745       1.39336300       1.23189944       0.08997771      -0.30261938
Na       4.49660804       3.74850657       4.87945482      -0.59206623      -1.02132735       0.61614788
Na       5.92547879       0.85766473       4.78887558       0.70566330       0.82479653       1.31044687
Na       4.32848587       0.92650280       7.97253400      -0.24040092       0.94458788       2.02578425
Na       8.06454480      -0.86531744       9.70947216      -0.65261268      -0.03859226      -1.81068196
Na       6.47437589      -0.63236092      12.70921304       1.83380882       0.46975344      -0.74036011
Na       5.94957856      -1.72227215      15.77612528      -0.63650431      -0.80098682      -0.81703606
Na       4.04299899       4.42274206      -3.53222785       0.22618614       0.93770808       1.79640413
Na       5.45773822       1.62107003      -1.62883566      -0.71469004      -0.44970173       0.26656959
Na       3.01923486       5.49462034       1.29469263      -0.78349800       0.59340715      -0.43510601
Na       8.32521002       5.34421310       5.65945208       1.61224703      -1.09245495      -0.04688168
Na       7.96719544       2.01105143       7.90704160      -1.45046839      -0.88244024       0.65408678
Na       6.35808859       6.36348098      11.33695547       1.33321958      -0.57627474      -1.41389162
Na       2.15670527       5.72879259       7.87766396      -1.28722610      -0.00753888      -0.75580828
Na       6.06807964       5.47747347      15.71274130      -1.30419858      -0.74753839       0.94599052
Na       3.15500896       6.86576655      -2.53205282      -0.62823969      -0.81606890      -0.79641848
Na       5.39952857      10.49416446       3.78051056       0.41479826      -1.17307638      -1.00036676
Na       2.03378285      10.94695139       4.46035444      -1.08528909      -0.77449872      -0.10913651
Na       5.36456777       7.33471745       6.19076137      -0.41602165      -1.41916248       0.19244164
Na       2.03529197      11.23079131       8.36814240       0.63741866       0.02637318       3.23643906
Na       7.90156598       8.52048418      14.36567246       1.40451374       1.32538652      -1.60761668
Na       5.70659712       4.77164387       8.38286872      -0.30169768      -1.76141605      -0.58929764
Na       5.19533026       9.44203321      16.43116188       0.29180628       0.75058567      -1.19372336
Na       4.03275330       7.58853545       3.08173932       0.23297870      -0.41152671      -0.98681316
Na       6.32673078      12.27931142       0.58845161       1.07454400       0.61503231      -0.68711982
Na       5.33425491      14.54144425       3.55815857       1.25160110       0.72313540       0.73999098
Na       6.61955319      14.20585661       6.54382443       0.93477281      -0.10150258       1.43821782
Na       2.82172691      12.66706675      11.51586513       0.45995106      -1.45003015       0.44813931
Na      10.31271086      18.10871416      10.22796644       0.91687724       0.40851984      -1.83520576
Na       6.49602719       9.98582119      10.48796037      -1.72731688      -0.82027143      -0.18284670
Na       3.21618610      15.46184983      14.48043443      -3.82299289      -0.46203820       0.30019925
Na       9.50028520       0.67389964      -3.72113022      -1.83898654      -1.53591463       0.77974886
Na      11.09058487       2.06600404      -0.02771157      -0.68155281      -0.66501223      -0.37263068
Na       8.72015536       2.54724844       3.51818140      -0.87799422       1.60559110      -0.05708072
Na      11.43129980       0.68226694       7.28203495      -0.55741480      -0.60777278      -0.87792170
Na       6.36641015      -3.68570089       9.92071772      -0.42572989       0.40512884       2.49123664
Na      13.23216123       2.81985911       9.55231839       0.89429440       2.55765843      -0.17413053
Na       8.02928833       3.80814189      13.30651245      -1.13230692      -0.11019920       0.00157669
Na      13.11549466      -0.41840949      14.56711875      -0.88416872      -0.02402527      -1.94261770
Na      11.68143433       4.13361192       4.95497371       1.01404174      -2.10492982       2.84031996
Na      10.81630727       5.71604893       2.18667129       0.83892990      -0.67740092       0.74430880
Na      11.90043274       9.58518185       6.48209245      -0.41131797      -0.74434052       0.46806937
Na      11.23511426       9.85534257       3.10046238      -0.72379106      -1.71517404       0.70670799
Na      11.13980589       6.33797701       7.94303900       0.98850052       0.00386234       1.30123572
Na       8.08797788       7.40258828       8.22730056      -2.11684599      -0.61595209       1.42209761
Na       9.36736458       4.10401987       9.44074962      -1.68187715      -1.68981407      -0.60046536
Na       7.85146900       0.37476472      18.10684769      -0.59783787      -0.76370722       0.01006332
Na       7.10370031       5.93037193       2.59565983      -1.63939365       1.49055294      -1.18716749
Na       8.92261924      12.44498002       4.67520155      -0.33274327       1.14596851       1.03172717
Na       8.64200494       8.93477395       4.97366539       1.55176381      -1.33146650       0.62947604
Na      14.48569770      10.75998208       8.00726210       1.24850010      -0.89977856       0.32144892
Na       4.10129016       8.25261198       9.45003432       0.62310050       0.40225952      -1.92618812
Na      10.41242434       9.00520866       9.79321617      -0.03524422       0.98382643       1.08673624
Na      11.43092030       5.22429780      11.19025941      -0.16555255       0.52282260       0.56771043
Na       9.31844464       7.22614641      12.40589128      -0.30699011       0.11032246      -1.48121526
Na       8.33805269       9.89127188       1.47455897       0.52135495      -0.48983855      -1.98626003
Na       8.40332053      14.45919267       2.49182901      -0.04983614       2.39817600      -0.76387200
Na       8.39369839      11.24926665       7.92593991      -0.77732714       0.72468986      -3.04038128
Na       8.81165923      16.20239245       5.94846784       1.42424326       0.41449150       1.11243244
Na       5.19423642      11.01028592       6.70527405      -0.29205142      -0.09807352      -1.70119404
Na       8.68913974      12.51106423      11.53139369      -2.20555529       1.39675358       0.21181908
Na      10.98639200       8.31029096      15.99958669       1.42458171      -0.39078094      -0.95588761
Na       6.00198583      11.78207731      13.21029274       1.76798930       0.40906144       1.00193491
Na       9.66971945      -2.14743452      -1.40142544       1.06696095       0.17927243       0.48582446
Na      13.80219638       4.84713156       1.30319816      -1.67835026      -0.28402129      -0.07337158
Na      16.59502441       0.01306587       3.83715709       0.13796585      -0.25753602      -1.66617988
Na      12.93016753       1.99851459       3.06818701       0.49836438      -0.56174146      -0.30043949
Na      10.43692886      -3.37909816       7.30263428       1.59840552       1.98290174       0.58264271
Na      15.86722778       2.50774913      11.66623192       1.10706257       0.00710444      -0.18361242
Na      10.72269004      -1.89550383      11.00614167       1.66169793      -0.08529308      -0.81378616
Na      17.82106132       5.77608014      11.73754828      -0.77156966       0.90989502      -0.92601268
Na      12.78411366       2.76440809      -3.78168678       0.14500610      -0.29447956      -2.06803950
Na      13.33575181       6.91554194       4.00427658      -0.31781249       2.20158152      -0.19817958
Na      14.67681785       4.36539731       5.44708996       0.50433555      -0.32000538       0.83070903
Na      15.36242397       7.32034985       6.90702079      -0.21530631       1.20195918       0.89975432
Na      15.13287568       1.30556711       7.12077292      -1.12457544       0.28162280      -0.40065370
Na      14.09879183       6.82192615      12.52926897      -0.47814733       0.89706359      -1.04674810
Na      14.89220824       3.60898742      15.39248498       0.98981803      -0.63631458       0.80019982
Na      10.08505918       5.01003964      15.24925498      -1.36552627       2.18602339       0.47831813
Na      14.29145603       8.32256920       0.86800759       0.40673848      -0.48845080       1.46068980
Na      14.46085506      15.06986161       2.47266775       0.03322557       1.08840497      -0.51132022
Na      13.86390248       8.22618819      10.19757243       1.14412062       0.37320230       1.64471157
Na      16.74375407      12.81846507       8.89207280       0.28830489      -0.93817510       0.95150957
Na      12.59943727      12.57440107       9.96069707       0.33851413      -0.79490131      -0.65262380
Na      12.56404743      13.22194454      12.94718222      -0.05614711       0.43892809      -0.30739624
Na      15.61338660      11.07797848      11.96583531       0.63915656      -0.06335354      -0.52630542
Na      14.23919494      10.46499990      15.35948344       0.89158687       0.36028678       1.64356957
Na      11.74795526      12.69322567       1.84616036       0.61090735       0.02290430       0.09758020
Na      16.07552940      12.07288645       5.68989682       0.37692057      -0.60816978      -0.00200989
Na      11.96008932      15.72452149       0.78517614       0.10106399      -0.54118496       1.45585791
Na      12.85637729      12.57622737       4.83296455       0.74008612       0.10528869       0.78356349
Na      11.81673443      15.71357100       4.27063509      -1.95034276       1.25860128       0.48460811
Na      13.91659255      16.39192805      11.33545490       2.00243247      -0.19229425      -0.22172358
Na      12.06395038       9.78270457      12.64270452      -0.99920767      -0.03893161      -0.58818917
Na       9.49585140      11.24470627      14.57273991      -2.54273823      -2.00462014      -0.01907089
128
Lattice="16.776 0.0 0.0 0.0 16.776 0.0 0.0 0.0 16.776" Properties=species:S:1:pos:R:3:momenta:R:3 config_type=highT_Na128_600K pbc="T T T"
Na       1.02425830      -1.99848951       2.11503464       2.91707635       0.39273500      -0.29130193
Na       2.25935948       2.25932322      -3.22867495      -0.37765817       0.13423371       1.14337164
Na       2.23481377       0.46461282       5.36099627      -0.83078985      -1.82017358      -1.69800246
Na       0.95565987       3.16830750       6.76522520      -0.27645880      -0.25082347      -0.66473924
Na       0.42023858       2.05498887      11.13166854       2.07752005       2.17993136       1.18286914
Na       3.77804239       4.32891591      10.69698506       1.34968787       0.29608003       2.61603240
Na      -1.45821265      -1.91883445      17.48582434       0.73387545       0.06936376      -1.83103934
Na      -0.73250932       6.59943746      15.33035081       0.01897722       0.54696716      -0.56996718
Na       1.36080638       4.02471328      -0.88484960       0.04646424      -1.27373101      -0.40223236
Na       2.89411309       1.02548714      -0.39617064       2.17863878      -0.74471033       0.66613113
Na      -0.48334731       4.44155807       1.91378815      -0.01307078      -1.11410652       0.70627630
Na       2.49229175       8.42078541       5.88744970       0.19997397       0.29522608      -1.10487135
Na      -1.04765161       4.21561371       9.08417634      -0.17341851      -0.83779034      -1.94501874
Na       3.12723949      10.83802594       9.83350990       2.52429947       0.97283844       0.79924744
Na      -3.21390799      -1.95057503       5.75111487      -1.30337838      -1.30255504       1.93255221
Na       1.59959389       9.03644346      18.56415537       1.90921518       1.67157188      -1.91145874
Na      -0.21716980      11.68032953      -0.23221685      -0.40355343      -0.69194684       1.32239789
Na      -1.55801916      13.64569357      -2.73748125       0.19552588      -0.25530266      -0.41933069
Na       1.74970494       5.45881053       4.67247046      -0.45995846       1.49865013       0.07781758
Na       3.07224421      13.52273667       4.97618984      -0.51558017      -1.16075524      -0.75460888
Na       0.75335838       8.82694564      13.13960751      -0.00878238      -0.15119143      -1.39115248
Na       4.18647525       9.84358666      12.42085775       2.63401660       0.13645932      -1.02352145
Na       2.37886085      10.75487317      14.88252534      -0.26948386      -0.40183243       0.81675236
Na       3.28402664      12.54182304      18.32668390      -1.52392497      -1.50188046      -0.38964120
Na      -4.03364417      12.47376019      -0.33496060      -0.40583673       0.54337030       0.17983133
Na       4.55116499      16.05126420       1.38306605       0.36863732      -0.28682028      -0.33905784
Na      -0.97260374       8.05597830       3.39629339      -0.59354914      -0.37552695       0.36587223
Na       0.88066192      18.29322779       2.76801808      -2.08351783      -0.98303695      -0.14871694
Na       1.09415990      16.37833168       8.29357161      -0.03897767       0.69564732       1.05529675
Na       3.71501421      16.55893139      11.87867002      -0.10391022       1.87850390      -2.09269480
Na       0.32035579      15.53499896      11.43347419       1.07897055      -0.70685006       2.02765835
Na      -1.53544270      17.08718047      14.08888683      -2.16007069       1.35224970       0.56522394
Na       6.02498435       1.89470191      -6.85701635       1.84312497       1.00827399       0.26180311
Na       6.66681899       2.36834212       1.81906485      -1.33830977      -0.12221933       0.51465146
Na       4.44521601       2.32977462       4.74242182      -0.94785473       0.93179772      -1.23377474
Na       5.99408525      -0.28795132       3.84311674       1.24300497      -0.53518052       0.19237314
Na       2.93691213       1.59183567       8.64469375      -1.60108260      -0.23954704      -0.26574534
Na       7.70105997      -1.58402957       9.20329895      -0.36504568       0.05878971      -0.14404247
Na       7.70872150      -0.64286965      12.36183361      -0.83349065      -1.65620904       0.18037802
Na       4.96667817      -2.37245904      15.16330787       0.49668939       0.14507586      -0.02253492
Na       5.08510926       3.83926992      -2.83728612      -2.35178927       0.36917654       0.51401027
Na       6.00736476       1.17303911      -1.35704219       0.85280430      -2.12240185       2.82115788
Na       3.58990654       4.02262884       1.66490199       0.28252884      -1.65995097       0.56834008
Na       7.60485481       5.12149432       7.92253790      -1.28993076       0.07317676      -0.44448846
Na       6.95649420       1.21965005       6.88880041      -0.09837861      -0.07969635      -1.14317215
Na       4.82139625       7.62429886      10.45941003       0.85953417       0.08908871       0.29546959
Na       1.46835451       7.13387787       9.47670654       0.83415557       0.67337864       2.59933856
Na       6.57259384       5.14642306      16.12243031       0.18335311      -0.60240140      -0.74564787
Na       3.32943469       6.95952684      -1.17316984      -0.88253948       0.33788201      -0.64380101
Na       8.08218301      10.12140271       4.44559181      -1.03228265      -0.94434247       1.86028890
Na      -0.12377507      11.70721691       3.35209827      -0.40218040      -0.02580032       0.30896797
Na       6.15853317       7.16869637       4.55962629       0.95105980       0.67218157      -0.38454068
Na       4.26993302      12.41215054       7.40726304      -1.04490200       1.85705139       0.30757781
Na       5.94815425       7.32958894      13.64417717      -0.05133480       1.83831090       0.03940000
Na       4.10955676       5.79952090       7.51330226       0.45283659      -0.61968846      -0.14816497
Na       5.41299158       9.51757733      16.71089412      -0.86519012       0.13112918      -0.16214290
Na       4.44464334       7.58298667       2.37048397      -1.03091120      -1.53389409      -0.05908205
Na       6.40397732      12.77585141       1.21859408      -0.72385054       1.12760332       1.48446630
Na       6.09152346      13.57962785       4.79997280       1.67800926       2.83029358       0.11371674
Na       4.56203588      15.95765861       7.54633822      -0.28418280       1.24032548      -0.64012575
Na       1.78852457      13.25851778      12.06973959       0.11465911      -1.17583301       1.57105598
Na       9.62282498      19.05853617       9.39115119      -2.50427009      -0.02403063      -1.63694524
Na       6.99477046       9.93875400      10.13566376      -0.85762016      -0.53229936       0.10637658
Na       1.27718273      15.15225114      15.22105637       0.52701717       1.05632853       0.64490542
Na       8.00035636       2.49561105      -4.00328516      -0.40485334       0.62591616       0.06035748
Na      13.53785140       3.86954455      -0.29533101       2.33384237       0.12246155      -2.21546026
Na       8.83939993       1.27967944       3.94918214       0.48200916       0.71420485       0.03031898
Na      11.56601938       0.60641126       6.56607189       1.31431798      -1.23742641       0.48947149
Na       5.03930831      -3.61341953      10.75115257      -1.24609060       1.12476650       1.40208684
Na      12.72066316       2.95405534      10.02567709       0.06529116      -1.76208942       1.98170972
Na       9.56110779       5.18658036      14.33297454       0.40640892       1.49268679       0.85334025
Na      12.45410073      -1.89601897      14.46434652       0.86279621      -1.49723242      -0.28046445
Na      11.49561627       3.97797450       7.38850393      -0.05186010       0.14546539      -1.44107321
Na       9.95813060       4.15713118       4.48517196      -0.77747529       0.57331882      -0.82165336
Na      11.27188250       9.60369278       6.28272323       2.68732301       0.15982544      -0.80620984
Na      11.56056154       9.12893090       2.66526220      -1.38852466       1.77618422      -0.50009091
Na      12.84539312       6.46073054       8.86158145       0.13288040      -2.45614473       1.26814925
Na       9.02882867       7.39488688      10.07488731      -0.21434251      -0.77348619      -2.04880458
Na       7.24198480       5.24852060      11.47026905       2.31745228       0.64276610      -0.79391258
Na       9.54821523       1.25440099      15.40739363       1.97156695      -0.37113718      -2.26071700
Na       6.68935666       5.02279126       3.02731308       0.09408109      -1.52407949       0.31236880
Na       9.46439824      12.68095902       4.37161029       1.30572999       0.40814066       0.11144650
Na       9.21051858       6.92852170       6.46615715      -0.99251740       1.36791363       2.05594693
Na      17.12075949      11.05267199       7.10854527      -1.14203818      -0.17552897       0.61448852
Na       5.82085194       9.09687392       7.53311984       1.63963633      -0.63678780      -2.11085010
Na      10.27862273      10.66711685       9.95556353      -1.36866929      -2.27475687       0.53560925
Na      10.73252663       4.74779020      11.10243765      -0.00777286      -0.73919390       0.44863107
Na       8.84944421       8.82926372      14.12627109      -0.98744399       2.09013362      -0.26858659
Na       8.42496068       8.14530015       0.86845192       0.26267897       0.36694517       1.03559384
Na       8.22948366      15.79852469       1.50765141      -0.25245750       0.49793264       0.21772415
Na       7.65409875      12.18015140       7.49699349      -1.58594537       0.40708349       0.49938544
Na       9.12112699      15.57757136       6.14449177      -0.27311896      -0.19572191       0.95855748
Na       4.52801348      10.55093605       4.80380577      -0.61585386       0.08657504      -0.46388218
Na       8.51172352      12.98614208      11.13529159       0.12798030       0.15104283       1.26881843
Na      11.35880712       8.49590794      15.74282761       1.33364542       0.36915464      -2.27671870
Na       6.42984989      11.75597663      13.63530813      -0.42922121       0.23346900      -0.90852464
Na       8.88314537      -2.12806930      -1.34507578      -1.61753018      -0.53639851       0.01587752
Na      12.81877848       6.37649920       1.65195847       0.54353040      -1.05169409      -0.60776713
Na      14.62758463       0.18521664       3.56179481      -0.18289126      -0.72456464      -0.12316156
Na      12.43870421       2.57988677       3.69392614      -1.24879196      -0.27948019      -0.01282657
Na      11.47577633      -3.27620988       8.36311217      -0.86359987       0.65892261       0.19772175
Na      15.85264922       4.39898711      12.85286545      -0.23706604      -0.44502489       0.15919423
Na      11.30319360      -0.61482681      10.77367495       0.87416869       1.37030209       0.52472186
Na      18.85145886       5.96180613      12.57335301      -1.18820659       1.95829839       2.17280502
Na      12.09747511       1.97929110      -3.78646701       1.38025774      -1.69166283      -0.78322775
Na      12.73385672       6.16957101       5.41509847      -0.42090627       0.21461933       0.43595744
Na      15.04209094       4.45679132       5.75657319      -1.15069048      -1.00574988       1.54247983
Na      16.07659281       7.00232001       6.89309283      -1.22114694       1.12845861      -1.97605523
Na      15.00016346       1.09547522       6.92750406       0.63455038      -1.71560343      -0.22941209
Na      13.28926208       6.03838340      13.86153583       1.31717212      -0.46312349      -0.73820761
Na      15.55290501       1.53198888      17.34756860       1.80852068      -0.92603863      -1.82283415
Na       9.46375711       4.25226009      17.80663710       0.61296641       0.13371955       0.52861653
Na      14.20622400       9.56216436       0.79582441      -0.58273366      -1.29626538      -0.94947473
Na      13.74834891      12.88595972       2.73871615       0.95057755       0.17637553       0.97614971
Na      15.71034529       7.38210698      11.19782720      -1.48854632       0.91233221       0.41625435
Na      15.23888039      13.17531820       9.03975305      -1.08901831      -0.04641273       1.47722600
Na      14.14301836       9.61038238       8.63139310      -0.43204275       2.22007997      -1.38508972
Na      12.97440108      13.14341347      11.94577762       1.38075822       0.45070062      -0.69887932
Na      16.59456127      10.88223488      10.88864088      -1.10252082       0.41267136      -0.47342490
Na      14.11233754       9.64648897      13.61454096       0.89926883       0.30872974      -2.46739402
Na       9.27986995      11.33011200       0.36901641      -1.44212110      -0.51165232       2.31832118
Na      16.59560897      14.72576160       5.37102601      -1.96796779       1.47912198      -0.06968215
Na      11.75450901      17.30680492       0.65406404       1.30398879       1.06647442       0.04243843
Na      14.20298024      11.18715748       5.33358351      -1.49498257      -0.31482893       0.89311685
Na      11.29816376      14.93798700       2.79611821       1.37617152      -0.58961622      -1.06195831
Na      14.31488059      17.02050524      10.67426972       0.91318559      -2.35550348      -0.12194676
Na      11.93071720       7.79701241      11.60955716      -0.12865496      -0.09777689       0.49021816
Na      10.94681678      11.61133215      13.75611482      -0.23974430       0.47702534      -0.80685719
128
Lattice="16.776 0.0 0.0 0.0 16.776 0.0 0.0 0.0 16.776" Properties=species:S:1:pos:R:3:momenta:R:3 config_type=highT_Na128_600K pbc="T T T"
Na       0.93232349      -0.94645111       1.86470910      -0.25549086       1.02725289       1.04415751
Na       2.30621031       1.92009898      -4.11409082      -0.36383075       0.16971726       0.47256467
Na       2.54450522       0.64354268       7.34689557       0.64605620       1.19210150       2.35134185
Na       0.31542254       3.70716476       7.02779994       0.40659513       1.74685467       0.17681003
Na       1.06743754       0.82697080      10.14801876      -0.17657903      -1.20800250       0.49400278
Na       4.89160757       4.64339035      11.88577931      -0.28194877       0.47117142      -0.95279291
Na      -1.52885974      -2.43323904      16.83493548      -1.96981536       2.32674974      -0.44221814
Na      -0.95731982       7.70742056      15.86241196       2.04203786       0.06216884       0.13229371
Na       0.26160387       4.74634079       0.18239181       0.84701250      -0.06845317      -1.47079094
Na       1.93738173       0.72025399      -0.99605071       1.88384762       0.76375443       0.99646927
Na      -3.69157950       6.98945537       2.52292385      -1.48399896       0.62803910       0.66890205
Na       3.18075845       8.87438287       6.30314428      -0.16831232       0.41022746      -0.59741528
Na      -0.91785418       5.85387316       8.78745337       1.25594698       0.89128496       1.51312076
Na       3.02513427      11.07887240       9.97029830       0.41019932      -0.93850424       1.90031253
Na      -3.60797473      -1.10246410       5.35372948       0.99415724       0.02278078       1.07473736
Na       0.67211958       7.48170412      19.01890341       0.02047182      -1.42523552       1.06928268
Na       0.28276805      11.38463364      -0.64541711       2.46921147      -0.39055227      -2.05762471
Na      -1.64379707      12.12436785      -2.96184679      -0.21441393       0.57968103      -1.49230595
Na      -0.05393672       4.61930409       3.54619011      -0.08200476      -0.65824779       0.21933745
Na       3.24638862      14.33675017       4.73081423      -0.10485887       0.86067840      -0.09284695
Na       0.70172768       8.60343625      11.59016871       0.61442607      -0.65150780      -0.80379270
Na       4.84635677       9.43863543      13.25547568      -0.45200791      -1.50194836      -0.36750921
Na       3.11196246      10.06413756      16.08364903      -0.11992417       0.57038475      -0.86099492
Na       1.58416692      12.65959150      18.54345293      -2.15192496       1.15599781       1.02213238
Na      -4.86878933      12.25651292       0.91201981      -1.08212209      -1.68357805       1.53884132
Na       4.26906653      16.60981261       2.32889806       0.37997093      -0.70695034      -1.34299211
Na       0.30158657       7.48769120       5.49857643       0.54346042       0.06164988      -2.23651981
Na       1.65172160      18.39163017       4.10394904      -1.80031772      -0.06645239      -0.12122270
Na       1.99191910      14.15071838       8.74640425      -0.39747753      -0.33876314      -1.79932054
Na       4.94907395      17.05175513      10.95149466       1.38859838      -0.79348528      -0.16831490
Na       0.17104333      15.20625638      11.82858634       0.67754936      -0.33561599       0.09212718
Na      -0.97421744      16.69198258      13.84107637      -1.27625188       0.22217886      -0.53480979
Na       8.16564427       2.26983768      -5.11711029      -0.00278963      -2.20803698      -0.19943313
Na       7.26652169       1.83500683       1.37190361       2.42931744       1.81699898      -0.18924928
Na       4.68780861       2.07133570       5.09688314      -0.13331322      -0.41202025      -0.19480328
Na       7.01646710       0.19540031       3.62548383      -0.71928239       0.59096166      -0.86083988
Na       5.36348832       2.26625215       8.87679219       0.83158146       1.59118122       0.39571367
Na       7.72321119      -1.05045995       9.82387734       0.43346123       0.41999467      -2.06409861
Na       7.48362029      -1.18873545      12.80077857       0.91152548      -1.02975885      -0.74863100
Na       3.86175676      -0.77770553      13.58088654       0.89989360       0.73383403      -1.58341456
Na       4.39192167       3.58540313      -1.31118093      -0.91293767      -0.44880499       0.42041000
Na       7.24225620      -1.70977918      -0.09594039       0.48748976      -0.82956831      -0.08796545
Na       3.39030651       3.68076183       1.76688580      -1.45849001       1.68810138      -0.26893733
Na       6.21815607       5.47491174       7.81626681       1.26153389      -0.82224271      -0.07756279
Na       8.09591443       1.35261580       7.53264102      -0.04017648       2.04863901      -0.45941155
Na       3.90441005       7.65711271      10.13945259      -0.07149083       0.36558158       1.79481581
Na       1.04701074       8.21840968       8.59277347       1.36104558      -0.23351247      -0.47234814
Na       6.61040074       5.01526130      19.63477931      -2.06810402       2.18154372       0.41792507
Na       2.11022022       7.31946642      -2.02394288       1.53338240      -0.37137058       0.10756697
Na       6.74980344       9.28030338       2.96862484      -0.37351368       0.89735661      -1.47170264
Na       0.08478576      10.21704684       4.17667054      -1.73805165      -0.64413750      -0.52177444
Na       3.20386032       5.36728852       4.87421688      -1.46864407       0.27115709      -0.43927692
Na       4.83425570      12.24714372       6.38672419       0.24889244      -2.14712956       0.99424199
Na       5.83472947       6.42089191      15.26031164       0.14998396      -0.47191281      -0.44805815
Na       2.71833209       4.35765098       8.35444101       0.19716286      -2.21172627       1.39444280
Na       6.35433882       9.90820854      16.40116665      -0.39743841       1.60136147      -0.33251035
Na       4.20758622       7.52740510       1.75027093       0.44592575      -0.80873247      -0.62751770
Na       4.31136776      12.68883603       0.88665821      -1.68085638      -1.21265106      -1.65896324
Na       7.21958773      13.77515214       3.85885196      -0.57754281       1.58887500       0.79020339
Na       5.67109345      15.45386840       6.85811720      -1.35295633       0.85702999      -1.35622844
Na       2.39589518      11.98539393      12.67732844      -1.44942817       1.13520389       0.30211704
Na      11.26110487      18.70422546       9.94858673       0.97978776      -2.63194863       1.58855840
Na       6.37723300      10.21519413       9.39650645       0.04831860      -1.63850829       0.17264055
Na       1.81857326      14.06187307      14.96073415       1.18575494      -1.74193268       0.10748531
Na       6.88424579       1.40402292      -1.94718499      -0.48066717      -1.30356231       0.96310623
Na      15.86999830       4.18261699      -2.85217167      -0.19339709       0.61306957       0.18319418
Na      10.30363807       1.16197879       3.58828850      -0.29847717       0.45651465       0.82627868
Na      12.47788436       2.03818908       6.32289424      -1.08049265      -1.98125257       1.25307487
Na       5.17307528      -3.28323929      10.91098931      -0.63887180       0.41760055      -0.69894420
Na      12.89879285       4.54779382       9.01766748      -0.88254068       0.67629689      -1.20404816
Na       9.53885001       4.24411531      14.37816146      -0.66919809      -0.47469637       0.22243464
Na      12.64676244      -1.99289937      15.18162372       1.83908721      -1.84793809       0.15527369
Na      10.04091205       4.79246193       7.01106148      -0.27118866       0.64253593       0.10096850
Na      10.94164282       4.74648326       3.98331127       0.36612493      -0.68066316      -1.17249552
Na      11.47556507       9.92403406       6.94747534      -0.57062728      -0.59013870      -0.72425281
Na      10.88995392       9.13585972       2.85068530       0.17533295      -0.94024268       0.06062058
Na      11.97803726       7.77331271       9.15051009      -0.27964995       0.45673618       0.42502647
Na       8.27522885       7.75046087       7.86833998      -0.05681195       0.84563810      -0.29562006
Na       7.22432001       7.59201065      11.59770884       1.43138337       2.21545426       1.43828315
Na       9.98903384      -0.01642181      15.31214248      -0.98674174       1.55386904      -0.62275573
Na       7.78121828       4.01741171       5.34472638       0.95118485      -0.20165127       0.39287916
Na      11.36101884      13.15634461       5.00754465       0.02654490      -2.18626064       0.61206658
Na       8.91005270       7.39699887       4.84574348      -1.55439139       0.16858804      -0.01888237
Na      17.53011572      11.01291376       7.13127369      -0.81629726       0.45714296       1.24805102
Na       6.22153315       9.70728817       6.52833811      -0.82021219       1.77153244       0.38994366
Na       9.56705739       9.52751814      10.36628820      -1.64805185      -3.00635786       2.70398164
Na       9.19212742       5.53278365       9.79950933      -0.49470522      -1.04055929      -0.71119169
Na       8.29284927       9.74669851      13.77288662       1.23078193      -1.84467840       0.04289964
Na       8.99609372       6.80815364       0.42179236      -2.04813769       0.31148021       1.02471315
Na      10.38998940      14.72077655       2.05357048       1.72134235       1.44797207      -0.45133219
Na       7.99349644      12.94065264       8.01818360       1.97883611       0.24443710      -0.02090152
Na       9.53431469      15.41565887       6.38672734      -0.54448304      -0.95031149      -1.03755698
Na       3.41742840      10.55908409       3.43128201       0.89505831      -0.37531886       0.64011073
Na       8.21533787      12.76302266      11.30725277       0.02572317       0.28637460       1.05890474
Na      11.65493145       8.99067406      15.74320169      -2.30997726       0.12169077       0.01700941
Na       5.84675781      13.06930368      14.50595769      -2.52106803       1.01852935       0.77302717
Na       9.32522414      -4.06608910      -1.68360461       1.58247313      -1.48212564      -0.31983316
Na      12.05804352       5.78754449      -0.35918122       0.46531242       0.39307349       0.10205870
Na      15.30127948       0.50341722       3.58418513       1.41429911       0.22603523      -1.65853295
Na      13.78186034       3.06206652       2.57484711       0.33024473      -0.55430530       0.03733673
Na      11.22100391      -2.37915120       8.97143935       0.06435891      -0.36087513       1.05909201
Na      15.11291202       2.48798163       9.76574566       2.25884024      -0.32865128      -1.37661262
Na      11.28409514      -1.57859040      12.15402227       1.44719266      -0.31206339       1.53582104
Na      17.88386138       5.01741893      11.11277047       0.61623693      -0.30856675      -0.92997666
Na      12.82396661       1.01372402      -3.32802039       0.73100284       1.61031592      -0.28226125
Na      12.61887184       7.11469184       5.73462713      -0.46838172      -1.66682237      -0.03423777
Na      14.45387019       4.67641388       6.01730895      -0.79559129       1.10537733       0.20547361
Na      14.71711116       9.45330470       8.11986449       0.28306668       2.51256007      -1.00341126
Na      16.11415576      -0.12899274       7.03164833       0.54097178       1.40437686      -0.13120713
Na      12.14507130       4.24893169      12.48742977      -0.60244256       0.19178771       0.35240370
Na      15.88018184       1.48235486      17.30231489       1.11203273       0.48226595      -2.44276228
Na      10.39465248       3.07164107      17.63131907       0.79985238       1.19510348      -0.72462734
Na      14.17123069      10.46455088       1.33467303       0.96691668      -0.89335945       0.18180788
Na      13.99981388      13.73435807       2.97241148      -0.75390549       2.31264830      -1.25562808
Na      14.45007173       6.79418878      11.61479694       0.56012171       1.52849970       2.32805629
Na      14.92415203      13.82975150       7.97357561      -0.79399664      -1.69347473       0.70174033
Na      12.76862447      10.98129696      10.51270954       0.14203482       1.50580212      -0.19481837
Na      14.01193370      14.59325221      12.05763766       0.33945530      -0.58798828       1.78785974
Na      16.21573051      11.76320177      10.32184058      -0.43041344      -0.33431001       2.04457602
Na      13.95161762       9.10561583      13.77243391       0.53204263       0.22931927       0.10456743
Na       8.20848480      12.15627764       1.28032788      -0.87573484      -1.08803891      -1.78859769
Na      16.43073578      14.03155048       5.03919489       0.34978450      -0.68984145      -2.19821801
Na      13.44417151      19.61873982      -0.95052213       1.50647918       0.88669700       1.16625250
Na      13.86341898      10.57147649       4.82370477      -0.88902476      -2.20772088       0.93376028
Na      12.60232527      16.97750830       1.17868666      -0.14203954       0.22817866       0.33077507
Na      13.44885314      16.45640478       9.18324452      -2.62578200      -0.41231933      -0.47760443
Na      10.90885891       7.44411165      13.13563895       0.63053967      -0.28841789       0.19923694
Na      11.80793279      11.58687440      12.87996370      -0.92966157       0.79580586       0.32528798
128
Lattice="16.776 0.0 0.0 0.0 16.776 0.0 0.0 0.0 16.776" Properties=species:S:1:pos:R:3:momenta:R:3 config_type=highT_Na128_600K pbc="T T T"
Na       1.48352581      -2.20479095       3.82539574      -0.12138584       0.15865725      -0.13220010
Na       0.42549946       1.71542440      -3.76990743      -0.99472031       0.19458482      -0.33386334
Na       4.39978477       1.71332233       7.38593634       0.97849575       1.28665544      -0.62333038
Na      -0.29597869       3.47252005       7.73103086      -0.26029643      -1.25959699       0.09733296
Na       1.99092120       0.44378933       9.87282875       1.48152297      -0.50820894       0.42823396
Na       4.52691125       3.36765856      12.01386252      -1.94664976      -0.37334905       0.71268006
Na      -0.97553903      -0.50775296      15.76629416       0.21401178       1.04268572      -1.27533892
Na      -0.34166395       7.41429812      16.91155126       0.04652337      -1.25305092      -0.13977992
Na       2.58275244       4.34027302      -1.93058422       1.74387042      -1.13671833      -0.21432660
Na       2.03979642       0.75981501      -0.44461677      -2.12750115       0.93829084       1.08528644
Na      -1.16632701       6.19580536       2.67940798       0.27457178      -0.76169964      -0.02273868
Na       2.51358488       8.75735358       6.04299398      -0.55887424       0.74857573      -0.54663419
Na      -2.38538138       7.00829633       8.83889409      -0.22258919      -0.99658426      -0.22350344
Na       2.63868356       9.64980683      10.71249693       1.38375889       1.19105237       1.20675816
Na      -3.26517170      -1.83358908       5.40276554       2.14838551      -0.19899468      -0.50579838
Na       1.21830157       9.05215393      19.40309878      -2.12226577       1.01380016       0.10255799
Na      -0.16793527      10.71261482      -0.92046317       1.53447713       0.73178880       1.48807564
Na      -1.58486987      12.75270654      -3.30663573      -0.84566124      -0.11983328      -0.23096107
Na      -0.48634290       3.30241758       3.46444094       0.59679034      -0.13380275      -1.47700409
Na       4.35044488      15.35213218       5.98527748       1.53743000      -0.47571679       0.41467928
Na       1.55358326       7.56052425      13.39944258       0.35271373      -0.93547756      -1.34381672
Na       5.82733564      10.16228768      11.38799207      -1.11497508      -0.55480331      -1.33286341
Na       2.92226302      10.26209585      15.56279145       2.62372565      -0.72713841      -0.56400330
Na      -0.08368681      11.49628999      18.60170812       0.75328789       0.82586214       1.21108532
Na      -5.50437557      11.68456233       1.17508059      -1.33419358      -0.17722057      -0.44591356
Na       4.02875372      16.04818955       1.30125820       0.33156404      -0.75194799      -1.27283211
Na       0.39898702       7.09065839       5.54086950       1.55198578       1.34334071       1.94326013
Na       3.03678041      17.61688137       4.47130890       1.50177038       1.42514880       0.49862095
Na       1.46357514      15.10400883       7.20821898      -1.64439614      -1.25575757       0.87857880
Na       5.06781671      17.15571543      10.22166734       0.18025338       0.81377106      -2.26549172
Na       1.29869686      13.59205828      10.17591278      -0.89334016      -0.21910328      -0.30476173
Na      -0.19621150      15.47093701      12.45608344      -0.72027667      -1.30596316      -0.31391312
Na       8.59131035       1.40810531      -4.63889661       0.74345258      -0.54092409      -0.63031196
Na       7.37275260       1.90914741       1.30742262      -1.77019330       0.67655981      -0.59624117
Na       5.29655156       3.69629660       4.67686811      -1.45103283      -0.07019067      -0.03517214
Na       6.67024962       0.24090821       4.08685618       1.62475908       0.53768061      -1.41311544
Na       7.03365085       4.01428284       8.18466173       0.88826966      -0.95323674      -0.33127749
Na       9.03539900      -1.46790017       9.55872814      -0.23849326      -1.57765451      -0.26960383
Na       6.75422638      -1.40966623      13.24119478       0.25477172       0.54405537      -1.14526604
Na       3.13596588      -1.48699677      13.33326477       0.41839895       0.92518768       0.22092577
Na       6.02066143       5.57339560      -0.26647476      -1.46510273       0.03599725       1.15468975
Na       7.33875301      -1.58534124      -0.42148936      -0.29471177      -1.34443947      -1.76173435
Na       3.20699853       3.08779081       1.57894981       0.58388427      -0.18906445       0.21106729
Na       4.19692951       6.30192127       6.66104126      -0.36061684      -0.10693932      -1.15539327
Na      11.57557067       1.76914525       7.78102213      -0.41865857      -0.38316922      -0.76662106
Na       4.01324146       6.57876206      10.55042324       1.23022254       1.81684423       0.41515654
Na       1.04557770       7.08368018       8.99952455      -0.67000062      -0.94552232       0.80407210
Na       4.12991139       6.30666152      19.65841765      -1.42379965       0.80879823       3.35585432
Na       5.46035780       7.03618549      -3.43586007      -0.94536660      -0.54815504      -0.59583211
Na       5.37901751       9.56988074       2.52736176      -1.06679048       0.72673487      -1.04282771
Na      -1.73450291       9.43880149       3.32374042       0.38110543       0.12812703      -1.20565219
Na       2.25995895       4.23593902       5.11497042       0.10226488       0.65913668       0.18600361
Na       4.57482562      12.76933741       7.46383310       2.09080147       0.50721268       0.24513150
Na       9.21681416       6.20663732      14.80792414       0.50529210       0.33103762      -0.09558359
Na       2.76959538       3.59367184       9.29902156      -0.81753093      -0.47592005      -0.41191903
Na       6.54979143       9.24323472      16.32024949       1.30060615      -0.11361188       0.84768926
Na       2.69172729       7.20576808       0.47619530       0.44203734      -0.45262514       1.45010600
Na       4.93715012      12.15220769       0.30059303      -0.20502875      -0.04219750      -0.33052129
Na       6.03872417      13.58567354       4.54846582      -0.75262677       0.73121246      -0.34979283
Na       7.85220953      17.35652245       7.48573909      -0.46863441      -0.75354610       0.46998827
Na       2.09609948      12.12499832      12.93125479       1.17146402       0.90389105      -0.03188172
Na      11.35719010      17.46606770      10.71478012      -1.75114953       2.50900755       0.27475041
Na       5.35687298       9.76135213       7.57461350       1.32685284       0.08115352       0.62035773
Na       1.19558888      13.69064335      16.15524404      -0.69431192       0.98717294       0.66786979
Na       5.36077608       1.27310683      -1.47160402      -1.09414923      -0.31582053      -0.34460380
Na      13.22199015       6.42268244      -5.13443076      -0.00148582       1.57903898      -0.29821179
Na       9.41686958       1.06462424       5.15370418      -0.43238574      -0.50528829       0.07286320
Na      13.93156030       2.08923949       5.69923766       1.42763540       0.51228174       0.45105013
Na       4.89492256      -3.02546445      10.84463635      -0.92685803       0.96931744       0.14826359
Na      13.20280512       4.32667310       8.62139396      -0.60830914       2.08450427       1.29487331
Na       6.92743656       3.47413220      14.10301647       1.99300786      -0.08232079      -0.50964289
Na      12.24555980      -1.75199431      16.52315053       0.71804375       0.54539022       0.32899393
Na      10.21303670       5.58691968       6.60561547      -1.88360566       1.63209180       0.36655247
Na      12.11925791       6.01599336       2.94460974      -1.80860816       0.04119797      -1.09658626
Na      10.25309847       9.35067463       7.09282568      -0.20037371      -0.51817342       1.13055466
Na       9.92540486       9.39494818       3.63176144       0.35729535      -1.12166375      -1.62838741
Na      11.31571942       7.29073028       9.90109372      -2.19957241       1.31486903      -2.72741060
Na       7.42303277       7.11586790       8.29564368      -1.45284131      -0.36615127       0.95913303
Na       8.20934396       6.35760552      11.66356551       0.04462338       0.81520892      -0.90158576
Na       9.61088594       0.80112369      15.52612282       1.65027778       0.29384301      -0.16322634
Na       8.41024876       4.47225736       3.93727545       0.98628951       1.03189222      -0.61937733
Na      10.73131218      12.66205410       4.29326122       0.17495431       0.83169916       1.58796249
Na       7.09107543       7.38057183       5.05944135      -2.07257884      -0.83191891       1.53568054
Na      18.09836484      11.57456196       7.86899299      -0.34172197      -0.69645386       0.53984154
Na       7.25198188      10.47235311       5.17104641      -0.65593297       1.12346155      -0.18323212
Na       8.79217383       9.62565565      10.23977542      -0.05350351      -0.17949640       1.89149103
Na       9.67145451       3.54574088      10.17900126       1.11793058      -0.04894538      -1.15906326
Na       8.60945507       9.33707110      13.50917926       1.28968373      -0.93001401      -0.70613278
Na       7.93423113       7.28070224       1.47246241      -0.22706117       1.30074957       2.41922135
Na      11.54412481      16.04948498       2.77053345      -0.18378142       1.34053790      -0.53869265
Na       7.99710727      12.07448794       8.02748022      -0.30900934      -1.54667404      -0.87190272
Na       9.45413688      14.13211543       6.54776282      -0.44502140       0.44570358      -0.72460821
Na       3.01307261      11.66422989       3.61399454       0.45274651      -1.00323227       0.79376981
Na       8.50363452      12.90273156      11.78229907       1.16638920       0.19440820       1.99460629
Na       9.98585135       8.99894375      16.44670199       1.29884728      -0.27197860       0.23239077
Na       6.17726487      12.17148792      13.89000577       0.35200750       0.51774820       0.32017607
Na       9.23124389      -4.22342682      -1.32923824       0.34259181       0.87795107      -1.29326596
Na      12.28661624       5.26498760      -0.21394037       0.67232770      -2.29768516       0.51015047
Na      15.25626637       0.35258959       2.75777233      -0.51471630      -0.94128300      -0.81325837
Na      12.32289781       2.39620417       2.84752548      -0.01633798      -0.57904861       0.17094784
Na      11.29136815      -4.03410543       9.02287510      -0.43311599       0.85916216       0.54512074
Na      14.72472947       3.45849630      10.87991408      -0.47045215      -0.34535370       0.43950088
Na      10.93842365      -1.62851222      13.02481427      -0.53818929       1.09509798       0.08508238
Na      16.69519284       5.28805294      12.06234099      -0.78142220      -2.24989700      -0.47968290
Na      13.02145594       0.90256165      -3.13601135       0.18072755      -0.98100745       1.62056097
Na      12.70266576       8.24337327       6.01734593       0.48068499      -0.06797299       0.49613528
Na      14.44846308       5.14896431       5.62384303       0.10292453      -0.34885775      -0.78288159
Na      15.69007417       9.40125028       7.35028155       0.60796788      -1.27496835      -0.58326232
Na      16.88167334       0.69919525       5.89455418      -0.02321281       0.55551628       1.15180974
Na      10.92628903       4.03835624      13.50332870      -0.07370500      -0.79155254      -0.34526489
Na      16.42855030       3.50370930      17.16325731       0.24839900       0.93194116      -0.77668471
Na       9.70299326       3.97620753      17.64339146      -0.12900433       0.82512541      -2.08685037
Na      13.17790361       8.72609937       1.13492533      -2.98799611      -0.21633867       0.00997129
Na      14.25839512      13.07955201       2.19841852       0.30749580      -1.02716498      -0.32146137
Na      14.68619382       8.78484786      14.08940106      -0.71875251       0.65258254      -0.14537426
Na      15.37843233      13.21660603       8.23813876      -0.10795578       0.13719834       0.44565219
Na      12.70566699      10.40399451       9.61859807       2.36985711      -1.73725429      -1.58503772
Na      13.75687735      13.99138763      10.64548993      -0.33140685      -0.38845406       0.43186844
Na      16.13643209      10.76981230      10.91479816      -1.74742030       0.18868822      -1.29538295
Na      13.07924262      12.27122136      15.60704246       1.62981690      -0.38522690       1.59038612
Na       7.73254994      12.91634127       1.95582407       0.95448941       0.17576226       1.69925342
Na      16.32068846      12.12469427       4.73019641      -0.75139361      -1.12947300       1.04831920
Na      14.79805391      21.80662875      -2.26474832       2.85902026       0.86410883       0.52299979
Na      13.36766720      11.57125964       6.36407188      -1.36102727      -1.20028029       0.73058135
Na      13.20996155      18.68859049       0.03076025      -1.16550594      -0.88294789      -1.71753817
Na      14.64928167      17.03558292       8.82864098       1.32297078      -0.20312371       1.24836329
Na      11.71913899       7.95559982      14.08393940       1.61727039      -0.02676032       0.34636108
Na      11.65973619      11.02898746      12.29284983      -2.27600928      -1.22615527       0.28513078
128
Lattice="16.776 0.0 0.0 0.0 16.776 0.0 0.0 0.0 16.776" Properties=species:S:1:pos:R:3:momenta:R:3 config_type=highT_Na128_600K pbc="T T T"
Na       1.43165842      -0.65192646       3.13835968       0.89004814       1.06960468       0.32925626
Na       0.11574060       1.63352695      -3.53882184      -1.15144049      -1.55977185       1.05906076
Na       4.17180753       1.42066828       7.49242306       0.47158484      -1.95341477      -0.36448693
Na      -0.60438646       2.88356521       7.70638765      -1.08503373       0.33033568      -2.01083644
Na       1.41485263       1.11501054       9.62721897      -0.38531915      -1.62310680       0.14933928
Na       3.40601195       2.42871924      12.39928236      -0.50836642      -0.52907501      -2.98181465
Na      -0.71574456      -1.21515021      15.00230266       1.14349356      -1.09708266       0.32016839
Na      -1.16337110       7.15948205      16.16545406      -2.63432641      -1.14388443       0.65743236
Na       3.26775045       4.55990360      -2.27697428      -0.49879684       0.71889545       0.89614624
Na       0.58108912       0.82554911       0.37776013      -0.38791264      -0.40481622       0.55277766
Na       0.15020328       6.52967094       2.68500169      -0.76714386      -0.49861573       1.43088943
Na       2.42270967      10.01922962       6.31671140       0.98621178       1.20114602      -0.38062908
Na      -2.17191341       6.48189110       8.76755895      -1.06864295      -1.86003358      -0.84369002
Na       2.06193465       9.87096385      11.33326795      -1.27251196      -0.30490101       0.28575158
Na      -1.88930683      -2.25190543       5.55509434       1.70347755       1.24839659      -0.05437240
Na       0.45256649       9.58602480      19.85618671      -0.38105631       1.32244032       1.14043139
Na       2.86258527      11.38183014       0.36890434       1.04410135       0.19379464       2.28298978
Na       0.49594018      12.22224955      -3.13608679       0.20954888       1.37450879      -0.35571601
Na      -1.37982507       3.19543096       1.56269413      -0.48588430      -0.03328449      -0.88930462
Na       4.92601604      15.22176900       6.93030796      -0.67201373      -0.15334666      -0.50620730
Na       1.82164054       8.01258688      14.20185617       0.48704752      -0.41002771      -0.08815078
Na       6.10183245      11.28958226      12.05648476      -0.82664919       2.12936483      -0.56123552
Na       4.50367460       9.27176578      15.01846390       1.46115547      -1.76058514      -0.81807188
Na       1.02920107      14.32849478      17.56179663       0.76420998       2.41055027      -1.03839918
Na      -4.45351392      12.81250527       1.09630037      -0.16295799       0.86394204       1.73278291
Na       3.93568342      16.22447794       0.71321518       1.27499780       0.44526457       1.81590720
Na       0.84910413       6.43296106       7.75970713       0.19114522       0.46451065       1.53699558
Na       4.77841636      18.27220655       4.30296467       1.72124608       0.18262608       0.06876097
Na       1.53452921      15.11039228       6.80273726      -1.12677790      -0.49261562      -0.21797334
Na       5.92508431      17.63804715      10.80694491      -0.83877851      -1.30592621      -0.45878249
Na       0.75741614      13.30184162      10.49131819       0.89103733       0.95984129       1.52628440
Na      -1.39425324      16.37631676      11.01183028       0.37480050      -1.04079750      -0.25700411
Na       9.34887672       1.61099949      -4.24326334      -2.06553932       1.16294639      -0.28467961
Na       5.21291743       3.28877052       0.25377143      -1.41876830       0.41695610       0.22407250
Na       4.95194536       4.50974548       5.74927881      -0.03587480       1.89914070       1.78656394
Na       7.38442375       1.09687235       2.41129705       1.25058165      -1.72975897       0.18483037
Na       8.02290436       3.16320460       6.59410373       0.30171976      -1.52358267      -0.90698226
Na       7.71734496      -1.58324323      10.67467447       0.20728097       0.44848696       1.36599075
Na       5.06757388      -1.47373795      12.99033623      -1.53725146      -2.17866525      -1.18967359
Na       2.17170173      -0.79208532      12.03031191       2.18597086       0.61889888       0.78812084
Na       5.22563722       6.67609597       1.66050636      -0.80973849       0.87532402       1.38681731
Na       7.59565979      -1.04934155       0.13997994       0.79002630       1.85180143       0.32437158
Na       2.02222045       3.68886877       1.83309571       0.20368990      -0.82181952      -0.31677139
Na       4.08191815       7.45645261       7.84091616      -0.09802625      -1.15293281      -0.36219512
Na      11.81396095      -0.35792094       6.14989779       2.71109268       1.60406606      -1.22724887
Na       4.91003724       7.42982058      12.00126244       0.24152911      -1.27080163      -1.35296829
Na       0.85714368       6.45468427      11.01504091      -2.72270119      -0.35223297       0.13450208
Na       2.76520290       7.31074412      21.31120659       0.55090491       0.27800969      -0.85877138
Na       6.40401954       5.75017153      -1.87725539       3.08746528       0.60403377       1.39314536
Na       4.21933451      10.40347181       3.18357975      -1.63734772      -0.20501136      -0.37194122
Na      -2.79105355      10.17956422       4.06109832       1.20365237       0.59151635      -0.40068358
Na       1.86498711       4.05883815       5.38781373       0.09035605      -1.65170433      -0.79759256
Na       4.95662758      12.11913136       6.71991560       0.69811782       0.60359639       0.08165400
Na       9.08178425       5.71338233      16.28915246       1.27659227       0.50788013       0.31458158
Na       3.51004179       4.41709441       9.20952386      -0.07707440       1.55817796      -1.21459818
Na       6.91680703      10.39937689      17.10332330       0.06647872       0.66993306      -0.64770727
Na       2.60100580       7.70499146       0.88113335      -0.38856624      -0.60024484      -0.71471455
Na       5.44156995      13.24664669       0.88256815       0.05684588       0.06781012      -0.74809865
Na       6.26029227      15.45116461       3.26046815       1.48807788      -0.68815401       0.06284272
Na       8.09029566      17.15500921       7.37172106       2.03904107      -0.83670681       0.50985014
Na       3.25211838      12.16275656      13.00851084      -0.79674177      -0.99721326      -1.65709123
Na      11.40835440      15.88138126       9.99791378      -1.33442786      -1.59080075       1.31726917
Na       4.99122369       9.82613705       9.00931343       1.03885028       0.52452744       1.20671341
Na       2.92470712      14.27952467      15.16844255       0.63536457      -0.08195714      -1.08712635
Na       2.77999227       1.07471371      -1.93327171       0.52976345       0.98813646      -1.64730644
Na      12.28899389       5.26725760      -5.56516816       0.29933652      -0.98107454       1.01620599
Na       9.62570698       1.40277132       4.58576757      -0.01152830       0.46208555      -1.15765641
Na      15.17108211       0.97541240       4.96477772      -0.90636773      -1.39444839       2.03622994
Na       4.35467368      -2.98420506       9.49976183       0.44822595       1.10004587      -1.17857995
Na      12.42414994       3.81649878       6.81831678      -1.76572726      -1.34672641      -0.71978180
Na       7.09547748       4.18253487      12.27026545       1.06139154       2.70101646      -0.94745684
Na      13.66627574      -3.34905508      15.15454731      -0.64867130      -0.23029845      -0.19111463
Na       9.20138674       6.27189898       5.92004916      -1.57590106      -0.75428938      -1.07693491
Na      10.66035119       6.25882849       2.59738742      -0.20482975       0.11209549      -0.39520982
Na       8.43604746       9.59709151       7.32638815       0.36807226       1.95173463      -0.94431085
Na      10.19903015      10.15278416       4.52825400      -0.26323276       0.73550835       1.53177547
Na      11.85688649       7.35592903       8.68590872       1.46728041       0.46961221       0.56267886
Na       7.14149754       6.09167503       8.93275487       0.07285841      -1.35816634       1.23841120
Na       9.41184696       6.33417227      12.58848873       0.93780213       0.09406388       0.76660371
Na       6.43330174       1.39492597      14.47369956      -2.19431609       0.55967539      -0.03485966
Na       7.68557578       4.32234211       2.81508625       1.42301185       1.10638573      -1.36126964
Na      11.96502372      13.35007168       4.72296867      -1.03012235       0.99776006      -0.00311243
Na       6.15104047       8.34189534       5.47269996      -1.12335321       0.90581369       1.40891087
Na      18.31759769      10.89724204       8.92688147       0.44549950       1.15129393      -2.05657075
Na       7.24958539      11.48447446       4.75131830       1.41527295       0.15191085      -0.75698428
Na       8.24907460       9.39554244      10.59304690      -0.63898410       0.69145440       0.56976247
Na       9.44108404       3.58104994       9.86778680       0.80724293       1.85144098      -0.41019819
Na       8.19415438       9.14014831      14.03225495      -2.14493250      -0.27154842      -0.16611753
Na       7.59282134       8.23149739       2.74706159       0.75580640       0.92562247      -0.24099879
Na      10.98810909      15.83053003       1.14138581      -0.07183304       0.49339060       1.68202707
Na       7.93905259      12.91275718       8.05269282       1.57657951      -0.54317516       1.14995560
Na       8.83706594      14.76453446       5.15439933       0.23037125       0.36446644       1.58151913
Na       3.63125007      13.41225968       3.84789713      -1.63112222      -1.98435772       0.85285507
Na       9.36731620      12.49510997      12.92379211       2.07564364      -1.92556578       1.41549784
Na      10.48391154       9.85460215      17.83656866       1.36954376       0.34294063      -0.49262792
Na       6.48239586      13.04732766      14.29215000       1.67084203       0.47264812      -0.20271601
Na       9.46272585      -4.04894797      -0.86694993      -0.73210837       0.79902604       1.50075527
Na      12.95144598       4.64624029       0.78988730      -0.27781920       0.19735504       0.55461400
Na      14.02971170      -1.16514197       2.07735385      -0.96616492      -1.82558616       0.14120195
Na      12.36744042       1.92655652       2.85557338      -0.04202009       0.57025958      -0.38514361
Na      10.91708799      -4.17414193       9.66504875      -2.41028562      -1.15844419       0.75857668
Na      12.69252530       2.08490139       9.70381173      -1.74323565      -0.47318418      -0.88064340
Na      10.29777859      -1.69628094      13.66384401       0.91869944       1.31670495      -0.25632527
Na      15.80272625       2.97936190      10.46683502      -1.57907648       0.48463238      -1.94007774
Na      13.18329394       0.13280554      -3.53917943       0.48787032      -0.26459280       0.92403952
Na      12.56426078       6.95155128       5.16430611      -1.29167805       2.31106446      -0.09655525
Na      14.90192899       4.22991522       4.96448981      -1.17881898      -0.09501579      -0.21979578
Na      16.19456368       9.11711235       6.15620221      -0.13480700      -1.76498850       0.75532518
Na      18.30769073       1.28991844       5.66036112       0.63266370      -0.21842436      -0.29231279
Na      11.56633491       3.23740422      14.08016956       0.08488414       0.62631652       0.93014045
Na      17.04314960       4.11388551      15.67899083       0.31733818      -0.26723002      -0.18928943
Na       9.35040373       1.78958172      16.15434175      -1.68940295       0.94412390      -1.27990064
Na      13.84949106       7.96437839       1.94861906      -0.47750582      -0.52744307       1.01075119
Na      15.06591154      12.99283578       1.91147322      -0.06906671      -1.26553855      -0.33537034
Na      14.87560000       9.03702055      13.04517567       1.37600934      -1.86449043      -2.08473166
Na      14.28274845      12.72224555       8.12301498      -0.22159176      -0.39849537      -0.05325841
Na      11.54052892       9.11297347      11.59524171      -0.49209984      -2.26107526      -1.51303422
Na      14.43099684      12.81787060      11.75327390      -0.44837360      -0.85329095      -0.27960175
Na      15.10726292       9.85143132       9.61681530      -0.56947058       1.01506873       0.04410137
Na      15.20496650      10.49354821      16.44239192       0.83063511      -0.57345365      -0.39809864
Na       8.52447590      13.25342961       2.58127019       1.19177274       0.65818060      -0.71045568
Na      17.26014276      12.50383858       4.57620528      -1.70997110      -0.54303154       0.51938746
Na      15.19154750      21.71783939      -3.57899992       1.08032859       0.49169718       0.57570971
Na      11.74049644      10.33435884       8.01353242      -0.80614877      -1.63151738       1.12893510
Na      14.07380203      18.25286977      -1.01706659       0.17008626      -1.04986200      -0.79813144
Na      15.60894600      16.51722123       7.93219904      -0.38923531       0.62662959       0.36306974
Na      12.07702770       7.03753148      14.90505175      -0.66699111       0.96452740      -1.05026938
Na      12.16050994      10.86101369      14.68050611       1.49988711       0.84517062       0.82698037
128
Lattice="16.776 0.0 0.0 0.0 16.776 0.0 0.0 0.0 16.776" Properties=species:S:1:pos:R:3:momenta:R:3 config_type=highT_Na128_600K pbc="T T T"
Na       3.17293125      -0.84439975       4.41953359      -1.48886991      -0.93160047       0.20946062
Na      -0.74563360      -0.38426190      -1.75678444      -0.26199961       0.54311125       0.82235593
Na       4.91807593       2.78442491       8.42944411       0.47461308       0.63947507      -0.71445086
Na      -2.41994780       2.53102843       7.46367524      -0.85058181      -0.92010829      -1.29871111
Na       2.14461760       1.00122530       9.63744449      -0.13116060       0.65513778      -0.32398438
Na       0.98124929       2.49593548      12.06458428       0.13091810       0.41615405      -0.97602202
Na       0.98671377      -2.97559473      14.89377472       0.51451533       0.17233592      -1.13911405
Na      -2.53760855       6.28627814      16.39919346      -0.44888221      -2.17318589      -0.03511705
Na       4.08988255       3.57390400      -3.70389285      -2.40157934      -1.63202659      -1.46085070
Na      -0.13610851       1.05071535       0.86270178      -1.18158528      -1.14811139      -1.52120557
Na      -1.33295530       7.92676898       3.42802410       0.11197966       0.79715470      -0.44828046
Na       3.57045755       9.03828352       5.11351216       0.26074840      -0.81174625       0.59293568
Na      -3.98392921       6.68829035       8.02052763       1.15576901      -1.11121870       1.53906137
Na       0.22536218       8.87934671      10.72317286      -0.02028533      -1.68388563       0.84211356
Na      -1.37653378      -2.82084873       4.35882716       1.18756943      -0.42744497      -0.00690551
Na       0.16797199      10.72956249      20.15441049       0.09110645       1.24659945      -1.38214248
Na       2.22447716      11.47917246      -0.00088267      -1.33414530       0.27931343       0.00525391
Na       0.93845084      10.91556238      -3.04299289       0.09661367       0.39351036       0.66870289
Na      -1.40769974       4.01200938       1.66196709       0.32239874      -1.47856158      -1.00370636
Na       5.44780780      16.09659556       7.66711227       1.65552673      -0.21113967       0.67369716
Na      -0.05449859       7.65199367      14.65049342      -1.14299330      -0.21637805       0.08004887
Na       9.48068978      11.49992567      10.86652286       0.81043740      -1.18411256       0.02755004
Na       3.46675051       8.50954895      14.16833430      -0.87662552      -0.74991906      -1.06602731
Na       1.73319820      14.99069726      18.33923918       0.54876533       0.59404817      -0.11475634
Na      -4.78116247      12.65923301       0.80985830       0.02834896       0.87422681      -1.42996682
Na       4.80502168      16.94741218       0.79120776       3.12710013       0.38330755      -1.69595609
Na      -0.89669849       5.68530262       9.04526822      -1.40551606      -1.23412436       0.39156889
Na       5.98547653      19.26129940       4.01585918      -0.45459736       2.38366229      -0.60348551
Na       2.28020357      14.36967938       7.60593796       2.63256377       1.08090145       1.75328587
Na       7.11701014      16.28629826      10.75338487       0.94858772      -2.35809567       3.24289175
Na       0.65079214      12.78771922      10.04197077      -0.21142829       0.56174333      -0.13411047
Na      -0.88556704      15.89840311      10.73821866       0.57420842      -1.43782376      -1.50441382
Na       8.88605661       2.53205925      -4.87563722      -0.24129809       2.22322642      -0.13316385
Na       6.01032120       4.07188855      -0.14704907       0.66014405       0.39710482       0.17620167
Na       6.85261619       4.96503365       6.32200333      -2.42410479       1.76452597      -0.33156734
Na       7.57498714       1.78700352       1.16292434      -1.09363001      -1.87097603      -0.03508215
Na       8.19759324       1.97866973       8.53291900       0.10324655      -0.71442005       0.58856411
Na       9.93266264      -1.08031283      12.33196580      -0.94400146       0.78883795      -1.01643139
Na       7.38915299      -3.44280846      12.62039335       0.60846200      -1.32499059      -1.16171188
Na       1.52227533      -0.37559088      12.98198849      -0.65253234       1.73187978       0.34797123
Na       4.36316994       5.63183948       3.69325637      -1.05510871       1.60183408       0.69715551
Na       7.64387540      -0.75630670      -1.01654632      -0.56915458       0.99285235       0.56516818
Na       2.88710327       2.68225836       2.44954909       0.80593578      -0.72484516      -1.56989258
Na       2.53858607       8.82253103       8.58267106      -1.26258267       0.83115651      -0.62298985
Na      13.27445407      -0.24675520       6.19813798       0.51675055      -1.23472391       1.44681089
Na       4.87253363       6.60911563      12.31681068       0.47463409       1.70309182       0.98560835
Na       0.79226502       5.88158407      12.58013489       1.40671292      -0.55532724       1.38857144
Na       1.65753574       6.93837959      19.48428742       0.17015556       0.64459850      -1.15716812
Na       6.44142329       7.74279280      -1.04821728      -0.27748906      -0.09759323      -2.41837587
Na       5.21124300       9.26483629       1.94927189       1.14730480       0.31170528      -1.58333997
Na      -2.46789167      10.83063423       4.84384785       0.99351785       1.21453771      -0.52852006
Na       0.66824784       5.00068271       4.55571031       1.14448640      -0.37178304       0.36423201
Na       4.66051272      12.31942196       6.19093320       2.08255061      -0.60567333      -0.61111158
Na       8.62435391       5.52120815      16.71317985       1.37025918       1.33423486       0.46211278
Na       3.23453906       6.07703197       6.31097599       1.02423959       0.17754356      -0.93740332
Na       8.62575514       9.67461864      18.11781160      -0.36185850      -0.15727550       0.38043636
Na       3.03820001       5.31609663      -0.26718738      -0.95670947      -0.57592881       0.53402163
Na       7.24111446      14.15067450       1.21423174       0.68143988      -1.52255221      -0.78203674
Na       6.68897499      15.98100034       3.81164007       0.82371445       0.37856098       0.39889753
Na       9.89978670      16.08148580       8.18234214       1.99515449      -0.98636859       0.00034146
Na       3.55151499      11.59923643      12.66713787      -1.01871819      -2.29717681      -0.20364069
Na      12.85562803      16.02629897       9.75708004       1.15004059       0.60061780      -1.05324442
Na       5.87902557       9.79370657      11.11566811      -0.74903355       0.73747069       2.65491506
Na       4.53430907      14.10045271      15.53782077      -1.13944757      -2.36433005       0.55241007
Na       2.48064260       1.47317394      -1.31155669      -0.98638904       1.48282882       2.17641382
Na      10.73980991       5.31773955      -5.76174047       0.18744782      -0.11748248      -0.60791654
Na       9.95473093       0.63197124       5.19531974      -0.47151092      -0.71561450      -0.90455086
Na      16.28214872       1.35096489       4.42643635       0.92100841       0.20731039      -0.60890725
Na       3.80699809      -1.66863714      10.83708535      -0.28703122       1.02049465       0.97263279
Na      11.35244271       3.90380672       7.41168500       0.65483955       0.47428990      -0.24766671
Na       2.52377844       5.96052107       9.59371328      -1.62342965       1.01582085      -0.87484801
Na      13.02036753      -1.94763878      14.06480362       1.27825671      -1.82853672       0.77355510
Na       9.27672713       7.21426098       4.99758273      -0.87968738      -0.07365154       0.47080775
Na      11.10615535       7.38241575       1.77636724       2.00055863       0.58298524      -0.07498727
Na       7.69626707      10.10414376       7.26166888       0.11781848       1.44096834       0.14853962
Na      10.49627530      10.10953923       4.27368122      -0.36289447       1.03490925      -0.58965259
Na       9.11501910       6.47876167       8.01917234      -0.36693334       1.66207061      -0.49505310
Na       5.51171335       7.59495614       8.35040245      -0.42773427      -0.91747914      -0.07142622
Na       8.26692535       6.13085153      13.44699983       0.89751396       3.12511250      -0.15299933
Na       4.88354171       0.08485008      13.28697220      -1.09704148      -0.75457581       1.46853952
Na       9.33006609       3.57085252       4.83818528       1.77572275       0.41995028      -0.14858352
Na      11.29876358      13.17207317       5.38019556      -0.29000454      -0.09469092      -2.74577617
Na       6.61087526       8.04300927       4.56997572      -0.50683949      -1.59113513      -1.44397581
Na      20.41563132      11.60311314       9.16665304       1.59574795      -1.59217969       1.20507608
Na       7.23813801      11.31658878       4.24099741      -2.25376647      -1.21682513       0.30587443
Na       8.19172200       8.38635747      10.47336510      -1.44376561       0.32755393      -0.83357473
Na       6.77323682       4.87106436      10.36776486       1.00236802       0.89327203      -0.74336013
Na       8.63391247       9.65603309      13.73784850      -2.20075877      -1.36211202       1.60760209
Na       7.51663213       5.26595337       2.49922175       1.74987763      -2.78068354       0.53448631
Na      10.23545911      16.22639514       2.07036062      -0.96649426       0.31111254       1.58411152
Na       6.73879694      13.51310995       9.42847672       0.38145374       0.08757347       0.71336663
Na       8.27423239      13.59455627       5.87389918      -1.79311004      -1.88724030      -2.13803816
Na       4.17045913      12.84208348       2.74951069       1.17428942      -0.29487411      -0.79250361
Na      11.73358770      11.21045650      13.24200733       1.28682687      -0.08571160       2.19485702
Na      10.83295600      10.20859914      15.79193576       0.67677438      -0.83112835      -0.48950646
Na       6.06460054      11.23319286      16.17559226      -0.93916447       1.47222439       2.26514648
Na       9.40221288      -4.04645975      -1.32665861      -0.77152102      -0.45372780      -0.96249135
Na      11.18228126       3.71345221       1.33240133      -1.00082733      -0.96635615       0.94534965
Na      13.54189001      -1.04857127       2.01309436      -0.19334367       0.24757109       0.16468459
Na      12.72781054       2.29494577       3.81071453      -1.27454569       0.51716778      -0.40846816
Na      10.69924868      -3.61645677       8.76859065       2.26766295      -1.68586616       1.19471455
Na      11.60613073       1.91614536       9.73722602       0.19417699      -0.03785859      -0.65891835
Na      11.16258808       0.30126763      15.38203520      -1.73548961       0.08256834       2.67872132
Na      15.04951522       3.66901292      11.06201388      -1.02589917       0.42022437      -1.72175969
Na      13.76748145       1.16337951      -4.04542323       0.19988639       1.41772428       0.59242883
Na      12.51907757       7.23635357       4.80589066       0.19173373       1.80084151       0.10804630
Na      13.63963707       4.84798655       5.46784377      -0.43786096       1.31930648       0.38131376
Na      17.03489330       7.87096349       6.15132508      -0.10570889      -0.35029397       2.07555547
Na      19.35866542       2.43536684       6.29753023       1.10696875       2.52014189       0.50661804
Na      11.40168272       4.14122255      14.06031417       0.04942640      -0.05569265      -1.08304808
Na      16.29390818       3.68213051      15.42878126       0.29174803       0.38939626      -1.09439494
Na       7.48778460       2.45924446      14.47495810      -1.48080212      -0.27616176       0.54807422
Na      13.99990681       9.20299994       0.80732934       0.88450883      -1.42320432       0.17080296
Na      15.67544092      13.84127567       1.08636391       1.33471810      -0.39473988      -0.74601787
Na      14.55449104       8.91680224      12.74114140      -0.08222073       1.82653301      -0.69470014
Na      15.02410662      12.92753048       7.30893580       0.95754377       1.05329330       0.02802636
Na      11.63690690       8.94140331      11.39043498       1.21298659      -0.60478351       0.55751953
Na      14.01033029      12.62697710      11.14226193      -0.04363584       0.45800245       0.04456483
Na      14.67003489       9.72350368       8.38969682      -2.30502406      -0.86633293      -1.29028172
Na      17.12393630       8.99613816      17.88374683      -1.28360722       1.61646990       1.20722614
Na       9.73753925      13.14286009       2.97361263      -0.64366935      -1.55385991       0.27889048
Na      17.97842424      12.12712299       5.84819799       0.05785409      -0.19293546       2.92072073
Na      14.01621504      22.86396510      -4.18380544      -1.51964775       1.54396891       0.20206146
Na      10.95239926       9.53432997       7.58384467      -0.57861505      -0.85670774      -0.06681605
Na      13.51301236      19.08020871      -1.00123051      -0.67734555       0.62651960      -0.59581483
Na      16.20435876      16.19474851       7.01085503       1.60122327       1.83434399       0.26822379
Na      11.08417406       7.29052202      14.60809486      -1.71789952       0.79750527       0.15363786
Na      14.91657978      11.70023076      14.48159551       0.84867596      -1.50862702       0.45038951
128
Lattice="16.776 0.0 0.0 0.0 16.776 0.0 0.0 0.0 16.776" Properties=species:S:1:pos:R:3:momenta:R:3 config_type=highT_Na128_600K pbc="T T T"
Na       3.64991199      -1.51489965       4.73803472      -0.26330838       1.15917035      -1.90922126
Na       1.00704085      -1.11009084      -2.04348484      -0.33630877      -0.48726206      -0.32339197
Na       6.86453700       2.03852172       9.50550659      -0.84333692       1.32074672      -0.40233355
Na      -3.58784088       1.56031939       7.59490836       0.07516909       0.80733552       1.54921073
Na       3.44147391       1.33325164      10.71964754      -1.01639229       0.77145141       1.27359967
Na      -0.60404720       2.58395035      11.10849848       1.47409017      -0.91332615      -1.01902972
Na       0.63700930      -4.69661176      14.07660746       1.99173020      -1.35073201      -0.20184944
Na      -2.77384509       5.23280902      16.40641504      -1.30091766       1.75794758      -0.13733268
Na       4.31213816       4.56635355      -4.79574701       1.08021624       1.33911181       0.07425989
Na       0.10189931      -0.10471250       1.87602393      -0.64944772       1.16728665       0.54583755
Na      -1.49742833       7.48977497       2.08379281       0.93397118      -2.25088417       0.74138716
Na       3.81829138       9.60659617       5.12682482      -0.36111355       0.47342463       0.59865230
Na      -3.10549376       5.81232528       9.17714425      -1.68834541      -0.04600216      -0.35255950
Na       0.59074954       5.76555019       9.77620285       0.91213238       0.94122088      -1.74995319
Na       0.08676525      -1.50617473       5.11195361      -0.55427784      -1.61070097       0.30251693
Na       1.79561565      12.35087021      19.76343815       0.58159709       1.33618218       1.78958772
Na       2.42807114      11.52631599      -0.47150350      -0.03317993       0.58386642       0.64827167
Na       0.59591839       8.95211274      -4.71310071       0.48094403      -0.14037098       0.40881528
Na       0.55733047       4.41683960       2.19072086       1.12545070      -0.29105172       0.46021425
Na       6.50554718      16.41003727       6.50539542       1.48999480       0.73357716       0.76296037
Na      -0.73617920       7.46965925      14.27831435       0.17265916       0.47533939      -0.68706377
Na      10.70179231      11.87976214       9.65061130       1.48946908      -0.02379371      -0.31301689
Na       3.34846057       8.48005436      14.07093215       2.16636910       1.35535737       0.95112121
Na       3.17898325      15.10716829      17.63488430       1.28000192      -1.53134474      -1.77920964
Na      -3.98870057      11.77988870       0.04580375      -0.14059585      -0.74303264      -0.36179539
Na       5.00439149      17.55134371       1.34116907       0.01380087      -0.55239966      -1.38184369
Na      -0.91943178       3.17272893       7.10233218      -2.31150124      -2.54358105       0.80641340
Na       5.15222025      18.76524319       4.15175781       0.20538981       0.17050186      -0.28208729
Na       3.39978554      15.39081663       8.37000124      -0.99169184       0.11325598      -0.51364405
Na       6.54360782      15.72620798      12.56720195      -0.05526960      -0.53328725       1.23284056
Na       0.88411718      12.47801152      10.08150167       0.76487778       1.63123156      -0.42509167
Na      -0.54885721      16.21659367      11.09839934      -0.05663077      -1.28319671       0.43737297
Na       7.29618404       3.05712566      -4.34761347       0.04544840      -0.96814394       0.82540838
Na       4.00840030       4.53488062       2.38058697      -1.55355298       1.19989479       0.63406817
Na       6.17153066       4.20817884       6.32711020       0.08876063      -0.05147819      -0.12517580
Na       7.94438497       1.24708138       2.32769589       1.10986317      -0.69940507       0.79240352
Na       9.10938281       4.23693031       8.06310396      -1.59158676      -1.17717059      -1.02759275
Na      10.35618756      -2.43937696      12.02429247       0.44131387       0.42902561       1.35605732
Na       7.15709037      -3.76066799      12.99554177       0.52157516      -1.55468434       0.84706167
Na       2.36911699       1.91854214      13.67395745      -0.44694612      -0.06633085       0.26930466
Na       1.39031969       4.30168011       5.38855957       0.19483967      -0.87482233      -1.99410247
Na       9.93549597       0.58895510      -3.52061873       0.17917987      -0.55725925      -0.71862447
Na       1.65719014       1.56054376       3.64165927      -0.44906389       0.16455579       0.54735325
Na       0.91154937       9.43770315       8.89603671      -1.04450557      -0.55895352      -1.98348084
Na      11.83040774      -1.06352618       6.21472807      -0.62171274      -0.81833030      -0.00259278
Na       3.17951787       7.86282637      10.39347946      -0.35854224      -1.21831169      -1.72328376
Na       1.07756887       5.26733257      12.90700643      -0.32818259      -0.92395393      -1.00506659
Na       2.09109347       7.49298569      19.68262458      -2.19358770      -0.32642004       1.38422040
Na       3.83819041       4.74540675      -0.88380979       0.97979044      -1.57955230       1.09035604
Na       4.01054372       8.67185513       0.70231234       0.79185514       0.79179034       2.08437192
Na      -1.75218235      12.51757811       5.73362982      -1.03580635      -0.37487061      -0.84117541
Na      -1.25429081       6.24555109       5.59271079      -1.77144733       0.16314759      -0.22552655
Na       5.36279626      12.97464806       6.57472875      -0.59430867       0.95565883      -0.07942987
Na       6.86914907       6.28521248      16.68951682      -2.06239393      -0.70008262       0.80992618
Na       2.23777472       6.83613434       7.28786230       1.37970134       0.59230408      -0.36152453
Na       8.05931545       9.44783643      17.45423467       0.57616497       2.28231431       0.15440662
Na       1.34427838       6.90107823      -0.49177560       0.15365471       0.98670232      -0.42245930
Na       8.06274386      15.49685308      -1.20042195      -1.24680308       0.43692442       1.06725603
Na       6.53706827      14.90135563       2.76744952       0.05480621      -1.34633301       0.72922826
Na       8.80909869      14.88931512       8.29529115      -1.94319272       0.28761190       0.69254173
Na       3.86793126      12.00613082      12.48887565       0.05077232       0.23121867      -0.64130393
Na      12.65195583      16.06292204       9.82186027       0.57747869      -0.35695640       1.34150661
Na       6.62060011       9.86567787      14.81642744      -0.57186260       0.93401346       1.07784099
Na       4.31488466      14.47406143      15.03336516       1.92688825      -0.38589571       1.95676101
Na       2.47059316       2.43627677       0.06899535       0.39247883       0.84676269      -0.07748789
Na      10.39267499       6.02867664      -5.80444204       1.11460973      -0.80157351      -0.39521015
Na       8.90018879       0.89541438       5.93254694       0.26283212       0.25601144       0.55050235
Na      15.27784905       2.46352889       4.40179148      -1.42094492      -2.06537267      -0.32670830
Na       2.69955172      -1.60152632      11.46756128      -1.06987974       0.42011464       0.21889610
Na      12.19987694       4.24544494       5.81807471       1.48555045      -1.59944722      -0.71373674
Na       3.76364197       4.28012615       9.08474431       1.83555477      -0.51903024       1.34087836
Na      14.48991510      -2.60440283      13.77663544      -0.03926836      -0.29665634      -0.12560757
Na       9.78070101       7.05208041       3.25084232      -1.13025067       0.84263180       0.46632923
Na       9.68122166       6.15358103      -1.01843553      -1.70233285       0.65501427      -0.66674243
Na       8.65212073      10.09017900       7.81005566       1.62074906       0.39446817       2.23956534
Na      10.86048604      10.57595684       4.93894287       0.25914216       1.49742901       2.05555588
Na       8.56069903       6.94383917       6.64097763       0.37492186       0.29043861      -1.07767093
Na       5.11691380       8.20275500       7.53611332       0.75993219      -0.43689015       0.03604254
Na       6.72441071       6.83046311      13.23361845      -1.34434535      -0.67809649       0.01183376
Na       5.46167969       0.75805656      14.75354230      -0.19898920       0.38053573      -0.98745798
Na       9.49492117       3.74641914       4.40223795      -0.27376263      -1.39874151       0.46974503
Na      12.80079716      13.64963382       3.40196212       1.40304787       0.11074929      -1.09520765
Na       7.02981576       6.89511761       3.60563128      -1.28779327       1.37546862       1.13825512
Na      20.42450058      11.51964374       9.22769352      -1.16289381      -0.48155973      -2.10108787
Na       7.51506475       9.91696655       4.20870670       0.35046487      -0.75099272       1.64257985
Na       6.16371948      10.16144907      11.36922541      -0.97342329       0.38380418      -0.38828106
Na       6.65356777       5.93793731       9.66596003      -0.24465221       1.75907905      -2.03076046
Na       9.58880851       9.86687965      14.43306700      -0.19998888       2.39054107      -0.58572364
Na       7.27404765       4.62214638       1.83743784      -1.13813415      -0.47060138       0.76286337
Na      10.01566276      15.52453586       2.92378292      -0.04914638       1.96213954      -0.20575514
Na       6.04265196      13.67523707      10.14789085       0.06148604      -0.90036077      -0.86249750
Na       8.30947991      13.23474357       4.87302912      -0.83628764      -0.54050475      -0.35429343
Na       4.59381529      11.90794707       3.19517950      -0.33478402      -0.73356539      -1.63255104
Na      12.32476202      11.59366592      13.45144573       0.90895383      -0.26764485       1.23901133
Na      11.55058899       8.77473580      17.97021517      -2.19674162       0.78130954       0.22525340
Na       5.72702994      12.33526105      16.89919593      -0.72615796       2.60539357       0.99090297
Na      10.88881506      -2.73711301      -1.68280192       2.14717628      -0.15321870      -0.17042210
Na      11.21909424       4.06116092       1.36128461       1.72045060      -0.73906986      -1.36909254
Na      13.75608006      -0.97099180       1.78607512      -1.52979864       0.55393935      -0.25694963
Na      11.79583683       1.41157497       3.42222209       1.83176708       0.24514917      -0.28485275
Na      12.61117734      -3.73816634       7.47361653      -0.27668809       0.74744425      -0.41851445
Na      10.26979241       0.94936960       9.79235483      -0.13992937       0.69138133      -0.98645919
Na      11.20001815       0.51899645      16.47713655       0.26613470       0.10601506       0.98244744
Na      12.60758266       3.16574134      10.61602868       1.46604654      -1.78908191       0.52807739
Na      13.37824558       0.41689633      -3.58194030       1.84475891       0.02959731      -0.57471252
Na      13.14981998       8.62501176       4.92141857      -0.92343102       0.78295877       0.80063746
Na      13.58284987       5.21235172       3.14351227       0.17784858       0.14087806      -0.29489220
Na      17.43389827       9.76701100       5.99155528      -1.80443558       1.30618995      -0.06139198
Na      20.56508224       1.79671454       6.91580070      -1.02731895      -1.34007750      -0.01044189
Na      11.43824218       3.50783388      14.66348399      -0.35868912       0.25343329       1.57802109
Na      16.74955072       3.58031902      15.48044565      -0.16448827       0.55227502       0.46536905
Na       8.05806497       3.15596614      15.65801464       2.34544520      -1.24710651      -0.00203523
Na      14.23869431      10.77896730       2.85944212       1.52747707      -0.75279514      -2.61206889
Na      15.94065077      13.03728780       0.86108016       0.89190911       1.73030403      -0.71444569
Na      13.41319581       8.69465755      11.17360206      -0.86960809       0.47058876       0.91980053
Na      15.52226559      14.73382943       8.22730548       0.23596836       0.33164887      -1.48435041
Na       9.59999970       9.28736245      11.34116111      -1.82311350      -1.01808138       1.07901784
Na      13.93578047      12.73338089      10.80467271       0.45631250      -0.22643166      -1.95626262
Na      14.55783968      10.11754701       8.49319492      -0.20796009      -1.49599454       0.39742623
Na      16.81042960       9.78181898      17.64864432       1.81491860      -1.10367530      -2.94296322
Na       9.54934422      12.13537150       1.03783722       0.74100102      -1.28843336      -0.67371212
Na      18.64342595      13.13665406       6.92286053      -1.36112412      -0.62593644       1.54509068
Na      13.90670736      21.96224394      -3.35620960       1.44563798       2.16758871      -0.37649670
Na      11.87779452       8.43693229       8.18420025      -1.25142419       0.68785145      -0.66935340
Na      14.68610198      18.90011567       0.62087324      -1.05017870       0.06332779       0.43345677
Na      17.29676234      16.93508030       7.68193315       1.57223053      -1.09980169       1.64161271
Na      12.36025927       7.95416343      15.26900486       0.05725116       1.88525072      -1.30614312
Na      14.96172747      10.49171336      13.88336874       0.85176328      -1.62922025      -0.21920311
128
Lattice="16.776 0.0 0.0 0.0 16.776 0.0 0.0 0.0 16.776" Properties=species:S:1:pos:R:3:momenta:R:3 config_type=highT_Na128_600K pbc="T T T"
Na       2.63970198      -2.44220735       5.41073512       1.24598108      -0.92163211      -0.38121456
Na       1.53393593      -0.10459658      -1.60908365       0.74062368       0.52838307      -0.00042044
Na       7.20150073       2.69621609       8.26340137      -0.68982618      -1.30326262      -0.12366610
Na      -4.25485521       0.10040771       9.63912005       0.62468611       1.20136059       0.75672272
Na       4.81813468       0.84787940      10.00903903      -0.00994726       0.80596887       1.63822897
Na       2.00043283       1.78569238       9.00653990      -1.41868326      -0.79563548       0.22255762
Na       1.88322830      -3.92186861      15.48414095       0.55199839       0.59227934       0.19575344
Na      -4.16667767       5.85553847      17.61067280      -0.65131867      -0.78709727      -0.49498380
Na       5.71961836       3.48800601      -5.23190669       0.86698159      -0.14610794       1.84777841
Na      -1.90567397       0.36898311       2.26408580      -0.12012694       0.95488766       1.73535289
Na      -0.95748066       7.27249263       0.58564608      -1.59948047       1.00622409      -0.06027742
Na       2.85893316      11.01660874       5.15568058      -0.72449050       1.47171266       0.07423805
Na      -4.65895613       5.56474212       7.44968832      -0.62759194      -1.46394849      -0.28972402
Na       0.00114900       6.71015230       7.91056670      -1.03660851       0.49817100      -0.99491302
Na      -0.51735549      -2.06000770       4.23935573      -1.06236470      -0.71839517      -0.58395623
Na       0.31746736      11.87168549      20.03787956      -2.62772293      -1.21655779      -0.10857487
Na       3.43204799      12.58902300       1.79992363      -1.54730838       0.57646074      -0.69259599
Na       0.11345314       8.95188186      -5.65724129      -1.16483927       2.05258209      -1.47050894
Na       0.26901541       4.72775905       2.27353936      -0.00651025       1.70065662      -0.10923168
Na       6.03330674      15.62813250       7.15279606       0.73564931      -2.51906335       0.03726591
Na      -0.64684598       6.97472255      14.46918051       0.13961915      -0.69226702       1.13377694
Na       9.09510339      10.46531433      11.38479517       0.87432832       0.54043269       0.11456878
Na       2.96730752       7.74209978      14.56473409      -0.45015108       1.38860930       0.91877402
Na       1.37027243      15.47580607      18.50221119       2.66681631      -0.07344066       0.55790236
Na      -4.51285482      12.87963110      -0.37038909      -1.49333837      -0.70679829      -0.57788720
Na       7.28882552      18.41015264      -1.29877686      -0.16081134       0.40784020      -1.94679234
Na      -1.33634501       3.67793728       8.16176000       0.50059189      -1.37644610       0.99501864
Na       5.41798669      17.49984949       3.23941771      -0.30392811       1.15828739       0.79125989
Na       3.60686270      14.78742168       9.63027857      -0.71751272       0.65306343       1.31761795
Na       8.05092985      17.16187391      10.48513769       1.23136790      -1.47288351       0.02989105
Na       0.84323531      13.09087637      11.85122250      -0.28234546       0.82438836       0.19062544
Na      -0.27576175      16.14258855      10.73115028       0.20357445       0.92998129       0.17167406
Na       9.42524138       4.88286090      -5.87903308      -0.52080350       0.82882991      -0.32428523
Na       3.53777568       3.95609572       3.61778536       0.35483960       0.33415347      -0.41778717
Na       5.56726621       5.03806558       6.24028965      -0.44752644       0.64706656      -0.79892206
Na       8.27090331       1.71598047       2.42495994       1.45091047      -0.59586644      -1.38681633
Na       8.05318318       6.08172339       8.09215992       0.19413018       1.35062218       0.36949503
Na       9.07019439      -3.20581343      11.11445568       0.52385885       1.42218482      -0.80951497
Na       6.37403406      -3.98299654      13.18180556      -1.60510840      -1.48978313      -1.01610632
Na       2.01121884       1.49504677      12.31293320       0.26560253       1.72691499      -0.09894021
Na       0.95057293       3.59103840       6.24670741       0.94171105      -1.34026246       1.08212376
Na      11.18998154       1.68369673      -5.04691862       1.55630892      -1.19962276      -0.47751926
Na       1.74533229       1.36876814       4.22492468      -0.65926827       0.76412456       0.03778488
Na       0.26680328       9.55050196       6.84264912      -0.38736262       0.88912596      -0.42891585
Na      12.51313817      -1.85803678       6.35103892      -0.73125838       1.04060333      -1.10134646
Na       3.19082435       7.66644346      11.34103992       1.89863761      -1.23152222       1.20774804
Na       0.97332761       5.17986911      11.11342379      -0.79002025       0.11132254       0.84118673
Na       1.81163741       6.69528079      21.55018789      -0.39517444      -0.88116083       0.30739862
Na       2.12856112       4.39679583      -2.26406550      -1.60974760       0.24986957      -0.60210640
Na       4.28412752       9.32642188       2.49709742       0.79153298       0.24441666       0.52422265
Na      -1.92786764      12.12114329       6.18777669       0.58944930      -0.24501491       0.12983807
Na      -1.55160483       6.30941217       4.84008294      -0.77613080       3.29055971      -2.03421217
Na       5.25407779      12.27423081       6.95723693       0.11521846       0.51945225       1.45587980
Na       6.41842767       7.43098698      16.81358447      -0.04092844       1.09922346      -1.85711938
Na       3.41380712       7.62510949       7.36873542       1.99502998      -0.00454700       1.89270755
Na       7.69240485      10.53563164      17.80557208       0.11061259      -2.30430209      -1.22063850
Na       2.99278549       6.37254364       0.98652427       0.82851089       0.07482322      -2.76656064
Na       7.89805252      15.86972006      -3.04117133      -1.36427847      -0.68883348      -0.64990834
Na       7.89166063      15.49704452       1.30697560       1.69129122      -0.09731068      -0.38316954
Na       9.64736018      15.10527295       8.31912959       0.92861548      -1.43953286       0.03663837
Na       3.42263995      11.27573622      12.80772390       0.55899084      -0.03012038       1.99250126
Na      14.05140363      14.67693958      11.56259550      -1.63430414      -0.14419520       2.26454220
Na       4.60693200      10.90331775      16.29377584       1.86659876       2.94678057       0.18987015
Na       4.46331887      15.55654501      16.73996055      -0.67842820       0.71649347       0.02410714
Na       2.69751475       2.30113928       0.74228823      -0.79366754      -0.55304058      -0.16889295
Na      12.32213441       4.32758632      -6.18452207      -0.66795596      -2.22189469       0.16915229
Na       8.50314389       0.58672789       5.31587988      -0.28878654      -0.46170888      -1.46930350
Na      14.88680218       1.08837391       5.66880983       0.90722756       0.56240754       0.62292267
Na       4.16089220      -1.78835749      13.28355965       0.20434947      -0.42621749       0.63982978
Na      12.25280491       1.56061558       6.20257106       0.86334097      -1.04113912       1.68092939
Na       4.09345364       5.10380723       9.50883633      -0.17837595      -0.00118494       0.44522269
Na      15.31053777      -3.02341567      14.45296873      -1.34493373      -0.53559305       0.81030292
Na       8.97755535       6.74951223       2.72979834       1.48952226       0.38103803      -1.03294258
Na       9.36618068       6.88000746      -0.87180901       0.13462705      -1.58106060       1.04470643
Na       8.95770584      11.99890063       7.67947160       1.59000351      -1.64150511      -0.98554256
Na      12.37505603      10.43216261       6.65187422       1.31962023      -1.01320122      -1.47537565
Na      10.19143181       8.13325349       5.88353484      -0.11898772      -0.00573518       0.37927650
Na       6.14385113       9.74180243       9.43642225       1.23425036       1.11140104       1.64876751
Na       5.17863578       4.59461829      14.66908381      -0.57237448      -1.16277006       0.06521998
Na       4.38382380       1.47169964      14.54517573       1.24465307      -0.65552859       0.22891851
Na       8.65309135       4.09318233       4.79793038       1.13805331      -1.77972222       0.70063663
Na      13.24092909      12.76879960       3.79446621      -1.10021907      -0.13460511       1.23019676
Na       6.12905738       6.85552551       3.81499961      -1.65635398      -0.91820560       0.44687904
Na      20.05571447      11.01955914       9.67550478       0.68358462       1.64002293       0.07145839
Na       6.89949031       9.76051009       5.34589857       0.83950625       0.23644796       1.45685683
Na       6.54198385       8.57328116      13.51409886      -0.21848811      -0.42031394       1.32462442
Na       6.34396592       6.77744544      10.77253716       0.52072815      -0.66532483       2.55174622
Na       9.48799578      10.95347275      14.74431088       0.19527881       0.83493710      -0.54893312
Na       5.56985504       4.15170904       1.28903718       0.90577134       2.67841253      -1.91400503
Na      10.05065939      14.06235686       2.37924893      -0.64559711      -2.91763082       1.34762683
Na       6.18805056      12.89646537       9.75144274      -2.36242434      -0.17015778      -0.06104803
Na       8.88742646      14.02398528       4.68891691       0.53479019       0.88702721       0.90672483
Na       5.99550774      12.99089314       3.63842192       1.98967494       0.53367140       1.56218328
Na      12.17868524      11.93537608      12.71127938      -0.82537776      -0.99656269       1.08863505
Na      10.80702846       9.52267044      17.55415697      -0.80273088       0.64404272      -2.00622192
Na       8.42005720      13.64266450      15.95114532       1.32395488       0.55762655      -1.54267342
Na      11.22408065      -1.90153280      -2.82011872      -0.40014078       0.64243024      -0.09704242
Na      10.08469735       4.20317886       1.62186927       0.64925570       2.48156237      -0.02683807
Na      12.85226080      -0.93873948      -0.21010453      -0.42606674       0.25103991       0.54059584
Na      11.75759375       0.21185379       3.04889287      -0.81026098      -0.30750030      -0.43288740
Na      12.17044111      -3.99837166       8.82255344       0.16803226      -0.81131899       0.24370791
Na      10.14385974       3.01569110       7.88429424       0.85806577      -0.05876745      -2.10559221
Na      10.81665254       1.24090110      15.45846527       0.41410534      -0.63916014      -1.18594960
Na      15.19077477       2.53402459      11.11093238      -0.49520068      -0.30037588      -1.19075576
Na      14.63664118       0.96626111      -2.37732546      -1.52457375      -1.81184209      -2.48968649
Na      12.23825918       8.20219506       3.63371664       0.78209613      -1.35057773      -1.52792257
Na      11.38748107       4.72662667       4.38416332      -0.90629157       0.70910364       0.29265657
Na      15.57132083       9.28084683       3.58663560      -0.58297107      -0.49107196      -0.76784053
Na      20.90921573       1.89421110       6.61279715       0.61981090       1.04120824       0.48326462
Na      12.71354637       4.23377649      14.37039938       0.93110935       0.84954844      -0.00158827
Na      16.21078986       3.48756289      15.52942709      -0.15103090      -1.02255489       0.80916697
Na       8.41439942       4.10516279      13.81898328       0.50898894       1.40342969      -2.08588721
Na      13.84389204       9.78934802       0.60730690      -1.02629142      -1.66338177      -0.08002876
Na      15.79831747      13.78952045       1.02899515       1.00309917      -0.44503107      -1.17580598
Na      13.02077070       8.93928408      10.42900269      -0.96699587       0.20871774      -0.75351738
Na      14.83340012      14.97664520       8.28767397      -1.25974177       0.13536727      -0.48013410
Na       9.54326735       7.67227476      12.57393788      -0.73320077      -0.05207504      -0.97781555
Na      15.23346640      11.15780381       9.86824126       0.80593513       0.99972460      -1.27632831
Na      13.87027925       8.02820744       7.52848913      -0.76461783      -0.02547018       0.41103852
Na      18.33872797       9.37776368      17.38898382      -0.15303427       0.52504472       0.88574360
Na      10.08813618      10.63551660       3.60394094      -0.82099627       1.11688746       1.36685635
Na      17.50113463      13.01594075       7.77992056       0.34061541      -2.35031419       1.37416033
Na      14.86812097      22.94524284      -5.55663524      -0.11354094       1.34519278      -1.36326722
Na      10.11473078       8.55133848       9.02291705      -0.98227622       0.19294519      -0.02535275
Na      13.75290926      19.59918907       0.88774150      -2.12424180      -0.07028263      -1.49351093
Na      18.29164897      16.57147704       7.44297810      -0.00327914      -1.30501195       1.11901844
Na      12.60719801       8.20740757      13.59135040       1.71436143      -1.02007556       2.04158590
Na      16.30979932      10.35889031      14.30299050       1.19779185       1.39643061      -0.12435768
128
Lattice="16.776 0.0 0.0 0.0 16.776 0.0 0.0 0.0 16.776" Properties=species:S:1:pos:R:3:momenta:R:3 config_type=highT_Na128_600K pbc="T T T"
Na       3.65102299      -1.86844864       4.34727493       0.23844095      -0.44243533       1.53599679
Na       0.08972118      -0.74716687      -3.12052000      -1.92515448      -0.15271118       0.70130445
Na       7.08140300       1.97726794       8.21299354      -1.04959158      -1.02205477       2.33260590
Na      -3.00180611       0.56479028      10.80643938       1.41310184      -1.19231261       0.57610571
Na       4.85370171       0.27325082      10.20411708       1.35707168       1.61474275      -0.16412767
Na       0.80952078       2.62548522       9.44156050      -1.89654587      -1.20046076       1.65843893
Na       1.16617166      -4.90518194      16.03637499       1.81815598       0.36398617      -1.12797565
Na      -2.52072195       6.90741099      18.30973677       0.28011267       0.87509880       0.85425785
Na       6.28135358       3.23070321      -4.91724799       0.01455450      -0.06127835      -0.36249275
Na      -0.68348959       0.78445121       1.20504430      -0.82550697      -0.05644220      -2.44063618
Na      -0.09655662       6.96517514      -0.57477920      -0.85349619      -1.50020076      -0.11400485
Na       1.83997491      11.05962414       5.67416177      -0.85911381       1.91891854      -2.18070938
Na      -5.65354685       5.38663143       7.79664461       1.62769388       0.42667673      -0.26069338
Na      -0.46209017       5.65943730       7.15198737      -0.18772477       0.19586465       1.14541148
Na      -1.52638909       0.28756864       4.26240112       0.27759565      -1.91790732       1.81336034
Na       1.43474718      13.44608118      19.56133967       0.88916072       0.68956921      -0.63481606
Na       4.61046785      12.02553100       1.29915232       0.82842397       0.27029614      -0.17580417
Na       0.63698710       9.35300001      -5.58214087       0.52345780       0.18707034       1.70780542
Na       0.52743394       5.47013763       2.70763121      -0.55020961      -0.75132473      -0.20278029
Na       6.08232299      15.22843846       7.02000822       1.40076108       0.89772237       1.03772500
Na      -2.34981125       6.69663579      13.14668493      -1.67401947      -0.65731331      -0.92925732
Na       9.53798651      12.41717244       9.48310203      -1.53641496       2.27490716      -0.22576412
Na       2.47338434       8.55455822      14.87439992       1.62732133      -1.05065017      -2.12474843
Na       3.05973233      15.00064480      16.02977768      -0.13676796      -0.22880800      -0.22479929
Na      -6.32125708      11.91077433      -2.17478680       0.04701733       1.36157179       1.71906528
Na       8.60350231      18.17838997      -0.37572903       1.71935289      -0.56226227       1.81747814
Na      -3.10527070       4.21340554       8.64189935       2.33796922       1.06924450      -0.35856087
Na       5.79380875      17.41709770       4.92664695       0.34767002      -0.25651234       0.48896658
Na       3.73167225      14.13908271       9.59255886       0.85927010       1.97893636      -0.54985158
Na       9.56551593      17.32861164      10.54188351      -0.33747277       0.98632082       0.12386318
Na       0.36935286      12.92576029      12.89315739       0.72710917       0.54250180      -2.06717700
Na       1.45097922      15.66901579      10.23930268       0.15861150      -2.42055730       1.10883526
Na       9.09875911       3.59484294      -5.85901915       2.69042087      -1.58262948      -1.54780805
Na       3.86342570       3.25288622       3.09520521       0.29648527       0.19579957       0.06277639
Na       4.38287203       4.36432609       6.83256571      -0.28365041      -1.17489175      -1.48398559
Na       6.76056178       3.16902062       3.19953409      -0.11609811      -0.59916539       2.05062734
Na       6.32566854       5.88988607       9.15440833      -0.86827618      -0.39911172       1.62758226
Na      10.42432616      -2.17950717      12.56182861       1.72078815      -0.62871823      -1.06249885
Na       7.41493116      -3.43623264      12.46680931      -1.42425012       1.30819535      -1.02713207
Na       2.80385536       1.96405921      12.80790733      -0.54059905      -1.28097246       0.27074263
Na       1.52824947       2.76212592       5.51819506      -0.44003880      -0.44446016      -0.34870539
Na      11.13623371       1.49998907      -3.31392999       0.96551017       0.66001344       0.75746306
Na       2.26972781       0.08972822       3.61494263      -2.30672950      -0.69176016      -0.36963763
Na      -0.43565696       8.48001589       7.83254016      -1.19055534       1.21377116      -0.34083431
Na      12.54936972      -2.52323468       5.37522727       2.03315860      -0.40249392      -0.73868554
Na       3.81514979       7.63624809      10.91275799       1.82486642       0.12927241       0.91940833
Na       0.12587768       5.48627666      10.17252459      -0.19856962      -0.52407953       0.55358172
Na       3.10817113       5.88649447      21.59356210       0.68188130      -0.50705826       2.14814268
Na       1.22855419       5.81588666      -3.24982182       0.45578924      -0.42849624      -0.22179253
Na       3.99710435       9.31208485       3.14504675      -0.97458263      -0.10154727       0.51928944
Na      -1.91121845      11.88489662       6.81356948      -0.41441605      -0.11109653       0.59093053
Na      -3.28669684       3.72848421       5.06906037      -0.69143263      -0.46692198       0.21663854
Na       5.14935740      12.73291005       5.91857110      -0.43769079       0.17371275       0.22977162
Na       5.82086989       8.51337793      17.49090501      -1.28333556      -0.86177130      -1.48302256
Na       2.54761322       8.47118727       7.46043171      -1.36447730      -0.09606107      -0.56820974
Na       7.75946231      11.36764749      16.59903694      -0.63432933       0.44839407       0.16540750
Na       3.25587132       6.32298029       1.17634392      -0.17565718      -0.52211061      -3.32438133
Na       6.87992477      16.89357652      -3.74698818       0.61027783      -0.46042664       1.23259179
Na       7.82460735      16.38792919       2.06409083       0.57893241      -0.17583714       0.10355756
Na      11.78317646      14.71234174       8.82552675       1.00151641       0.33995943      -0.52959069
Na       3.54882868      11.96452221      11.60055503      -0.36498254      -0.96615958      -0.34042008
Na      13.55283403      14.22266531      12.35259608       1.56744966      -0.35193553      -1.52461123
Na       5.31501520      12.09399926      14.80844779      -0.35995690       0.86827306       1.11110545
Na       4.56859930      16.79986952      18.85630358      -1.54190663       1.42322542       1.15528534
Na       1.87528003       3.48887467       0.43416612       0.99767396       0.37251336       0.69423502
Na      12.50023230       4.25477945      -5.08202599       2.35041177       0.64373166      -0.22008273
Na       9.16164127       1.20773995       5.43995042      -0.88724087       0.10665745       0.49877024
Na      15.63532596      -0.02936834       7.78305872      -0.60367355      -0.70724046      -0.72783649
Na       4.27921375      -1.60586594      12.82258960       0.46076865       1.58959731      -0.92779708
Na      12.30003772       0.46236326       6.46637648      -1.57467997      -0.62926731       1.51759716
Na       3.80738226       4.10558823       9.95243541      -1.37483327      -0.43156316       2.07081319
Na      14.32920821      -3.58837849      15.27703231       0.02237450       1.30960271       1.37775554
Na       8.46901074       6.47410119       2.08585537      -0.08449203      -0.41177717       0.91704621
Na       8.33025339       6.54870371      -0.75464760      -0.43468789       2.30825055       0.43101658
Na       8.19223418      11.14476709       6.12950154       0.56400382       0.61520185       0.49677933
Na      11.60947527      11.32217631       3.51196779      -1.19354785       1.26212473       0.27646859
Na      10.94359088       7.15713638       4.29680718      -0.62807841       1.05457290       0.00464323
Na       8.21272737       8.55628980       9.05974362       0.26883029       1.92308808      -1.23872014
Na       4.83733348       6.18374986      14.01354475      -0.14454152      -1.26429370      -0.16981100
Na       5.95287114       2.72129018      14.70408854       0.58273142       0.08372818      -0.37210063
Na       8.05655421       5.72955336       6.53522269      -1.53114197       0.16860600      -0.34498727
Na      15.03271043      13.04770792       3.43285733       1.84889948       1.87135456       0.30825521
Na       6.00152650       6.41009460       4.56178494      -0.06057438      -0.51705986       1.91154132
Na      22.95220140      11.01751610       9.84271366      -0.06832251      -1.30758252       0.79947622
Na       5.45933063       9.02324028       6.43689027       0.01296029      -0.09710736       1.14527253
Na       5.75563498       9.46924828      13.46041664       0.30563475      -0.21983913       0.07914900
Na       8.01057797       6.80139347      12.44881683       0.65059001       1.07007021      -0.58968296
Na       9.01751508       9.81059394      12.60822453      -1.40133864       1.40648603      -0.79717261
Na       6.13686578       5.10124824       0.36860370      -0.18555466       0.01806576       0.88827377
Na       9.67639284      13.63994335       1.52170007       0.45379265      -0.26556739      -0.31879007
Na       7.90020914      14.99480794       9.60832368       0.97617362       0.48445485       0.55329736
Na       9.44600750      14.49652018       5.64500541      -0.11339352      -0.38914525      -0.46185620
Na       6.39087188      12.96549773       3.31482629       0.36825917       0.16174456      -0.59531888
Na      13.23604463      10.85626814      12.65765814       0.28124787       0.05697210      -0.68176451
Na      10.32951073       8.99737963      17.68241995      -0.56234251      -0.17182734      -0.75923395
Na       6.91292148      15.03862749      15.94818931      -1.09261629      -0.23563123       0.62349496
Na      11.10398866      -1.85028072      -0.86890084       1.03938497      -0.90664794      -0.90023658
Na      11.33965670       5.04430710       1.02824668      -1.94708463      -0.63198905      -0.37897039
Na      12.84195512      -1.99352577       1.77842685      -0.56999170      -0.92315562       0.42981629
Na      11.48378492       0.63758659       2.78640703      -1.42995160      -0.33339848      -0.55112134
Na      11.50137984      -5.51568004       6.89675960      -0.39382639       3.69488797      -2.33307749
Na      11.02092762       2.40901192       8.41639402       2.11062448       0.55675068       1.01989970
Na      11.21592294       2.07955511      16.52951472      -1.62270336      -1.14234633      -0.45331660
Na      15.54864070       3.06061339      12.74279563      -0.29075736       0.57513947       1.50144340
Na      14.00297211      -0.37692025      -1.70547782       1.13626411       0.08795810       0.64470868
Na      14.12811226       8.80887480       3.75733878       0.03904451       3.15435729      -0.20481916
Na       9.69403155       3.72670440       4.04546567      -0.11486518      -0.24842746      -0.78820122
Na      17.34119715       7.94263093       4.69167843       0.27833038      -0.24074273      -0.76685085
Na      19.76504477       0.35316584       7.72758673       0.60481761       0.55284918      -1.16632410
Na      12.32082424       4.99008139      14.95504039       0.66751683      -0.00159068      -0.21444511
Na      15.50029756       3.99402285      16.25517283       1.59052567       0.27699070       0.42149267
Na       9.31970233       4.12741235      14.07087330      -0.42301062       0.85672438      -0.51334780
Na      13.11105687      10.38380441       0.01686228      -0.74804787      -0.17245214      -1.16486096
Na      16.26492966      14.26508299       0.65314102       0.85093058      -0.01487127      -0.62389219
Na      11.20908325       9.42560355       9.90433577      -1.09954808      -0.28315159      -0.46047916
Na      15.32184477      14.15348918       9.50674258      -0.99926618      -0.82476898       2.04536454
Na      10.77819524       6.82996052      10.65663626       1.36999349      -1.21924902       0.83476239
Na      14.40109076      11.02373052       9.89064207       0.05660200      -2.36672532      -0.91211846
Na      13.40222471       8.06567481       7.16670682       0.81443682      -2.73522292      -0.50395653
Na      17.26868919       9.84332384      18.59249875      -0.06891357      -0.36559791      -1.75374026
Na       8.03333326       9.93766257       2.94820585      -1.32294027      -1.00205925      -0.99931614
Na      17.89030808      11.78358975       8.73070595      -1.17132399       1.76987554       1.22426355
Na      14.01156151      24.36612104      -6.51005820      -1.37797489      -0.75065785      -1.27986544
Na       9.75642277       8.35695757       6.51350602      -1.20813425      -2.02980467      -2.73350573
Na      13.62957420      19.90057392       1.96287890       1.58624285      -0.89742339       1.02672225
Na      17.73705067      13.88030783       6.31846790      -0.90241712       0.26747257       0.05251053
Na      10.87663063       8.63860713      14.45248288       0.48460962      -0.89997330       0.32112852
Na      15.74962352      10.02374202      14.52101368      -0.61823474       0.17522065      -0.48900586
