128
Lattice="14.3306 0.0 0.0 0.0 14.3306 0.0 0.0 0.0 14.5792" Properties=species:S:1:pos:R:3:momenta:R:3 config_type=highT_NSS128_600K pbc="T T T"
Na      14.30354442       3.82192492      -0.35303591       0.23856314      -0.30320883      -1.91307450
Na       3.43861287      14.34200617       6.65138976       0.98724035      -0.70881445      -1.02842582
Na       2.71526242       0.03002986       3.14571712       0.35959536       0.70766057       0.62672003
Na       0.49359479       3.02622403       3.74573146      -1.05346692      -0.57481814       1.60926502
Na      13.82504774      14.39243924       3.16371825       0.92734669       0.97758700      -1.07227094
Na       3.44097725       3.65124045       0.28519087      -0.73827536       2.97498324       0.65547387
Na       0.35359634       3.62350074       7.02192035       0.57611707      -1.23717967       0.97011984
Na       3.20576814       0.37553346      14.49855585      -1.32824547      -1.25897992       0.20815654
Na       3.59267765      -0.10050422      11.27312409       0.30820459      -0.04646641       1.87160295
Na       0.13166975       3.56713541      10.81405397       0.01696342       0.23527959      -1.03336848
Na      -0.03501618      -0.07438174      10.96622815      -0.44047525      -1.11077866      -0.42667821
Na       3.92014188       4.05769093       7.42362070       1.80122800      -0.61717842      -0.69665602
Na      14.97662223      10.54004514       0.44840978       0.23777522      -1.23925402      -0.98906204
Na       3.81162111       7.73850411       7.11578992       0.78559753      -1.22444168       1.14810421
Na       3.55433849       6.91738906       4.13874858      -0.81381154       0.21399032      -0.28353431
Na      14.18355639      10.64216794       4.41000910      -0.61482577      -0.50282311      -0.26974904
Na      13.97141863       7.25516971       3.83280761       1.91413809       1.92519136       0.11730818
Na       3.81503904      11.59336578       0.50255569      -0.14939234       0.20990759       1.71684408
Na      14.77378051      10.73512128       8.01475262       0.31122416      -0.66413339      -0.99397811
Na       3.55238185       7.65949155      14.17227924       0.71553798      -0.08493461       1.23915856
Na       4.33240012       7.23090019      10.62906513       0.30981235      -0.44668018      -0.46789261
Na      14.43017931      10.57011358      11.49841602      -0.17182829       0.88698755      -0.52888260
Na      14.49518972       7.41794902      11.14454207       0.77931645       0.07154617      -1.07164842
Na       3.67234772      11.30664314       7.27030935      -1.16386218      -1.04495128      -0.14521550
Na       6.86671996       3.38205860       0.26417902      -0.11608328       1.27238007       0.34607674
Na      10.86401159      14.36661975       6.55185585      -1.11893434       1.79879799       1.76823485
Na      10.59929568       0.01041959       3.30957219       1.19769307      -0.11083975       1.55042625
Na       7.59200868       3.09468340       3.43610760       0.06713801       0.32352424       0.74428327
Na       6.99519688      14.05520392       4.02850910      -0.34403009       0.42043102      -0.03917912
Na      10.38288412       3.71597015      14.67539783       1.99492145      -0.34166002       1.25925960
Na       7.14134040       3.55332471       7.50359274      -2.49083274      -2.17152883       0.96869441
Na      10.72260105       0.11512896      13.99866023      -0.44195194      -0.57362512      -0.87494113
Na      10.48787871      14.33789669      10.49784555      -0.01809891      -0.19307280       1.65915126
Na       7.04555515       4.33018157      11.11467755      -1.09384268       1.86591673       0.47065705
Na       7.01522009      14.97786787      10.79043391      -1.12286106      -0.27202214      -1.34138437
Na      11.00719946       3.87089231       7.49851994      -0.20119517      -1.57881108       1.63692797
Na       7.49060585      10.79243677      -0.69523225       0.77920979      -0.04778183      -0.00513228
Na      10.72159598       7.76878294       8.02727567      -0.27374080       1.56480782      -1.31298936
Na      10.55986395       7.13908609       4.12399510      -2.42393995       0.62730598      -0.95751140
Na       6.93445887      10.34993177       3.67068798      -0.83723513      -0.52038640       0.89267207
Na       6.99573161       6.85858004       3.56077958       1.60190945      -0.56499720       1.03380720
Na      11.43731596      10.75304028      -0.15792603      -1.29281371       1.12438756       0.17304040
Na       7.10555121      10.79607140       6.85867049       1.89832759      -1.54428244      -0.68069820
Na      10.52780029       7.18514306      14.56632375       0.24355319       0.86929081       1.23686034
Na      11.04449201       7.16541001      11.19409971      -0.32972497      -1.32378049      -0.62276489
Na       7.00499520      11.53718258      10.12577769       0.46488771      -1.31045138       0.87186342
Na       8.12085915       7.49005060      11.21145811       0.33183996      -1.68066227      -1.00233556
Na      11.32760186      11.09720813       7.05555515       1.34815701      -0.08326567      -1.99434818
S        0.81394292       1.53755018       1.14941209       0.91994772      -2.52890427       0.03275394
S        1.62671867       5.84753092       5.89987011       1.08022558       0.60483461      -0.67901140
S        5.30628847       5.98395320       1.07559720      -2.26329463       0.97504978      -2.15085194
S        6.16062059       1.74547672       5.70565105       1.78308460       1.42266828      -0.34207891
S        4.69845740       1.64809875       2.01672980      -0.26248656      -0.44430444       0.65777966
S        5.37819369       4.80304620       4.59745702       1.10076813       1.99585156       0.21715668
S        2.02999061       4.70138704       2.61361890      -0.44932482      -2.13520201      -0.38205858
S        2.60889427       2.29904340       5.48691141      -0.98859452      -0.24107658       0.49208646
S        1.41451313       1.06098679       8.86144301      -0.68014112       0.91380692       1.16986495
S        1.46316108       5.98415924      13.49852160      -2.25017602      -1.23254610       1.68119344
S        5.76726536       5.78013803       8.74749230       0.08405813      -0.28551977       1.21452074
S        5.55944186       1.07694785      13.24192873       0.60130375      -1.78768332      -0.76517617
S        4.94373638       2.27416560       9.58161876      -1.05563276      -2.07188452       0.73809961
S        4.74403124       4.85266734      12.56096467      -1.57149756       1.06723829       1.71512163
S        2.53244878       5.01093750       9.78193258       1.09528526       0.90632797       0.43294864
S        2.13987532       2.00199776      12.32654076      -1.60213457      -0.48619052       0.85249991
S        1.28861395       8.39934017       1.78981714      -0.97105823       1.85313574      -3.01252719
S        1.20558426      12.57793104       6.20457155       0.00133271      -3.64313600       1.70393849
S        6.01513192      12.80189076       1.42388974       1.42065764       1.83551601       0.99651564
S        5.84792188       8.30984865       5.66746238      -1.13782465       0.37049686      -0.17856710
S        4.57472526       9.38775873       2.32465773      -0.93632018       0.31712935       0.02664287
S        5.14021631      12.10798606       4.89358654      -1.74993622      -0.87403485      -0.20416552
S        1.91821490      11.75896989       2.31812634       0.01758115       0.87890573      -0.25997846
S        2.26254106       9.48567063       5.23165017       0.57096817      -0.53455150      -0.68404523
S        1.50283359       8.40199873       8.82834612       0.29952348      -1.24192955       0.31528162
S        1.13703605      12.92309058      13.40145926       0.57684467       0.31093180       1.14302196
S        5.59154388      13.28118386       8.40045380       0.91665986       0.09989896      -0.09195296
S        5.89720145       8.63090497      12.80927214       0.16000587      -1.68447882      -1.41256915
S        4.79010099       9.54419407       9.11029361       1.43273510       0.22000003      -2.44186447
S        5.17774942      11.98131304      12.09944872      -0.98855742       1.16431638      -1.37042700
S        2.19399963      12.33875606       9.71941339       0.31392258      -1.87776560      -0.10493773
S        2.39612542       9.81537616      12.74787462      -0.17365346       0.77171685      -1.67122335
S        8.50890667       1.35535135       1.08795158      -0.21458633      -0.71227422      -1.70111313
S        8.77622070       5.85026323       5.95990929      -1.72337403       0.09233614       0.52384652
S       12.61569753       5.72652895       1.27478259       0.67818113       1.19611323       0.29537576
S       13.28334965       1.59430631       5.98043310       1.84438106      -1.41235753      -0.72855595
S       12.01375585       2.23126509       1.97168229       0.41543202      -0.47614618      -1.19561418
S       12.47599567       4.66785270       4.93588552      -0.38049603      -0.80763038       0.33320227
S        9.45630194       4.83143028       2.27583379      -0.27186868       1.85668400      -0.52266843
S        9.48903517       1.87208968       4.94823559      -0.53213484       2.58882280      -1.39708379
S        8.68127790       1.51365777       8.45404151       0.50117365      -1.63344288      -1.64494421
S        8.35565973       5.86176590      13.41679761       0.46864944      -0.52972666       0.22432553
S       13.13949582       5.76579659       8.73470579      -1.48963830      -1.75615125       0.04476087
S       12.62391580       1.30603897      12.94354813      -0.58665174      -0.78848705       1.82840649
S       11.85125626       2.32296520       9.42753220      -0.16570503      -0.17703137      -0.22195015
S       11.93729375       4.68259783      12.55333951      -0.83066560       0.48256847       0.44268849
S        9.49483704       5.40234713       9.90069299      -0.71436203       1.36832911       0.57545393
S        8.78491611       2.52923750      12.18770415      -0.22272146       1.84901987       0.25111537
S        8.12627772       8.89237071       1.35191574       1.72860766      -1.50091968       1.57305041
S        8.59164662      12.91988562       6.20019972      -0.61885475       1.30060028       1.21158536
S       12.39301854      12.96898418       1.28145343      -0.98117426      -1.09863169       0.25692830
S       13.14138564       8.46744827       6.10054497      -2.57924999      -1.33756474      -0.23183079
S       12.37573652       9.29584639       2.13933001      -1.04411925       0.74008730       0.67885877
S       11.88041212      12.09792770       4.50485930      -0.17774044       1.76639994       0.45130751
S        9.37556411      11.83530424       2.17303276      -1.74215774       1.99928656       3.40444647
S        9.34146940       9.49292469       5.12958603       3.34601710       2.31810162       1.04791645
S        8.31397883       8.61128238       8.76813274      -0.00181069       0.27679331       0.91318046
S        8.56537755      12.93736569      13.04910756       0.94603149      -0.63456666       3.02342558
S       12.98806907      12.90614177       8.77690724       1.86578046       0.61723898      -0.96481037
S       13.01232840       8.61692862      13.36392091      -0.84463660      -0.14149826      -0.97487273
S       12.36747252       9.41446121       9.59895050       0.51666291       2.98268635       1.38842305
S       11.97820172      12.55152981      12.10870116      -0.41058560      -0.02062726       1.65738020
S        9.34962659      11.99213677       9.38227639       1.98802893       2.50991343      -0.66877440
S        9.86026481       9.22201124      12.44461607       1.31500488       0.43243223      -2.74809534
Sb      -0.43729555      -0.13283722      14.46831006      -2.96057267       1.31536205      -2.71209208
Sb       3.71159364       3.46499654       3.60963206       1.82280600      -0.53235548      -2.58658247
Sb       0.04203313      14.26191437       7.43903266      -3.57663640       1.73499314       2.16088642
Sb       3.61160881       3.51391058      11.07886428      -1.44016031       4.93301611      -1.59013649
Sb      -0.05891494       7.19750140       0.26033780       1.80698026      -0.37676353      -0.99994198
Sb       3.50838400      10.79164234       3.73652866      -5.33692814       2.44157872      -5.04998063
Sb       0.26360771       7.04114431       7.39858572       2.91415463       0.14583121       3.04552027
Sb       3.68451452      10.76536470      10.75748371       2.32110855      -4.64435458      -0.83085673
Sb       7.15319890      14.19134386      -0.11213623       1.40005370      -5.24292317      -1.47607413
Sb      10.93418745       3.46030694       3.61146799       1.54417632       3.59845159       1.87612201
Sb       7.31408721       0.22173812       7.23246535       0.78745720       2.92629796      -1.18948800
Sb      10.53562537       3.54451923      11.08245501       0.28902337      -4.61919148       5.96067577
Sb       6.85863930       7.33471622      -0.01296043      -1.39946637      -3.25465443      -2.97632655
Sb      10.78963488      10.37446298       3.46470844       1.92595398       1.60426787      -0.86718562
Sb       7.13609319       7.08176634       7.26639135       2.33959970      -1.72620155       0.52666664
Sb      10.83878455      10.69858018      10.83605197       0.56993141       1.01950504      -3.07754884
128
Lattice="14.3306 0.0 0.0 0.0 14.3306 0.0 0.0 0.0 14.5792" Properties=species:S:1:pos:R:3:momenta:R:3 config_type=highT_NSS128_600K pbc="T T T"
Na      14.63096629       3.42610807      -0.23273381      -1.03757645      -0.14783900      -0.24727068
Na       3.46714930      13.82288841       7.62335180      -1.20796609       0.14882497       0.37172403
Na       3.92893792       0.07656420       3.43532797      -0.81773590      -0.34448033       1.14854830
Na       0.06165336       4.39333325       3.73238421       0.65099488       1.78960537      -0.54162353
Na      14.68191590      15.16537172       3.63996870      -1.43451854       0.01315811       1.40424702
Na       3.72447816       2.77465811       0.01065111      -0.54264675      -0.39261330       0.30307810
Na       0.04360458       3.62461385       8.02997867      -1.58545674       0.56369578       0.02167224
Na       3.94880535      -0.36283269      14.57038162       1.13804850       0.65324436      -1.55074183
Na       3.35157282       0.07636091      10.90475584      -0.55547234      -0.17604341       2.27993080
Na      -0.40734503       3.99221207      10.94668928       1.27900994       0.06116784      -0.37905906
Na      -0.24567344      -0.24130063      11.08582006      -1.09492765      -1.45816442       1.23287548
Na       3.83287836       3.32361361       7.48819354       1.61495997       1.01951548      -0.44138105
Na      14.23239797      10.81701544       0.29087652      -0.05106744       2.30752439      -1.63125507
Na       3.25962651       7.13723807       7.72110665       1.27446334       1.51359747       1.06311998
Na       3.71333349       7.23240850       3.58552043      -0.00974386       0.60349478       2.24521840
Na      14.42090574      11.50622862       4.31132154       0.38354709       2.28065748      -0.32540240
Na      14.45425667       7.71596032       3.41160962       1.00291775       0.79438459      -0.39808184
Na       4.01012917      10.36428229      -0.01478246       0.86216902      -0.55777136       1.37391104
Na      14.29137287      11.28989670       7.38739122       0.05747844      -0.38231356      -0.62231969
Na       3.65962936       6.82808345      14.34172336       1.22324730      -0.29413906      -1.62421607
Na       4.09525878       7.11772356      11.26348863      -0.25898742       0.57811448      -1.47116981
Na      14.39140551      10.84113465      10.87174292      -0.64052675      -1.64142688       0.22126490
Na      14.05517351       7.44472097      10.84259326       1.90031082      -0.56518995       1.21976036
Na       3.06578768      10.28624483       7.22533292      -0.23834279       1.21378868      -0.45646967
Na       7.12831851       3.26401266       0.30281754      -0.93809372      -0.54884763       0.08748158
Na      10.81033243      14.66274583       7.19771821       0.96830994       0.11205820      -0.57754715
Na      10.46642100      -0.00812262       3.58638951      -0.08160910      -1.55569950       0.07587217
Na       7.31513353       3.49385587       3.65267751       1.30198817      -1.14404646      -0.57835253
Na       7.40186604      14.63615733       3.87939460       2.56397078      -0.21962757       0.85356169
Na      10.99779127       3.41910458      14.61751464      -2.28004317       0.71449348       0.21561081
Na       6.82220116       3.56709073       7.64013058       1.31608636       0.63767092       0.30839465
Na      11.13698258      -0.24871222      14.27093033       2.51121096       0.96075044       0.21336146
Na      10.88753470      14.56447111      11.21738906       0.22481849      -1.02127952       0.20616161
Na       6.98231824       3.21418264      11.76407389       0.62970409       0.80406532      -0.45629687
Na       7.10598309      14.20299694      10.80763562      -0.97279616      -0.59289362      -1.01805498
Na      10.79866605       4.21198697       7.16417822      -1.00008138      -0.59739240      -1.15024729
Na       7.85102424      10.61027653       0.06391653      -0.07671511       0.94843603       0.88635207
Na      10.69599827       7.79575276       6.96085070       0.37198023      -1.78404676       2.52626448
Na      11.24843514       7.48178537       3.28906993      -0.42145953      -0.58852221      -0.35026030
Na       7.20422603      11.35724011       3.86521977      -0.08976210      -1.31275847      -0.18329395
Na       7.33690713       7.66066089       3.77938548      -1.48146295       0.89934525       1.59487657
Na      10.79088156      10.04060355      -0.26192246       0.74614244       0.79011038       0.64957718
Na       7.85021012      10.52574836       7.15794041      -0.75713148       1.48991345      -0.70669151
Na      10.56750949       6.95872310      13.72716111      -0.66718304      -1.20831038      -1.71118621
Na      10.70453917       7.18738531      10.59683985       0.47767122      -1.27489827       0.31605717
Na       6.93306833      10.82143154      10.51900312      -0.33926573       2.52871007       0.67091892
Na       7.35771055       6.78772037      11.11470546      -0.07545536      -1.01735950       0.56870035
Na      10.74733238      11.17961405       6.95774562       0.62476851      -1.07735359      -2.04451426
S        1.68921168       1.14687547       1.49738739      -0.83584434       1.56527464      -1.05051538
S        1.36121310       5.91816574       5.96334898      -0.29635326       0.74763304       0.55399497
S        5.75906915       5.94349791       1.51078557      -0.62712791       1.44978831      -0.29446527
S        5.74774056       1.40733542       6.03433090       1.95189557      -0.03020695      -0.81732791
S        4.90423563       2.05084349       2.33897431       1.03107873      -0.00940700      -0.28742456
S        5.21023206       4.51771098       4.98482157      -0.75736665       0.98852173      -0.56375721
S        2.24624737       5.02494365       2.24647225      -1.01623239       0.73236008       1.49674788
S        2.26845298       2.24836320       4.94277431       2.23839513       0.78900081       0.45796251
S        1.36906944       1.14587556       8.94533468       1.58374509       3.13768559      -2.57835415
S        1.13617121       5.54864951      12.73790510      -1.83491865      -0.30895059       0.29537272
S        5.90387984       5.65296825       9.01872140      -1.38571362      -0.42287228      -0.20567428
S        6.09679365       1.06934453      13.42088305      -0.08414046       0.13614308       0.29025223
S        4.84786093       2.14742147       9.90801948      -1.32627693      -3.57480709      -0.48198107
S        4.96906068       4.90880690      12.36122948       0.64092916       0.25440516      -1.29769799
S        1.98268340       4.63453880       9.29720574       0.24729859       0.13269601       1.12115070
S        1.92956644       2.37329127      12.29758642       0.52327726      -0.15726078      -1.27511149
S        1.28729373       8.22313051       0.95899365       1.11799730      -1.58817545      -0.27481354
S        1.15925033      13.43382721       5.67156373       0.96686727       2.52273811       1.54185151
S        5.90908460      12.67131330       1.38094086       0.22372208       0.68979851      -2.44772050
S        5.42793266       8.48679169       6.24748592      -1.55034732      -0.55518600       0.61133639
S        5.30991310       9.35812535       2.51849094      -0.92302671      -0.46116249      -0.80555036
S        4.80268940      12.14624657       4.93392022       1.48384948      -1.68320004       2.67897365
S        2.55929100      11.92905009       1.89372777       0.09529252      -0.31040410       2.32854640
S        2.08768155       9.51063315       4.76840279       0.22248699      -0.16065620       0.47043470
S        1.15065344       8.64597346       8.73579171       1.56923671      -1.00417129       0.69261763
S        1.26094299      12.79359949      13.12607232      -1.92642196       0.70183318      -2.44005426
S        5.82076504      12.74864249       8.51339998       0.65477022       0.87309945       0.27531576
S        5.95146131       8.35148284      13.09933725      -0.96646547       1.18385777       1.38841291
S        4.67651522       9.15732696       9.77287900      -0.67401520       0.52828783      -2.12841288
S        4.83812449      12.12065105      12.20364464       0.34867344      -0.60620037       2.89762732
S        2.21759622      11.84650385       9.52791480       0.25692237       1.44561706       0.37183036
S        2.09201036       9.33138668      12.59009158       1.72725994       0.79445967      -1.24060867
S        8.58079328       1.27179720       1.59001706      -2.86667032      -1.54898448      -1.17454374
S        8.32514320       5.93688910       5.81309072       0.41240989      -1.40676362      -1.02788373
S       13.04880484       5.42108962       1.30221820      -0.53148574      -0.38653078      -1.43759754
S       13.13183978       1.95849274       6.04292120       1.56505834       0.22394862      -1.54098897
S       12.40166462       2.46608820       2.40201614       0.39220696      -0.61009712       0.53624459
S       11.94831738       5.32710089       4.91881617       0.00705976      -1.49515868      -1.52742103
S        9.56442973       5.10809399       2.42568734       0.10395373      -0.99884685       3.01522853
S        9.55256455       2.44802539       5.06406335       1.43959607       0.92713078       2.39480703
S        8.31981633       1.38757908       8.72417986      -0.68524831       0.87804839      -0.32529176
S        8.43453123       5.36260234      13.43838630       1.17421845       0.43131953       2.00409463
S       12.96329913       6.01666372       8.40514533      -1.94604197       0.46881680      -1.33457207
S       13.16141756       1.41011085      13.28494880       1.35718388       1.09659637      -0.78459086
S       12.13673066       2.20061300       9.55586709      -1.57642774       0.17543707       0.25269775
S       11.79743705       5.46486463      11.85552432      -0.44795684      -1.26486779       0.10074814
S        9.30964753       4.97749812       9.33930956      -1.19157966      -0.65511964       1.10994946
S        9.38838945       2.29516893      12.40503594       1.17643618      -1.14463212      -0.03396709
S        8.62520734       8.50367735       1.22181770       0.08072179      -0.27165688      -0.38378947
S        8.58730749      13.04854573       5.63634682       1.06308123      -1.31898354       0.05548543
S       13.24752148      13.15053173       1.45338232       1.41297120       1.21203168      -1.01892797
S       13.11422705       9.13899091       5.82688647      -0.53216470      -1.01997709       1.23446607
S       12.20302347       9.72489730       2.20876696      -0.58820527       1.15383113      -1.15660146
S       11.91479200      12.54224978       4.99132540      -1.10019848      -1.34266839       1.91032408
S        9.34879887      12.10172029       2.26934082       1.19241506       0.84177521      -0.30991691
S        9.43400715       9.17919101       4.80753262       2.47647238      -3.81566522       0.33681094
S        8.51732050       8.51155497       8.71815116      -0.49411767      -1.61944475       3.29247054
S        9.05200715      12.90354540      13.45981327      -0.19346021      -1.98655202      -2.36432515
S       12.66615060      13.28271935       8.43194370      -3.01957978      -1.99643369      -1.23151411
S       12.67949422       8.37371956      13.26419188      -0.95690636      -0.99357323      -2.57966414
S       12.08751063       9.18632609       9.64925692       2.58656358      -0.95501597      -1.05343127
S       12.04196398      12.05346612      12.45343382      -1.01237022       0.86686198       2.27835684
S        9.34787737      11.91674379       9.50260067      -1.34991442       1.43170431       0.65426116
S        9.09451330       9.49080787      12.29287640       0.88710023       0.82444416       0.38050839
Sb       0.22392501       0.06753483      14.58855968       1.96286980      -1.87989415       2.67154263
Sb       3.62470326       3.52948303       3.53621398       3.28513831      -5.11028653       1.27551409
Sb      -0.14556793      14.65016904       7.20528254      -0.55818340       2.12839024       2.34504339
Sb       3.38539829       3.63154789      11.04433534       0.22946333      -0.41726789       2.40757031
Sb      -0.12784053       6.83706927      -0.23698303      -4.74279958       3.46093242       3.75175006
Sb       3.72014478      10.63818111       3.52481347      -2.73456346      -0.77912871       3.06435261
Sb      -0.01144569       7.43379933       7.07949502       5.04797473      -1.38361246       1.42316736
Sb       3.34112469      10.59217168      11.07973849       0.43681070      -1.20302901      -1.70253358
Sb       7.53468888      13.96211549       0.27098200       1.13637123      -1.42716898      -0.40182326
Sb      10.86216680       3.58825933       3.62836736       0.74094505       2.40673813       0.28586274
Sb       6.97763234      -0.10465765       7.20127972       1.88394822       1.11629170      -3.81883544
Sb      10.58216460       3.67117791      10.85039021       1.21520030       0.68947822      -5.32349953
Sb       7.19915802       7.01741861       0.10082938      -6.95698859       3.30513613      -2.77424971
Sb      10.70635141      10.84617160       3.68046634      -6.53315554      -0.32344568      -1.68126363
Sb       6.98116564       7.20451645       7.43596835      -2.53537732       3.05111814      -1.98475725
Sb      10.68865770      10.67163118      10.98096016       2.14000756      -0.65907528      -2.68533083
128
Lattice="14.3306 0.0 0.0 0.0 14.3306 0.0 0.0 0.0 14.5792" Properties=species:S:1:pos:R:3:momenta:R:3 config_type=highT_NSS128_600K pbc="T T T"
Na      14.14797182       3.52633041       0.16273778       0.39753363       0.29075033      -1.22573289
Na       3.99071345      14.29732821       6.60170503       0.74869548      -2.78871688       0.17972686
Na       3.80273698       0.06095082       3.32739090      -3.06640088       1.49384763      -0.06792308
Na      -0.25019173       3.59351042       3.89537215      -1.31130907      -0.51198487      -0.48305865
Na      13.97337999      14.08537003       3.59519827       1.44864294      -0.98584582      -0.17795969
Na       3.63589748       3.42156276      -0.14933542       0.92999023       0.28629446       1.45532327
Na      -0.55055324       3.47587579       7.29456001       0.32542424       1.72842422       1.02439708
Na       3.31177615       0.34165358      14.19637555       0.73252688       0.46097573       1.31270714
Na       3.24755306      -0.20886847      10.22402544       1.03986245       1.38859380      -1.79406406
Na       0.40082039       3.22501928      10.84273973      -1.29477978      -0.73231345       0.00483160
Na      -0.94093641      -0.21363093      10.80733672      -1.53516690       1.62950601       0.14481769
Na       3.14434391       3.88023363       7.24828256       0.07651749      -0.60978762      -0.27957491
Na      13.72273055      10.66425171       0.02899074      -1.67355788       0.39255827      -0.49388127
Na       3.54716715       7.32058483       6.74107708      -1.45612583      -1.92211187      -0.84530772
Na       4.04455370       7.13186507       3.51974882       1.59695210      -1.37581859       1.02586436
Na      14.39821052      10.02762108       3.60408706       0.21453380      -1.88263992       0.85066554
Na      14.45013714       6.84052902       3.51920766      -0.46114638       0.07511992      -0.07234231
Na       3.46117442      10.72257210      -0.47410687       1.48295061      -1.31249890       1.21080632
Na      14.66476640      10.64419695       7.54186725       0.05404453       0.32900155       0.25574725
Na       3.42338175       7.37459014      13.82228510      -0.33346597      -0.45197991       0.57835674
Na       3.89373695       7.47218048      10.75707514      -0.62655930      -0.53984838      -1.03556186
Na      14.56629038      11.22165012      10.92626069      -1.22602341      -0.20346616      -1.26303986
Na      14.73767405       7.40880675      10.92883484      -1.61730070      -0.01034023      -0.67264720
Na       4.54023157      10.70556212       7.00780367       0.71311451      -2.09976458      -1.11485900
Na       7.14892849       3.86194836       0.03856939       0.60486678       0.60226771      -0.18916409
Na      10.93444605      14.69266656       8.04047807      -0.41117065      -2.57295979       1.03300060
Na      10.31571537       0.00462145       4.40852525      -0.33648444      -1.09996430      -0.17471198
Na       7.29338569       3.72920808       4.14320095       0.21942023      -1.33947484      -0.06379847
Na       7.39520096      13.63830596       3.41304697      -0.38576231       2.64584419       0.86570601
Na      10.79942468       3.57561933      14.83299199       1.94765932      -0.39131270       2.04797340
Na       6.72625642       3.35895318       7.49389842       0.09377072      -1.78599119       0.11009936
Na      10.81291746       0.34115342      14.69636125       1.13605229       0.16278635       0.32615379
Na       9.26300025      14.55560232      10.95930866      -1.96684435      -0.66742866      -0.92876512
Na       7.54755415       3.63537755      11.11567748       0.43167777      -0.27139628      -0.62070927
Na       6.11017573      14.26617289      11.22811941       0.81793732       1.20585299       0.30897448
Na      10.16552855       3.68631692       7.64473183       0.54418847       0.88001612       0.14965374
Na       6.42176149      10.88556837       0.59049448      -1.85896684       0.63709272       0.84704028
Na      10.92394913       7.22302764       7.21523804      -1.16618217       0.07303322      -0.96963982
Na      11.20072437       6.78548196       3.43350209       0.76464628      -2.02077229      -0.83390535
Na       7.11652865      10.32104954       4.13777683       0.56246543       0.67762883      -0.11485558
Na       7.26777042       7.25941559       3.60661853      -1.34828199      -0.04912438       0.53111184
Na      10.48706653      10.48740603       0.14681176      -0.08251930      -1.84698875      -0.66740461
Na       7.58423359      11.06488467       7.99961917      -0.25121265       0.56710333      -1.17975428
Na      10.60652815       6.84291393      14.95272799      -1.57826400       0.29069895       1.64994226
Na      11.14708797       6.90101868      10.93278555      -1.35736397       0.45390990       1.71261045
Na       7.25015095      10.59235560      11.88040819       1.56382445      -1.47987672       2.70990733
Na       7.55586931       7.03719659      11.09173580      -0.39343983      -0.54360766       1.16210047
Na      10.44554556      10.68363091       7.00665323      -2.06658880      -0.31669934       0.85528822
S        1.36620867       1.19374010       1.63764981       0.02244730       0.72685105      -1.48403998
S        1.31981861       5.31396764       6.22213581      -0.10655617      -1.16797900      -1.43523193
S        5.57869013       5.76787516       1.37621507       0.22640310      -1.42199782       0.33276235
S        5.92247825       1.44106216       5.61606244       1.09012547       0.28990790      -0.83452774
S        4.95426707       2.29183275       2.15114908       1.16704118      -0.31040904       0.03865252
S        4.99679592       5.08975642       5.03294724      -0.65327219       1.69571081       0.56116087
S        2.38745134       4.84070552       2.13295369       0.48071814      -1.91749744      -1.20302574
S        2.19605249       2.00682139       4.91863122      -0.47439605       0.49551836      -1.70853108
S        1.58108019       1.50999028       8.51203019       0.02601851       1.05183726      -1.00083895
S        1.09618245       5.88820550      13.45824716       0.57135872      -0.62109500      -1.81287215
S        5.86057806       5.90396721       8.80225319      -0.20546056      -0.40627255       1.27631238
S        6.05032033       1.88040424      12.93932634       0.65178963       0.76673989       1.32507107
S        4.94562805       2.06202477       9.74175940       0.35863910       1.38753864      -2.75147830
S        5.12096288       5.33452565      12.40727836       0.50347626      -0.31203726      -1.42214708
S        2.37670061       5.06148752      10.02549455       0.63042967      -0.16710259      -0.79904258
S        2.35416795       2.34131186      12.44727020       0.71070705       0.73178525      -1.13545719
S        1.39456887       8.96102016       1.11083130       1.19576293      -2.22531292       0.19456782
S        1.26229495      13.07777695       5.67770639       0.48454626      -0.15791063      -2.27040024
S        5.53117177      13.43264850       0.97127913      -0.14910719      -1.13881937      -0.34960005
S        6.14001099       8.60207395       5.88797676       1.57539721       0.34705035      -0.93129544
S        5.00930767       9.56739550       2.30043732      -0.75325287       0.95991402      -1.08758237
S        4.91301095      12.33699233       4.79042079      -0.22322958       0.06540246       0.98935613
S        2.04887729      12.20919375       2.38487386       0.16515776       0.38401446       1.10417451
S        2.20503833       9.30847925       5.01936573      -1.76873265       0.54487160       1.17131346
S        1.49921426       8.49680798       8.19220452       1.38367431      -0.45083308      -0.18659993
S        1.58279937      13.04763525      13.14911080      -1.94442429       0.32912765      -1.36032313
S        5.53456501      13.01861230       8.49323277      -2.67376397      -1.78267913       0.16787069
S        5.94466248       8.71242024      13.20985581      -0.41448778      -0.79053994       1.28358668
S        5.51498416       9.29284819       9.91713062       0.70779343       0.94134943       0.99781426
S        4.77159042      12.25447271      12.06754528      -2.28826057      -0.54576860       1.47303716
S        2.32860671      11.88647570       9.07087754       1.43108726       0.48053186       0.44717197
S        1.97602345       9.57726728      11.94627182      -0.62022941       0.36742295      -0.64690212
S        8.50385750       1.37124176       1.41506021       1.05547623      -1.71203093       1.73029211
S        8.61075451       5.79756475       6.04472843      -0.91561823       1.92266759       0.18398724
S       13.04287640       5.98256066       1.61617558      -0.07973651      -0.26376835      -2.15291737
S       12.84551721       1.19615884       5.91584698      -0.25926568       0.47353992      -3.29798638
S       11.95325884       1.86099387       2.57426352      -1.24900996       0.12684803      -1.41160188
S       11.93322207       4.77261453       5.42203824       1.13906804      -0.95406948      -0.35878166
S        9.43867907       5.00432764       2.55930217       0.13447134      -0.50417867       1.16479983
S        9.01778581       2.22908487       5.20512009       1.75032486       0.55309571      -0.60013967
S        8.36886592       1.48877129       8.64656195      -2.10029543      -1.18557904       0.19330521
S        8.60991824       5.94802493      13.37253072       1.55230155       1.86715621       0.80349292
S       13.17902424       5.98777489       8.94113910       1.12386831      -1.64664562      -0.61513448
S       13.30274582       1.52865480      13.14810738       0.30601425      -0.68272101       0.85745726
S       12.15328135       2.45489371       9.58474411       0.10831412       0.44734164       0.07857727
S       12.30905775       4.94913706      12.54564866       2.22108065      -1.07210245      -0.07506457
S        9.53775580       4.98253810       9.88943789      -0.45353703      -0.03347220       0.32385428
S        9.80489037       2.11861503      12.41168447      -1.71720388       3.06322766      -2.94861817
S        8.42845348       8.40926726       1.50633541       0.88558741      -0.56711122      -0.85463233
S        8.76587463      13.05504891       6.14043348      -0.61409830      -0.39446417      -0.21883521
S       12.81264574      13.13810337       1.12134389      -0.86375375       0.43559709       0.42333809
S       12.95941721       7.98274635       5.52358317      -0.72363336      -0.49874416       0.85129988
S       11.96830645       9.17803950       2.11910567       2.34030953       0.13690602       0.74295944
S       12.11480066      11.72964612       5.16681212      -2.87527425      -2.79553761      -2.07113048
S        9.44376649      11.88987553       2.28652868       1.31503607       0.42779274      -0.30657617
S        9.50131571       9.03955581       4.86403959       0.00749628      -0.15146528       1.21610324
S        8.33859124       8.30454566       8.74350545       2.20765781       0.98668801       1.72848027
S        8.52482937      13.10472597      12.95658435       1.10432992       1.57721343       1.73318686
S       13.15150946      12.88212711       8.51245985      -0.21993906       2.71890385      -0.77919471
S       12.55630921       8.38581554      13.19577216      -1.64719287      -1.92080479       0.79821577
S       12.40458396       9.60816479       9.49628070       1.77364656       2.54999843       0.69981477
S       12.11810989      12.09222917      12.15477412       2.95784114       0.12035411      -0.20649620
S        9.40065792      12.07711140       9.37259921       0.61875333      -0.52175021      -0.63768368
S        9.70417046       9.09334782      11.92043532       1.81250300      -1.79600649       1.19188803
Sb       0.12453797      -0.03835184      14.49010597      -1.03487575      -0.61002994      -2.24221134
Sb       3.59123940       3.50754235       3.66367164      -0.20036171       0.28194165      -4.28229735
Sb       0.11855652      14.40953011       7.18881150       1.09288950       4.53373714       2.66472439
Sb       3.88385481       3.71089681      11.24304964      -0.18572210       2.68265062       2.61368251
Sb      -0.23352444       7.42335283       0.05061584      -1.08962870       0.83898415      -1.94296956
Sb       3.40573649      10.77639494       3.71012527       2.00886808       1.81556162       2.79690891
Sb      -0.07996107       6.97215432       7.25293027      -1.04771812       2.96957452      -3.28013844
Sb       3.71717421      10.66264659      10.68392930       0.44929091       0.88836163       2.36784903
Sb       7.10135406      14.67046142      -0.29950180      -0.03902089      -0.01487123       0.09875264
Sb      10.67213306       3.41275876       3.91897617       0.93236268      -0.54563102      -1.27017478
Sb       7.08962414       0.07241919       7.32148969      -0.49500787       1.95947377       0.56658440
Sb      10.98216196       3.60489068      11.10834535      -2.43746209      -2.46737522       3.86255816
Sb       7.01206334       7.09459663       0.06404359      -2.67351668       2.25859317       3.89329922
Sb      10.77396008      10.56747401       3.54529534       1.06578258      -0.68986832      -0.83501887
Sb       7.03890614       7.06559630       7.31952336      -2.97222748       3.38404096       1.82947644
Sb      10.79931698      10.82885150      10.64310377       4.18104498      -2.59993401      -1.05438572
128
Lattice="14.3306 0.0 0.0 0.0 14.3306 0.0 0.0 0.0 14.5792" Properties=species:S:1:pos:R:3:momenta:R:3 config_type=highT_NSS128_600K pbc="T T T"
Na      14.23178870       4.05433128      -0.15030474       1.10410080      -0.71211460      -1.02407709
Na       3.79669208      15.11255537       7.41307988      -1.54161393       0.50557363      -0.16858687
Na       3.41761282      -0.08438586       3.98034913       1.59094255       1.57323720       0.94420946
Na       0.13379503       3.84659281       4.35178266      -1.01508401      -2.76211235       1.04630277
Na      14.39983512      14.51922938       3.56790944      -0.93602253       0.15654266      -1.18747480
Na       4.22228008       3.61771096       0.05090250       0.19046695       1.15145225      -0.84077696
Na      -0.21889453       3.74613624       7.90467498       0.08921684       1.15508337       0.01720002
Na       3.52018980      -0.17339571      14.98698255       0.08782715      -0.52798549      -0.84091669
Na       2.87375703       0.07225238      10.91516831      -0.25092654      -1.25576853      -1.15684746
Na       0.16464428       2.84799482      11.08765479      -1.44636828       1.05470984       0.61658042
Na       0.14932132      -0.53215624      10.60204864       0.53886698      -0.42769762       1.57806775
Na       3.62470998       3.91231598       7.09753640      -0.70512382      -0.11262343       0.68658044
Na      14.49852294      10.86220971       0.14430381       0.90370018       0.01656040      -0.56899980
Na       3.34100522       7.45067407       7.93193687       0.67671295       0.64968960      -0.41828526
Na       3.56246125       7.12471888       3.90706636      -1.27304892       2.14389260       2.59374310
Na      14.66143408      11.18441978       3.73021475       1.16025250       0.12283790       0.72625961
Na      14.49042854       7.24155886       3.64958580      -0.33040706       2.95660387      -1.43112504
Na       4.02731719      10.33958829      -0.20874857       0.96182430       1.41073694      -0.82628594
Na      13.76201984      10.96615492       7.20030570      -1.27023842       0.82937972       0.14247836
Na       3.09763035       6.91867662      15.30477195      -0.23396809      -0.00592841      -0.68672791
Na       3.52190790       7.16032195      11.55794262      -2.01882197       1.00435589       0.18921480
Na      14.53057050      10.61163897      10.71748510      -1.78305059      -1.13380557      -1.20085987
Na      13.86987305       7.00562575      10.66664779      -1.08889013       1.76998637       0.56826472
Na       3.46499455      11.05906630       7.42691905      -0.33759975       0.32999010      -0.06135531
Na       7.56811978       3.43281040      -1.12001747       0.98665872      -0.97829945      -1.14686103
Na      11.07161561      14.84419932       7.13378537      -0.94535364      -0.57974844       0.28938803
Na      10.94111921       0.03772719       2.51178070       0.21523006       1.64220075      -0.64662120
Na       7.03216845       3.25153137       3.07385618      -0.53591187       2.10505118      -0.50110023
Na       7.07624641      14.13123070       3.63531838      -1.84309611       0.26064491       1.33034294
Na      10.89153185       4.53557275      15.07150889       0.64704806       0.80537204      -1.12279565
Na       7.47224221       3.44646009       6.82692325      -1.25398187       2.07197901      -1.36351845
Na      10.58567531       0.47217939      14.15997090       2.37905928      -0.59146192      -0.47737954
Na      10.18187986      14.32081818      10.92686784       1.68074812       1.92958385      -0.63844442
Na       7.18221157       3.07639967      10.30533587       0.05032377       1.22540674       0.94514344
Na       6.35142246      13.99978335      10.70448221       0.51557399       0.90138418       1.84674249
Na      10.56588335       3.74720660       7.41221773       0.56023967       0.95381875      -1.12202286
Na       7.20473467      10.55855465      -0.43331019       1.72352973      -1.57366117      -0.39489807
Na      10.72543171       7.69343633       7.09920944       0.04141857      -1.47361639       1.45056662
Na      10.73495963       7.29860525       3.28165583       0.82940952      -1.05540076      -0.01661635
Na       7.03251548      10.74898872       3.24971651       0.79417615      -0.62180549       2.41278356
Na       7.54454693       6.63892897       4.07145784      -0.47786295      -1.75022703      -1.02934708
Na      10.48835148      10.94139176       0.08038571      -0.19027889      -0.02597770      -0.71190240
Na       7.22867738      10.83983507       7.12820151      -0.60650993      -0.40918859      -0.25924519
Na      10.97739185       7.60618412      14.48662996      -1.26900106      -0.89869118       0.26130792
Na      10.61889341       7.29146392      10.68528938       0.74805976      -1.23235091       0.66702063
Na       7.41101113      10.44231341      10.26885013       0.27256556      -0.36877346       1.47374794
Na       7.19285986       6.84031428      10.94501669      -0.94679053       0.22066801      -1.82370163
Na      10.58990901      11.06584276       6.81302555      -0.85034656       0.77065868       0.49080384
S        1.46619924       1.46360674       1.32890990       0.37647726      -1.01086791      -0.76986299
S        1.22598528       5.85151710       5.78169876      -0.46751674      -0.43510451      -0.45776909
S        5.52808212       5.76030578       1.33294060       0.26744098       0.92193366       1.50724403
S        6.06121214       1.18983353       5.69894074       0.92712886       0.24861369      -0.46435103
S        4.85512907       1.75018129       2.40022360      -0.79002135       1.63385314      -0.09406280
S        5.32902901       4.63447710       5.05302843       1.07666251       0.99417066      -1.43260270
S        2.41432793       4.86336918       2.53796595      -0.43839997      -3.26763479      -0.42046271
S        2.46416379       2.36309157       5.24129778       3.08100750      -0.56816431       0.52090175
S        1.53547191       1.47576789       8.87696980      -2.35698660       1.75401147      -1.13883716
S        1.28181820       6.04894936      13.35844008       0.44668147      -2.14399507       0.34693068
S        5.96512031       5.15622423       8.63552681      -1.99345388      -0.17681266       1.33719618
S        5.65553999       1.22722321      13.33451543       0.55601743      -0.48412950      -0.15580687
S        5.02184642       1.88543935       9.57652594      -0.57944023      -0.65179893      -1.52559658
S        5.27315240       4.47465347      12.31752759       0.12066145       1.51686682      -0.33626279
S        2.60618185       5.10359596       9.73024646       1.43663049       1.16400228      -1.99793953
S        2.42880227       2.12390840      12.48872231      -2.56291313      -0.04185118       1.17773180
S        1.27484077       8.63646756       1.70993061       0.47826654      -1.43190348      -0.64863341
S        1.38628646      12.99156869       6.02273316      -1.86866028       2.04970443      -0.91643238
S        5.94499785      12.36733138       1.08838404       1.01429772       1.04018927      -0.00091776
S        5.60535412       7.92983983       5.88207544      -0.69525423       0.96559848       0.31391343
S        4.60230463       9.28834965       2.36994126       0.07704063       1.72299743       1.07234619
S        4.98918357      11.96457431       5.08884520       1.52333549      -0.97369260       0.31068957
S        2.33222395      12.11056545       2.37877774       2.95216547      -0.89773928       1.56925332
S        2.13359136       9.54251690       5.40477945       0.13161863       0.61062813      -1.00263087
S        0.98504395       8.54381705       8.54110563       2.50014993      -1.36732668      -0.55012981
S        0.92497593      13.07906948      13.36547324      -0.11442547      -2.42496683      -3.39343933
S        5.66739087      13.04611607       8.23248798       3.55158815       0.46648424      -1.27440535
S        5.55072756       8.27424343      13.14081593      -1.61143895      -2.96461631      -0.19239369
S        4.82780177       8.87240190       9.67258849       0.06671274       0.11135662       1.30803536
S        5.15969794      12.02882373      12.13954601       1.37477294       1.31736204      -0.55135492
S        2.38326336      12.08675104       9.58615863      -0.90578859      -0.78289351       0.69365516
S        2.11407313       9.65067439      12.37521758      -2.36568717       0.49472211       0.51797248
S        8.35348132       1.17882221       1.23728528       1.27807821      -0.26956125       1.36105844
S        8.78927577       5.65436444       6.36199727      -2.75619925      -0.32205428      -1.69948472
S       12.79487190       6.13298090       1.59727627      -0.37119085      -2.35910458      -1.05289247
S       13.20924069       1.69631174       5.91398996       2.57344952      -0.01493601      -1.47403670
S       12.22602927       2.38198181       2.07832154      -0.47624687      -0.48103817       1.56810150
S       11.96632695       4.94477989       5.08884561      -0.03572379       0.38056648       0.84231080
S        9.12135856       4.94365954       2.70299070       0.04318871       1.36792038      -2.72576267
S        9.75792792       1.84785051       4.92558539      -0.48995885      -1.04110666       0.15882899
S        8.65327779       1.32637540       8.47478011      -1.85973094       2.11581256      -1.60010007
S        8.73122232       5.75832618      13.63801180      -0.88530827      -1.61677611       3.66867482
S       12.64227095       5.97477439       8.57030423      -0.17719112       0.12832076       1.56414838
S       13.08916233       1.89168531      13.35692147       0.42826584       0.96632430       0.63674435
S       11.95586072       2.41005784       9.42714126       0.65240358       0.08923836       0.23300535
S       12.04789229       5.30639014      12.17513842      -1.75859026      -0.20401597      -0.85580359
S        9.18825270       5.19904621       9.93335245       0.36834041       1.32639735       0.44675919
S        9.49331414       2.24486342      12.43120898      -1.98315671       0.64018481      -1.78372251
S        8.21086483       8.70923025       1.42889592      -0.33277279      -0.66613090      -1.81361975
S        8.77851627      12.78200498       5.72272745       1.51006030       2.15035515       0.72546986
S       12.92110467      13.12483230       1.33120128       0.17560851       0.11834378      -0.72695890
S       12.86334390       8.62991298       5.66840142       0.47318498       1.40754328       0.97903745
S       11.83870591       9.29609081       2.09518345      -1.18505229       1.48252919      -1.98257202
S       12.17348107      12.06313998       4.97051326      -0.22572080       1.91194111       0.17388718
S        9.34727688      12.18817820       2.25121525       0.09233205       0.66789568       1.13508850
S        9.44003483       9.43079497       5.20493907      -0.76500304      -1.10765352       1.04588652
S        8.23939132       8.54558287       8.60115168      -2.19122134      -0.92277287       0.13890297
S        8.42352036      12.83141131      12.75277642       1.73943577       0.81928659       2.23016374
S       12.85811307      13.39063285       8.45113612      -1.15431388      -0.39097342       1.12738582
S       13.15453383       8.98911130      13.30912127      -1.22658460      -3.31670699      -2.14559059
S       12.22260075       9.37241585       9.55517675       0.86865882      -1.70352736      -0.57030838
S       12.40688450      11.96535735      12.44141553      -0.82833335       2.81890871      -1.80755490
S        9.34769362      12.05321679       9.57709401       0.42251736      -0.99503329      -1.86357175
S        9.31443329       9.40094438      12.04426181       2.39282664       0.78732659       2.71954737
Sb      -0.07272792       0.35925973      14.70183567       2.73564861       2.35490355       2.19528847
Sb       3.76519955       3.40170199       3.73074866      -1.10713736       0.48274734       2.07947767
Sb       0.18572476      14.68871881       7.24656794      -0.98703208       2.93996802       1.40461200
Sb       3.64625238       3.35361153      11.00731876       7.78833885      -1.99313457      -5.88056341
Sb      -0.05564427       7.43398947       0.14340883       2.78815951      -8.44065967      -1.54994927
Sb       3.54865395      10.76338918       3.78728584      -1.14538502      -3.03676247       1.36420070
Sb      -0.22639607       7.17201039       7.05985718       0.98363184       0.36046083       0.12523867
Sb       3.72744338      10.57862943      10.78632100       1.01953504       1.10311099       2.33034453
Sb       7.05000070      13.99708103      -0.13322606      -2.45678537       2.62240878      -1.36926779
Sb      10.76845530       3.53637903       3.75551327      -2.85692493       3.00761486       0.13666374
Sb       7.41512364      -0.12546284       7.11360471      -0.15807367      -1.66171406       0.92615748
Sb      10.77214004       3.80321196      11.02425237      -0.00400111       1.23275497      -2.45229121
Sb       6.92722198       7.16824773       0.15693135       0.74000452      -8.16500381       4.70354219
Sb      10.80513834      10.80767970       3.64819693       1.01040449      -1.87706952       0.26895390
Sb       7.04484981       6.81208500       7.34620094       0.74082127      -1.23420554       3.96066337
Sb      10.86113425      10.79350672      10.90056966      -4.21358056      -0.07208225       1.14195274
128
Lattice="14.3306 0.0 0.0 0.0 14.3306 0.0 0.0 0.0 14.5792" Properties=species:S:1:pos:R:3:momenta:R:3 config_type=highT_NSS128_600K pbc="T T T"
Na      14.80502311       3.52522175      -0.12326913      -1.15473148       0.52649927       0.31828353
Na       3.49301340      14.62025402       6.33306925      -0.22285645      -0.09493133       0.57924845
Na       3.42369674       0.07071369       2.64588329       1.31349895       0.77132650      -1.60054296
Na       0.07838458       3.17595982       3.31116847       0.63145013       1.03316040      -0.27983663
Na      14.00852292      14.05745408       3.64519078       1.17692699       0.68816121       0.74084208
Na       3.86405582       3.10304234       0.35470204      -1.25450386       1.61316466       1.31384829
Na      -0.21969883       3.60095497       7.06076278       2.13133266      -0.16704336       1.12152519
Na       3.48848475      -0.06353658      13.81326230       0.98482767       1.75650022      -0.74966457
Na       3.37392119       0.07458425      10.80458926      -0.20133478      -2.76082438      -0.40277106
Na      -0.25420575       3.74229843      10.19949917      -2.70298863      -0.92999066      -0.59691959
Na      -0.29245982      -0.34405828      10.83273474      -1.20667819      -0.59536684      -0.37273242
Na       3.48681331       3.44689130       7.59462162      -1.10708846      -0.72481332      -1.56604634
Na      14.06911836      10.49791239       0.11934693      -0.09924766       1.43442007      -0.42559267
Na       3.59498670       6.78866573       7.52613521      -0.34948483       0.39432202       0.78592292
Na       3.24357880       7.44615035       3.24502743       1.69540457       0.78843192       0.39824197
Na      14.28910921      10.52174305       4.13527321      -0.92357365      -0.70626180       0.85128082
Na      14.24675392       6.94033192       3.69155666       1.17000604       1.14693546      -1.86823656
Na       3.76257338      10.53092855       0.04761894      -0.79165937       1.87773392      -1.13246676
Na      15.23836437      10.62003556       7.19656893       0.08008210       0.76210478      -0.33444031
Na       3.58974193       6.64993062      14.48501148      -0.54175586       0.92768341       1.45791413
Na       3.44740092       7.33988682      10.92205310       1.18199928       0.81241554      -0.61259187
Na      14.13513746      10.39103945      10.97619555      -0.75021224       0.07390352      -1.32906191
Na      14.46986651       7.26606441      10.97151577       0.15553555       0.04527729      -0.01778018
Na       4.15297736      10.91621738       6.99053679      -0.53173749      -0.32277661       0.10918042
Na       7.38060476       3.82768610       0.48701431       1.93923105      -0.10000138       0.43945106
Na      10.64705013      14.14148897       7.06544116       1.27748411      -1.26522124      -0.43153777
Na      10.66733134       0.10926539       3.52648711       1.91922496       0.34523292       0.42525864
Na       6.99462444       4.13635047       3.75830261       0.93592869      -1.76370233       0.45408468
Na       7.14960502      14.43563193       3.68594131       1.59865859      -0.10796465       1.52067379
Na      11.39532918       3.22835551      14.76890354      -0.40697260       0.09912924       0.18523241
Na       7.69896996       3.68722891       7.31993883      -0.00217108       0.15364840       1.99022421
Na      11.02033418       0.07221932      13.97024995      -0.38737018       0.39795766       0.57699040
Na      10.58336624      13.92449596      10.10710927      -1.31818178       0.07724522       0.82976770
Na       7.04013998       3.16736773      11.35327934       0.45641186       1.07153889      -0.67628181
Na       6.65807259      14.00139795      10.89768196      -0.41176558      -0.25313390      -0.73726178
Na      11.16884892       3.69336984       7.40438551      -0.82445204      -0.80256664       0.53433639
Na       7.24755526      10.90876148       0.12410118       0.18929298      -0.89813427      -0.98129921
Na      10.42621206       7.37487436       6.94632005      -1.82030073      -0.69223955      -1.01030867
Na      10.45092682       7.21857186       3.42469802      -0.79127120       0.45899585       2.06293231
Na       6.84498043      11.12025853       3.62773697       0.04268567      -0.55842509      -2.60588743
Na       7.30861073       7.93402100       3.64150773      -0.70059763       0.54034536      -1.23924345
Na      10.69818387      11.20060245       0.14172791      -0.28193015      -0.82921770      -2.01074885
Na       7.85164020      10.31438916       7.22733537      -1.30698422       1.53147679       0.94745504
Na      10.87441392       7.26736582      14.65954647      -0.36334382       2.17248345       0.97006530
Na      10.72792112       6.98956127      10.64872145       0.85799759       0.02849625       0.91233682
Na       7.08218174      10.59049644      11.44862532       0.14828033       0.72506885      -0.23095535
Na       7.10812336       6.91446662      10.87293648       0.16698850       1.31071964       1.20210805
Na      11.15680467      10.96590200       7.48491840       0.02884549       1.23983105       0.34764569
S        1.54236481       1.42635231       1.13647796      -0.32170774      -2.39911513       0.23439348
S        1.30408135       5.75175944       5.98337618       1.71161659      -1.00110481       1.02950588
S        5.87967201       6.28212628       1.75962238      -2.59917224      -1.26196828       0.65894530
S        6.14592564       1.26903222       5.73006037      -0.91393563      -0.07875808       0.59280821
S        5.17142078       2.27929844       2.64291362      -2.01483034       0.35012668      -1.12653851
S        4.57473888       5.07381763       5.21032375      -0.11153236      -2.88530052       1.60616443
S        2.32831528       4.88903321       1.97029207       0.17425052       0.04261673       0.54820257
S        1.97949217       2.60819524       5.16008921      -0.80558380      -2.29535398      -0.18885136
S        1.30320338       1.46482076       8.93400628       1.99011745      -1.53764424       0.78347696
S        1.31682716       5.63488093      12.75764841      -1.49443761      -1.23943936       1.00838944
S        5.87354965       5.53129814       8.54562205      -1.60867614      -0.15432944      -2.06098848
S        5.71053480       1.26590211      13.32344910      -1.83266561      -1.70926395       0.00871029
S        5.07724176       2.17493340       9.82807928      -0.38480823       0.97985746       0.45097333
S        5.08879432       5.03628419      12.21799924      -0.74068570       0.22005606      -2.62559718
S        2.19437684       4.86040275       9.57069892       0.47970042      -1.71058755      -1.16831095
S        2.56603181       2.29174494      12.57991022       1.04199656      -1.47484906      -1.02838282
S        1.11010758       8.44742948       1.40134718       2.05372146      -1.17336101      -0.72197243
S        1.35971311      13.12055605       6.00310004       0.71917646       1.05632143      -0.08155240
S        5.45088058      12.93918823       1.14341606       0.29270719       0.05965549      -0.98517278
S        5.87302751       8.79612923       6.12535070       1.74541993       0.60176273      -0.62250704
S        4.88140911       9.47610551       2.48017658      -1.64305682      -1.94738228      -1.26689414
S        4.74436220      12.61311134       4.95860687      -1.33405285       0.54057741      -0.16125871
S        1.76570533      11.95356136       2.29570129       0.82975809      -0.52496611      -0.13147445
S        2.18256809       9.68929201       5.06486315      -0.40334294       0.63091753      -2.34654767
S        1.33170190       8.42480948       8.69214096       2.73745466       1.11122338      -0.58468947
S        1.43699395      12.72056464      13.31950797      -1.38183870      -1.16391492       1.37617409
S        5.80575061      12.99271648       8.57060324       0.34957488      -0.77653815       0.63934303
S        5.80741685       8.84740500      13.24978035       1.02648041       1.09169963      -0.16902127
S        5.14715486       9.41677774       9.51236875       0.23765052      -0.24281277       1.43134661
S        4.95884783      12.45996210      12.15156904      -2.26265334      -0.04807808       1.59388683
S        2.61012772      12.21469319       9.05258532      -1.48872080       0.55050875       1.69245217
S        2.04762223       9.63642388      12.01529737      -0.19199676       0.03201439      -0.92939378
S        8.73294088       1.17209951       1.36442782      -0.93378689      -0.37017704      -0.75116520
S        8.51244786       6.13611176       5.43072444       0.15467436      -0.74020865       0.89950761
S       12.95554443       5.71306478       1.05948026      -0.75037561      -0.75640522      -2.29845897
S       12.92347137       1.29849173       6.14302454       1.50707017      -0.00415918      -0.82299939
S       12.12611205       1.95794930       2.65763828       0.14529689       2.50944292      -1.06582106
S       11.93203335       4.85829689       5.04160630       0.71580229       0.42299001       2.40766745
S        9.32380791       5.09432022       2.44091983      -1.63948033       1.53111299      -0.33005998
S        8.87089677       2.42101360       5.10915417       0.80499481      -0.84023123      -0.53408608
S        9.00291070       1.40451378       8.58235679       1.29695821      -0.98759362       0.53111914
S        8.39412974       5.95887153      13.37854957      -0.02228176       1.53523176      -0.13361054
S       12.79332015       5.87967602       8.60770546       0.11840464       0.06905376      -0.77562337
S       13.38524771       1.53464638      13.30837713      -2.47391178       1.96898243      -1.09184267
S       12.06728089       2.06137319       9.71399697      -1.04618996       0.30119382       0.28438245
S       11.81432229       5.00613788      12.32491843      -0.62921258       1.78952022      -0.50436157
S        9.35041111       4.59158041       9.90792804      -0.67712808       2.16016163      -2.18754939
S        9.48529883       2.02743304      12.82293665      -0.35408219      -0.36769115       2.90997151
S        8.59436944       8.91019039       1.25417401      -1.05433737       0.20551882      -0.75507822
S        8.65950613      12.72028123       6.06661648      -0.29531217       1.05513864       0.32593360
S       12.75574773      13.10471885       1.27614777      -0.54890087      -0.80478538      -1.05677245
S       13.05779372       8.85127587       5.99714696      -0.42474817       1.08740089       1.66480202
S       12.03767492       9.59998679       2.28742653       1.30057145       0.00139219      -2.02383101
S       11.93592619      12.30769438       4.91276833      -0.16100686       2.07327643      -0.08086074
S        9.03460175      12.09532857       2.33134203      -1.98517871      -0.34993773       0.70498653
S        9.47120836       9.30890330       5.12205352       2.89016506      -0.18555407       0.16804121
S        8.62994090       8.05099658       8.74986977       2.38111301       1.27094796       1.24410448
S        8.49634931      12.76260582      13.17492566      -0.84253526      -2.66991820      -1.07460289
S       12.79212192      12.91325656       8.72933290      -0.90082612      -0.65158541      -0.96915640
S       13.05724561       8.34921495      13.16628469      -0.02268740       0.44138207       1.33890925
S       12.02679210       9.25516681       9.42228568      -1.65221849       0.18762904      -1.09089157
S       12.09715566      12.28543566      12.10036916       1.74738569      -1.25416016       0.50476502
S        8.96298576      11.62623467       9.69696316      -1.56950232       0.30367154      -0.58809981
S        9.62851150       9.21142830      12.73138341       0.02996453      -1.66407293       2.02599363
Sb       0.10466505      -0.10269956      14.48625686       1.57290546      -2.88607440      -1.18481895
Sb       3.61746755       3.73525554       3.61124710       0.33977454      -0.43523441      -0.24197184
Sb       0.01965661      14.33311703       7.59724876      -0.08112925      -0.42408540       3.97280942
Sb       3.75543495       3.60733546      10.99542447       2.78208452       4.72253687      -6.55932031
Sb       0.12552222       6.97613321      -0.16201872       3.12711460      -1.05347799       2.63166320
Sb       3.54617235      11.04146310       3.65417435      -2.02820466       2.44572075       1.27684714
Sb      -0.11582032       7.20282445       7.25789850       2.87650521      -4.60521026       2.00651661
Sb       3.66548108      10.87012484      10.70365920      -0.92395899       0.24224685       3.70812696
Sb       7.12371525      14.23963322      -0.04800697       1.33948027       3.68581545       2.80794528
Sb      10.51575027       3.46363829       3.70378180       1.23226760      -0.55759075       0.66366591
Sb       7.44328794      -0.05490570       7.31654197       5.01993172      -1.62653690      -4.07116842
Sb      10.77009725       3.12710830      11.23470089       0.57994968      -1.59175002      -1.49159165
Sb       7.21212965       7.47647612       0.00803823       0.98010307      -1.15591702       1.85556052
Sb      10.50099568      10.87323508       3.59433574      -0.79168690      -1.72143240      -0.40489356
Sb       7.13681595       7.19462856       7.25701006      -3.90540570       1.73644709      -1.93600195
Sb      10.67596186      10.62735148      11.14102599      -0.71325666       1.08281078       2.77305774
128
Lattice="14.3306 0.0 0.0 0.0 14.3306 0.0 0.0 0.0 14.5792" Properties=species:S:1:pos:R:3:momenta:R:3 config_type=highT_NSS128_600K pbc="T T T"
Na      14.85812151       3.53339152       0.04103750       0.52161782      -0.12627929       1.04746505
Na       3.45873807      14.34480007       7.37454963      -0.12426747      -0.03151700      -0.69233390
Na       3.22504086      -0.07074277       3.25907581       0.38599529       0.96645783       0.79643421
Na      -0.04264681       3.10877177       3.22947191      -2.48540376       1.15150842       0.13720099
Na      13.86257939      13.89365951       3.78326201       0.90003526       0.24592425      -0.65527545
Na       3.68884630       3.45430977      -0.05306220      -1.02625789       1.95669160       0.61277263
Na      -0.33344018       3.67834718       7.49827706      -0.47924628      -0.86665839       0.93347002
Na       3.26366141       0.18520884      14.21257603      -0.31810000      -0.27592646       0.48191059
Na       3.54075875      -0.05586110      11.08201904       0.65877370      -1.60043464       0.03376337
Na       0.17114581       3.82135678      10.60219390       0.23723371       0.78051558       4.55317470
Na      -0.79310598       0.07816605      10.83076455       0.84959570       0.05237607      -0.11436380
Na       3.87281768       3.40562257       7.46950739       2.34541251       1.30204018       2.34738969
Na      14.15009378      10.53588799      -0.46892441       0.74416710       1.25403972       1.03658165
Na       3.57873794       7.16921735       7.10421987      -1.06906208       0.55479373       0.71254524
Na       3.57605803       7.15565673       3.12085649       0.33641520       0.75510600      -2.08720310
Na      14.22788594      10.24448667       2.99240128       2.44652666      -0.79791212      -2.10546829
Na      14.30625007       6.62800888       3.30414900      -1.26942993       1.39210092      -1.13929430
Na       3.66112535      10.54497115      -0.07032615      -0.45876268       1.11444932      -1.12996475
Na      13.98973215      10.38006597       7.33106638      -1.53947707       0.81276141      -0.85756107
Na       3.44384262       7.42119298      13.98403379       0.44062449       0.02882232       1.14481817
Na       3.63722021       7.25488670      10.64202151       0.30193443       0.21543805      -0.58358516
Na      14.42523575      10.61799337      10.58384892       1.32610274      -0.46555400       0.24937843
Na      14.88122356       7.24072301      10.67588137       0.62134460       0.32194504      -0.80275091
Na       3.13372435      11.48420124       7.68378132      -2.01858377      -0.99351595       1.63936897
Na       7.71003513       3.87516939       0.51646395       0.91134057       0.95252581      -0.74464103
Na      10.92772989      14.47249485       7.75513353      -1.72235424       2.03290315       0.40795362
Na      10.56000882      -0.15793617       4.34231581       0.31203236       2.09629035       0.43807841
Na       7.40053984       3.57293104       4.31077400      -0.95644820       1.05964212      -0.99269037
Na       6.67384506      14.88047585       3.95319596      -2.00237326      -1.44195804       0.12399200
Na      10.86876573       3.74254395      14.35964677       1.84890244      -1.45602934      -1.34397176
Na       7.10092603       3.75701138       8.23047781      -0.25721634      -0.00471180      -2.48780759
Na      10.83230178      -0.02008853      15.00513380      -0.44733796       1.04479579      -2.66978793
Na      10.45421511      14.28721535      11.30403470       0.89225729      -0.57929965       1.63933173
Na       7.00798106       3.38022340      11.74051028      -0.86036741       1.32636205      -0.21045519
Na       7.14402181      14.10680199      10.99602802       0.22316207      -2.53890162      -0.49385383
Na      10.60490311       3.75043439       7.17871736      -1.76731219      -0.24948431       0.10167878
Na       7.05777739      10.78938457      -0.16406163      -0.33377691      -0.96842184       0.11709556
Na      10.67704316       7.43748547       7.28500838      -0.72569614      -0.58176274      -0.29687894
Na      10.87888673       6.88383852       4.11067006       0.83563280      -0.99012545       0.17132272
Na       6.75974936      11.32181834       2.89446168       0.35831640      -0.04793336      -0.83175943
Na       7.56236466       7.53726162       3.68348260      -0.93111258      -1.38483624       1.87085986
Na      10.92002317      10.72374880      -0.06028745      -1.67158130       1.21811728       1.26291272
Na       7.16933768      10.64607639       6.51564935      -0.22829995      -0.26808733      -0.51263645
Na      10.72850554       6.81575544      15.07627390      -0.73028754      -0.16981324      -0.48882309
Na      10.76287822       7.14929041      10.51942322      -0.28170689       1.43141929       0.60376075
Na       6.95812173      10.89285817      10.82359488      -0.24355693       0.02314819      -0.38734847
Na       7.38895039       6.61477433      10.71520735       0.01557703       0.43658753      -0.28143167
Na      10.42384031      10.54450362       7.27907932       0.99854829      -0.30258109      -0.69848878
S        1.44855926       1.27249725       1.40062843      -0.16390326       4.02966380      -0.26492474
S        1.28284196       5.55872439       5.97474877       1.31058385      -0.09869345      -1.70233792
S        5.75525879       5.69771065       1.24257568       0.48556983       1.26545490       3.48425878
S        5.98912274       1.96022726       6.28048940      -1.48591742       1.77284313      -1.35197798
S        4.99792683       1.86141235       2.35929160      -0.89911849       0.17763808       1.39765925
S        4.82795918       4.90059367       5.12146067       0.29548319      -2.18601046       0.75483187
S        2.21222263       4.54978703       2.34597753      -0.27704777      -1.44708687       0.95394422
S        2.23433768       2.04809919       5.15157773       2.63862366       0.69115998      -0.13866605
S        1.50898456       1.72582505       8.63322178       1.96770178      -1.25777101       1.62750993
S        1.27524924       5.37018165      12.98463132       3.19085317       0.29393369      -0.44756813
S        5.65711996       6.21562102       8.64838108      -1.18570501       0.32852143       1.04771655
S        5.96850599       1.52505045      13.46808715      -1.53831359      -0.45805700       2.77148815
S        4.89633636       2.04099398       9.95452246       1.58608828      -1.57020669       0.67094065
S        4.95803293       5.10947298      12.40801292      -0.47066870       0.07208121      -0.68743447
S        2.46113330       4.83042339       9.47525277      -1.54393135      -2.01898055       0.22860813
S        2.04346859       2.32832249      12.37030660       1.76537059      -0.73978519      -1.29808834
S        1.47381297       8.30608154       1.06941399       0.58750786      -0.09909880       1.50694437
S        1.33539714      12.98744437       6.17519912      -0.28560790       1.63675793      -0.93605159
S        5.71247005      13.01437302       1.16376798      -0.31668369       0.80109759      -0.86611249
S        5.73335568       8.47204854       5.68646178      -0.24662235       1.33639891      -0.84781702
S        4.92915494       9.53737588       2.14127604       1.70546134      -0.15022123      -1.87082485
S        4.77872412      12.27551159       4.82609685       1.51613925      -0.53303592      -0.76587525
S        1.89632575      12.13120938       2.14929561      -0.38606471       0.22506947      -0.90975537
S        2.04124460       9.05033219       4.63314968       0.87999806      -1.52664402      -0.74613772
S        1.37363196       8.47485160       8.44798375       0.93016935      -0.10254024       0.77341559
S        1.47826705      12.83039149      13.60487398      -1.10917515       3.34534876      -1.07705869
S        5.72377870      13.26173537       8.49583379      -0.91605196       0.44997526      -0.68014679
S        5.73988127       8.44049038      13.00690715       0.88228687      -0.79588958       0.91354056
S        4.76116033       9.70091675       9.66344058      -3.02194762       0.05976334       1.02002280
S        4.72933207      12.21720165      12.42944308       2.76441791       0.46089660      -0.93937105
S        1.88307971      12.42939168       9.74701408      -0.13713208       0.09487330      -1.26155833
S        1.96672999       9.33138103      12.15603518       1.49911529       0.82035863       1.32987493
S        8.65178938       1.75270994       1.55670809       2.12217671      -0.77787947       1.37179640
S        8.61221641       6.05118843       6.15893007       0.66930053      -0.78420712      -0.83018160
S       12.95538026       5.45766803       1.14183656       1.64148325      -0.17467163       2.21681403
S       13.22938294       1.45207331       6.00576462      -2.35865792      -0.07646449      -0.63886130
S       12.10165259       1.77405425       2.38233185       1.68587286      -1.29893393       1.08153395
S       12.32025642       4.52977784       4.90436458      -2.36468507       2.58241974       0.36968877
S        9.31843975       4.94582769       2.55513352      -1.13450038       0.44386191       0.76023919
S        9.60586272       2.35358032       5.18274398      -0.16383625       0.17299500       1.33045249
S        8.47209438       1.14608691       9.01408954       0.49458686      -0.34855641       0.91373906
S        8.74502398       5.81664754      13.40230576       1.47216150       1.94514133      -0.41745446
S       12.88779391       6.05339221       8.59990323      -0.89373535      -1.45992572       2.86355315
S       12.67819768       1.03311062      13.45601047       1.76510990      -0.50382451       0.68137013
S       12.21886527       2.32855615       9.29534314      -0.32465416      -0.28604059       1.36029384
S       12.53243929       5.11531325      12.06678443       1.17547315       0.10530021      -0.24775117
S        9.36712226       5.03043812       9.55974868       2.63409506      -0.32720551      -1.24021566
S        9.43984184       2.60356068      12.16062969       0.97095501      -1.99745859      -1.44999221
S        8.34890594       8.80872928       1.25896811       0.20597356      -2.82859434      -0.35506818
S        8.55145626      13.27386771       5.82899985       0.22477406       0.31494956      -1.47463935
S       12.91755333      12.44378760       1.28434830       0.40461468       0.48233178       1.68905173
S       12.91192844       8.34764364       5.80274284      -2.58745979      -1.99718886       1.76098504
S       11.89632624       8.63921050       2.45964717      -0.90866212      -1.09232744      -2.00119647
S       12.07827960      11.87088342       5.26741992       2.55521266      -0.33585636      -1.26271506
S        9.83311537      11.88231956       2.13239219       0.20023530       1.40244956       1.25190613
S        9.10648946       9.40327582       4.87541890      -2.20516555      -1.73686225       0.40864990
S        8.47111392       9.11242246       8.49387948      -0.96668114      -0.52256911      -0.39268548
S        8.83166628      13.22724605      13.46985315       0.02010368       0.35898174       0.88814613
S       12.92270542      13.14531509       8.74768803      -1.99269621       1.22298431       0.43090486
S       12.87879960       8.16732009      13.07925155       1.38261268      -0.90015781       0.49842969
S       12.16545646       9.47214827       9.34194410       0.79569341      -0.98967909      -1.80105408
S       12.26914175      12.05402370      12.07179876       0.78452171       0.88332542       0.51892767
S        9.31014788      12.08414769       9.64961241       0.84309388      -0.78225083      -1.47963890
S        9.40654828       9.34238551      12.21245569      -0.67302210       0.06026443       0.00156469
Sb      -0.01548539      -0.23115295      14.80148768      -3.96204776      -2.30260157       2.08852399
Sb       3.72358178       3.22812754       3.77216016       0.31699222      -1.85550375      -3.38206857
Sb       0.12726115      14.55354307       7.51424900      -1.21528394       3.52495883      -2.12539014
Sb       3.64335767       3.73895718      11.06922453      -2.12774084      -0.79357575      -1.46409871
Sb       0.01409366       6.90643692      -0.27908419      -3.52682427       4.19723603       1.63833871
Sb       3.39574182      10.81460142       3.62388802       2.64689567      -2.56379499      -0.27009910
Sb      -0.03085150       7.09780987       7.10630532      -0.30554168       3.19774906      -2.06973859
Sb       3.31122395      10.99629530      10.98677990      -2.59856414       0.99941760       0.87340402
Sb       7.36763639      14.51524139       0.27391061       3.48475966      -3.02751031      -2.53476419
Sb      10.91059308       3.43698672       3.54877644       1.50335061       0.96703676      -0.18861647
Sb       7.24987811       0.26882796       7.22138522      -0.65273346       0.45354033       1.07734738
Sb      11.11739822       3.80626171      10.73266844      -3.43386756      -0.02079232       1.01264071
Sb       7.06229310       7.19920148       0.00667093       3.28573543       0.62797026      -3.95667620
Sb      10.74146540      10.43538451       3.74398768      -0.98462585      -4.04716315       3.53558019
Sb       7.15257071       7.52850053       7.28287207       0.40568415      -1.10509787      -0.90385984
Sb      10.77826716      10.64670447      10.77747935      -2.89549160      -2.26905314      -1.68104971
128
Lattice="14.3306 0.0 0.0 0.0 14.3306 0.0 0.0 0.0 14.5792" Properties=species:S:1:pos:R:3:momenta:R:3 config_type=highT_NSS128_600K pbc="T T T"
Na      14.57494641       3.48383765      -0.03453668       1.17177257       0.56509192      -2.86830941
Na       3.53663878      14.86100650       6.78757674      -1.48913689       0.09229560       0.25757561
Na       4.37228529      -0.23156629       3.27241395      -0.12017578      -0.69045373      -2.11518832
Na      -0.15849475       3.72547709       3.55345633       0.16087595      -0.14780083       0.12341550
Na      14.70731509      14.19355471       3.49825111       1.23142990      -0.03102814      -0.18408201
Na       4.17933197       3.16263802      -0.10663334      -0.30687332       0.27127969      -2.96756759
Na      -0.34246492       3.51774244       7.37840690      -1.28422402       1.80154646      -0.94457316
Na       3.32933158       0.13147698      13.84388011       0.24311603       1.90321163      -0.45788692
Na       3.80727055       0.26177261      10.42005483      -0.57861300      -0.22254792       1.42780380
Na      -0.17488677       3.78703581      11.04753809      -0.05660088       0.55395804       0.59805656
Na       0.60540698      -0.32102854      10.68257184       1.26043221      -1.12117958      -0.60026211
Na       3.24046940       4.20990084       7.21337158       0.42433578      -0.99434718      -0.22912487
Na      14.56371889      10.79016567      -0.32209096      -0.58525143      -0.86972417      -2.13896722
Na       3.50899279       7.25561594       7.35794361       0.42229029      -2.73883663       0.22663370
Na       2.73760255       7.29667597       3.60332958       0.57551649       0.82984970      -0.13069843
Na      14.52708079      10.56336821       3.63697446      -0.81745540      -0.30284095      -1.31351053
Na      13.88807463       7.23444288       3.70788311      -0.26154455      -1.07485500       0.68309003
Na       4.07224939      10.58716419      -0.00612303      -0.58500068       1.57981991      -0.92247803
Na      14.43486538      11.16221089       7.37140047       0.17083282      -1.93308994       0.17404881
Na       3.85738468       6.77190791      14.05684872       1.61928086       0.55557466       2.26763696
Na       2.95102548       7.08628918      11.12983547      -0.09490700      -0.55079496      -0.51295856
Na      14.07203429      10.31321296      11.00282251       0.59283996      -0.93039496       0.53919152
Na      14.23739290       7.08704312      10.78263333      -0.77296651      -0.34914566      -1.70082285
Na       4.00765442      10.34781066       7.40427641      -0.70296592      -1.16927468       0.58080533
Na       7.71750276       3.51862976      -0.12112190      -0.31644969       0.49454298       1.16276611
Na      10.51504622      14.70414794       7.43416491       0.18305284      -0.39277700       0.27545369
Na      10.64791666      -0.50569555       3.98901400      -2.12911331      -0.07550407      -1.21473491
Na       7.22834231       3.46620637       3.75429842       0.28633808       0.35812316       0.38453561
Na       7.41569944      14.03176046       3.95938404       1.72697108       0.88188718      -0.46585368
Na      11.28402570       4.23645154      14.92982525      -1.09041873       0.38451956      -0.64989578
Na       7.04102662       3.78993636       7.55063778      -0.58119963       0.08992815       1.12901021
Na      10.63460098       0.91526837      14.65143551      -1.23441662       0.15864833       0.65193951
Na      11.33795347      14.35627659      11.43025109       0.46835340      -1.78520640      -0.20036950
Na       7.11206253       3.40568695      10.94255855      -1.03986540      -1.82271192      -1.26678535
Na       7.50847673      14.53482433      11.08524107      -0.44331240      -0.28091835      -0.46123651
Na      10.42824235       4.22133732       6.87419018       0.54619024      -1.05855761      -0.01664377
Na       7.48610177      10.62968677       0.21866373      -0.26459780      -0.00027862       0.68426531
Na      11.04305169       7.49522179       7.15067596      -1.00447885       1.82467602      -0.63157967
Na      10.39080781       7.03869782       3.62362228      -1.41081250      -0.54536277      -0.09312512
Na       7.08492460      10.35806953       3.48330393       1.35092524       0.87126072      -0.85217939
Na       6.80034891       7.00107849       3.90636781      -1.90243927       0.65182397       1.11019944
Na      10.83545358      11.01019699      -0.00374143      -0.92634840      -0.52565780       0.88183482
Na       7.51379529      10.83335693       7.78189572      -0.14173910       0.47283899       0.81514531
Na      10.94930354       7.67233389      14.80596400       2.05846025      -0.14507716      -0.16828064
Na      10.27404072       6.96438338      11.58155203       1.22150745       1.08571152      -0.01637858
Na       7.35033091      10.39166993      10.63808499      -0.15809987       1.21175571       0.31636070
Na       6.73485089       7.14079980      11.32294201       0.77170709      -0.37638647      -0.65184093
Na      11.02230161      11.00169944       7.17108997      -0.45496989      -0.52952621      -0.89361431
S        1.41217310       1.44497648       0.93179008       2.25794750      -3.51161863      -0.53838236
S        1.47962618       5.80793671       5.80259635       0.30820042      -1.29438667      -0.85929371
S        5.72462228       5.28203323       1.08072708      -0.32925213       0.17643997      -2.25725639
S        6.21211070       1.37032834       5.74329695      -0.36475658      -0.69762602       1.05475261
S        5.29174142       2.21606641       2.42093398      -1.40062735       2.34876254       0.37164842
S        4.72219351       5.07757002       4.94618570      -0.69749405       0.69351301       1.83779308
S        2.32391678       4.37023133       1.60548960      -2.19872078       0.21147680       0.01860207
S        2.15329344       2.21377489       4.76601295       1.51024243       0.04277170      -1.95461102
S        1.19631182       1.27241133       8.62022331       0.36317132      -1.17536739       0.22635133
S        1.48592600       6.05902871      12.88735524      -2.16537739       0.86049658      -1.99961259
S        5.53625032       5.79380716       8.79029088       1.20308372      -0.92991152      -0.53160946
S        6.01146427       1.53423733      13.47962371      -0.49493368       1.94179474      -2.02826813
S        4.94417374       2.34296973       9.26640295      -0.82391111       0.88845840       0.32983793
S        4.97987335       4.84728337      12.06346982       0.58980585       0.61285708       1.45512210
S        1.70035345       5.01388865       9.57221842      -2.02887269      -0.95913093       2.42672867
S        2.15241885       2.16308501      11.97248964      -2.36852085      -0.74851705       1.31561502
S        1.56530529       8.43163215       1.29537826       0.19587402       0.72546001       0.75448553
S        1.01805369      13.04924122       5.92575611       1.63103162      -0.02349777       2.58096099
S        5.67617775      12.98223445       1.29323727      -0.23230594      -1.36160799       0.98574232
S        5.81680400       8.66920591       6.35122173       1.09879221       1.06763843       0.24418061
S        4.98129246       8.97444061       2.56028978      -1.26587627      -0.10718144      -0.58883454
S        5.22040803      11.89994319       4.98614523       1.70560655       2.27378227       2.18702795
S        2.49834943      11.91364144       2.27352322      -0.26817044       0.62446266       1.12192078
S        2.25684391       9.60964353       5.23608992       2.71018423       0.99986158      -0.66394183
S        1.44084356       8.82881163       8.72726017      -1.03053317      -1.97895554       0.84497229
S        1.35888929      12.86203520      13.04902260      -1.54319866      -0.02683479       2.48295405
S        5.71543544      13.13568188       8.53249883      -0.81469601      -1.61253676       0.98776810
S        5.88904061       8.78041868      13.55356795      -0.65494542       0.49879329       1.82429326
S        4.90534891       9.28497113       9.96985237      -0.32723725       0.02023084       0.38988183
S        4.86916579      12.37882352      12.28077439      -2.08104603       1.53660494      -0.98001883
S        2.05894823      11.85591187       9.59582271       0.03293662      -0.42685499       1.89262481
S        2.35378509       9.61683758      12.66540817      -1.58629056       0.91025480       2.33150826
S        8.53980715       1.05248705       1.70376744       1.79993265       0.69831242      -1.31496696
S        8.17220131       5.60756959       6.06392477       0.25208142      -1.83237934       0.18096035
S       13.39768921       5.65135025       1.38493233       0.16921358      -1.27130928      -0.70029265
S       12.68614543       1.28947926       5.84941708      -0.86205789      -0.15476378      -0.10617544
S       12.19357183       2.37033848       2.22464723      -1.25009894       1.37920054      -0.32319727
S       12.06447978       5.32203689       4.91144286       1.90968673      -0.03257524       0.02186569
S        9.19256541       4.66744115       2.36119869       0.17329939       1.14363867      -0.38879867
S        9.57405056       2.30984034       5.07621204       0.71814826       0.54148431      -0.44537984
S        8.43717553       1.73923216       8.57330606       0.19543565      -0.42427077      -0.89259196
S        8.76988767       5.98069145      13.46394081       0.48932816       0.44774853      -0.35043759
S       12.82672797       6.01379339       8.59072051       0.11135050       3.37699404      -2.49902995
S       12.78636585       1.48528563      13.42505342       0.54532727      -0.30008281       0.09169249
S       12.03792411       2.62334354       9.28878159       0.51356184       0.46391666      -0.20813626
S       11.85266365       5.11472318      12.41500972       0.08454301      -1.05007252       1.90621896
S        8.98841437       5.15334878       9.85871953      -0.02206943       0.61842421      -0.41286655
S        9.27246620       2.17132071      12.35246856       0.79683964      -0.45198092      -0.25686290
S        8.43051975       8.38761055       1.77193416       0.99447103       1.65094009       1.81840524
S        8.73820386      12.81823740       6.08141387      -0.11358685       0.89673103      -3.03332379
S       13.03783902      13.10982870       1.25534214      -0.10516320       0.32828311       0.95128211
S       12.96779591       8.69376731       5.81820780       0.34701704      -0.20071143      -0.09868978
S       12.31131146       8.99692246       2.25085562       2.15894296       1.07570503      -1.00104390
S       12.26971138      11.99432737       4.70533248      -0.60649179      -0.14894776      -0.19329417
S        9.37456867      11.74081699       2.44917437      -0.10955789       0.66981866      -0.32833499
S        9.47840459       9.13232956       5.00484431       0.06817739       0.00150069      -1.05446628
S        8.50279550       8.45922288       8.76548942       0.05012890      -0.55384006      -1.13595096
S        8.50934957      12.93712790      13.27379324      -0.16175858       1.53774628      -0.66386654
S       12.65759953      13.12862791       8.73691021       0.20687096      -1.79753830      -0.23556550
S       12.94214063       8.35357447      13.00799204       0.89877319       0.47618576      -1.13561789
S       11.85869114       8.96583017       9.90998891      -1.44722268       0.12786738       1.88989869
S       12.25278173      11.99708414      12.06094532      -1.44989058       0.93921238       0.21467256
S        9.53441298      12.10178982       9.47228048      -1.31849366       1.11093097      -1.71972888
S        9.20338780       9.72573895      12.56609475       0.52917005       0.64523350      -0.79483866
Sb      -0.10524573      -0.01897566      14.30847678       2.64930819      -1.44275720       1.32108564
Sb       3.57778757       3.56972700       3.36737749       1.41908862       1.63705313       2.69318890
Sb      -0.26550388      14.45180527       7.19232312       0.08532673      -3.60529720       2.21394734
Sb       3.42836186       3.66777815      10.75553317       0.85834608       1.49509665      -0.55476606
Sb       0.08704856       7.14601144      -0.10324812       1.90017439      -1.36824500      -2.30880421
Sb       3.77606892      10.63453271       3.67410760       0.00676672       1.61621726      -3.77029003
Sb       0.09405839       7.35415570       7.33660082       1.63725215      -2.47840037       3.02282983
Sb       3.49246531      10.85149265      11.05750722       1.00172851       1.87346804      -2.32080230
Sb       7.21288943      14.31790937       0.13846429      -1.48686779       2.06366422       8.14004253
Sb      10.75802408       3.68730188       3.63802423       0.42176153       0.54913254       2.75739464
Sb       7.36392826       0.02849569       7.24685274       1.11701186      -2.56816482       2.73716633
Sb      10.58912372       3.56227097      10.92559590       0.22865609      -2.31369223       2.62255142
Sb       7.12026189       7.00237434       0.17698181       2.27630995      -1.95335995      -1.52447097
Sb      10.95201545      10.45286665       3.65371844       2.95605852       0.56102071      -3.68181167
Sb       7.07117999       7.07304038       7.56685585      -3.36891763      -1.27393185      -1.60943750
Sb      10.60890037      10.69404401      11.00291698      -3.93027387      -0.25690331      -2.40312614
128
Lattice="14.3306 0.0 0.0 0.0 14.3306 0.0 0.0 0.0 14.5792" Properties=species:S:1:pos:R:3:momenta:R:3 config_type=highT_NSS128_600K pbc="T T T"
Na      14.73354287       3.45986991       0.72755979       1.02657240       1.21315281      -1.29789400
Na       3.80146617      14.07818349       7.64627501       0.50381225      -0.83623894      -1.12516642
Na       2.97610254      -0.05915664       3.89675308      -0.05783798       0.57325708       1.46437588
Na      -0.06529177       3.92557189       3.80375090      -0.65098462       0.44417293      -0.15867190
Na      13.85178514      14.47854947       3.64939593      -0.83902394       0.57862134       0.41398121
Na       3.36627326       3.12015738       0.31981663       0.87668256      -1.76946476       2.29330679
Na       0.95715269       3.66847062       7.41366237       0.13567036      -1.82658993      -1.18546240
Na       3.33157048      -0.94235685      14.69704535      -0.28623653       0.54725820       1.58028123
Na       4.30651118      -0.01418846      11.02234750      -0.73367641       1.60018176      -0.07977955
Na       0.14295831       4.12797238      11.40284832      -0.09607436      -1.17076012      -0.09970463
Na       0.32569686      -0.03895559      10.87215657      -1.94153454      -0.70353627       1.76519138
Na       4.38457692       3.41300921       7.37885431      -0.95571250       0.16833505       0.38675141
Na      13.98922932      10.55207691       0.24099783       0.11287166      -0.95863215       0.00910608
Na       3.60665648       7.45356983       7.14645508      -0.22614227      -0.76987011      -0.95420136
Na       3.50310231       7.54417319       3.77023022      -0.95182419      -1.22571512       1.08667383
Na      14.34905060      10.96416185       4.16794212       2.45576711      -0.71532165      -0.35759123
Na      14.32919883       7.50164473       3.66972319       0.50544994      -0.47712195       1.70810112
Na       3.26061872      10.58327452      -0.12205577      -1.77044556      -1.70589322      -0.76683739
Na      14.47622668      10.67382643       7.45767972       1.62243466      -0.08710267       1.53174972
Na       3.64918421       6.32921242      14.47779963       0.29940888      -0.37430213      -1.18845718
Na       3.17198791       7.22172195      11.07811728      -0.36529499      -1.14595133       0.96048587
Na      13.90878320      10.98139315      10.89028221      -0.72951478       1.19747836      -0.31296513
Na      13.91998538       7.66173084      10.53253678       0.68700486      -0.13132265       1.73767963
Na       4.12104901      10.69353818       7.45231729       0.80930361       1.46006009      -2.52295927
Na       7.04775437       3.54316421       0.03558567       1.04237723      -1.14806139      -0.60380735
Na      10.53750470      13.99558799       6.53616877      -1.50751459       0.72181640      -1.02865696
Na      10.63095809       0.08758955       2.80015332       1.43033970       2.15698697      -1.39216237
Na       7.22787015       3.57647619       4.05907514      -0.84293406       0.06170133      -1.26948642
Na       7.46740273      14.83778192       4.10318423      -0.36486895      -1.02584869      -1.94853186
Na      10.50828226       3.57069857      14.25454244      -0.11772424       1.34875321      -1.75928946
Na       7.80866078       3.50918022       7.37100448      -0.40346403      -1.67110825      -0.40955425
Na      10.35381716      -0.07363464      14.10066896       0.80061733       1.41702540      -0.58530039
Na      10.87826657      14.29404267      10.18942820       1.42726450       0.49842666      -0.54926865
Na       7.34619341       4.02021762      11.47957318       0.61019078       0.48716158       0.04148791
Na       7.58165351      14.06493521      10.98246583      -0.87259565      -1.20782339      -0.37949028
Na      11.86214662       4.01798143       7.61759880      -1.36478256      -2.46600761      -0.58918332
Na       7.33247121      10.76987001       0.20031235       1.18483326      -0.02955976       0.48737581
Na      11.12495294       7.36535374       7.69781468      -0.12151226      -0.06361563      -0.76934705
Na      10.55068800       7.14244974       3.64206034      -0.32787171       1.10327736       0.20616982
Na       7.39924763      10.76190313       3.73091554       0.41475966       0.44414575      -0.15872966
Na       6.92333872       7.31487066       3.93663502      -1.26544442      -0.42834383       0.05161971
Na      10.66376438      10.86483120      -0.18347734       0.02560651       0.15812386      -0.45766798
Na       7.58048958      10.44500418       7.36460864       0.55030717       0.10385174      -0.18295132
Na      10.70683191       7.52992111      14.28555488      -1.79122888       1.09427393      -1.37978713
Na      10.32188163       7.31830691      10.99790645       0.29633868      -1.18911957      -0.61596657
Na       6.81152212      10.87882064      10.92831128       0.95612650      -0.61930956      -0.50832843
Na       6.47617159       7.57578335      11.06046691      -0.29475794      -0.21076359       0.81233919
Na      11.06947409      10.95808345       7.72684445      -0.95293242      -0.47856389      -1.18959968
S        1.34688044       1.16149345       1.21642622      -0.28931472       1.27677438      -1.14863307
S        1.24205219       6.16246678       5.49234319       1.42874300      -0.97611949       1.97519805
S        6.05723404       5.70264666       1.85051296       0.69570560      -0.09646129       0.97977986
S        5.85917453       1.22452481       5.92953971       0.38286363      -0.46112898      -4.00186938
S        4.83131850       1.75361738       2.61399826      -1.79198360       1.28270465       1.37568392
S        4.68655403       5.17004153       4.85944918       2.53030551       0.42450070       1.77533153
S        2.28803966       5.01780070       2.23969424       1.98702605      -3.45158861      -1.31077823
S        1.95978836       2.35451309       4.85750770      -0.09596657      -0.67163583       2.07501067
S        1.37106411       1.35427080       8.73454076       2.27290112      -0.54508431      -0.36501538
S        1.25003324       5.52380750      13.32248580       0.17048685       0.46606293       0.58008036
S        5.91940313       5.96911769       8.67164808       0.00086425      -0.51499293      -0.58981739
S        5.71684834       1.57014258      13.23146729      -1.88078848       1.61616879       0.02213049
S        5.47397947       2.29003621       9.80916931      -0.33178719      -0.60124879      -0.05894754
S        4.84882050       5.16738144      12.29465622      -1.68830847      -2.00143930      -1.81772034
S        2.71310243       4.80095358       9.33208621       0.00618545      -0.20031699       1.38276992
S        2.53378711       2.25894401      12.11730551       0.08140365      -1.86916994       1.27048843
S        1.25818892       8.32816892       1.18840249       0.09906180      -0.32587206      -1.26198381
S        1.28128668      12.95459988       6.05268729       0.02974920       1.46971917       2.37351323
S        5.76032421      12.75357027       1.24503912       0.43509905      -1.58081546       0.33527838
S        5.90226078       8.58498444       6.20811679       0.02406284      -2.55552813      -1.54953307
S        4.86359665       9.43806051       2.18942356      -0.71061424       0.63105176      -1.54979599
S        4.73316546      12.05120218       4.80391957       0.78535390      -0.00127344      -1.40424736
S        1.78139438      11.86467920       2.05111607       0.79781645       0.62912281      -0.49033768
S        2.07431099       9.49807718       5.07200953      -2.80330835       0.62905823       1.02909485
S        1.32525397       8.64428283       8.64354732      -0.92189898       0.21173598      -1.65549839
S        1.32307071      12.55884655      13.15904332      -0.87317031      -0.56638669      -1.78096899
S        5.79033274      12.96274241       8.77560711      -0.43474350       1.05838668      -0.40644447
S        5.92511606       8.33369879      13.64350448       0.77087802      -0.12886110       0.31330303
S        4.83961042       9.36597556       9.49290705       0.10261064      -0.80046080      -0.81465069
S        4.78360471      12.17703969      12.42669483      -0.76339733       1.57947740       3.64254502
S        2.42528972      12.48389180       9.45565397       1.97800728      -0.01996060      -0.85331643
S        2.07722088       9.47774896      12.09027139      -1.55176228       1.02163964      -1.62509199
S        8.42722593       1.41426135       1.23904796      -1.76103566       2.94637903      -0.21608919
S        8.13718625       5.42972778       5.68108440      -2.49867321      -0.91646108      -0.24247243
S       12.58708292       5.76770787       1.15674398       1.44782055       0.97007182       1.58433361
S       12.82381633       1.52441847       6.26622713      -1.03974592      -0.12190219       2.89500241
S       12.32367142       2.05490832       2.46207312       1.40130105       0.38482784       0.72184788
S       11.99695748       5.02969890       5.06295294      -0.88479272      -1.07965857      -0.98733982
S        9.68052892       4.84413657       2.16448880      -0.30786566      -1.63957318      -0.08266621
S        9.66431682       2.26285297       5.06330470      -0.61543704       1.69058977       2.91361758
S        8.84443155       1.02585705       8.47679819      -0.65059292      -2.56535605       0.94827164
S        8.43687534       5.46285678      13.34744586      -0.52649914       0.87989582      -1.04254876
S       13.38070685       5.85436054       8.61138317       3.31242144      -0.57692888       0.82350130
S       13.09394279       1.07734230      12.90954894       0.82078523       0.48060147      -0.62509368
S       12.65816046       2.72144482       9.92065308      -2.55532569      -1.33838134      -2.95753725
S       11.82154531       5.23221924      12.47229548       1.01158030       0.59784376      -0.83369880
S        9.65585793       4.86130581       9.17668531      -0.42487880       2.13359296       0.36676613
S        9.50531529       2.14162229      12.12516497      -0.05283556      -0.61743105       0.06101829
S        8.57840846       8.31533873       1.69089433      -2.78791790      -0.26488898      -0.37311917
S        8.31862869      12.79920260       5.86789376       0.30580674       0.37822180       0.29960394
S       12.87663626      12.80259745       1.30365959       0.74815853      -0.41367154      -1.29891639
S       12.80629263       8.75299236       5.90533205       2.22130294      -0.07213567      -0.59576907
S       12.49676067       9.57225784       2.60593114      -0.94012256      -1.78398454       1.97889704
S       12.08915083      12.48277552       4.77537661       0.77521488      -1.14273373       0.01992884
S        9.47375270      12.04415925       2.14775929       0.55809542      -0.40045191       1.44966141
S        9.36365122       9.47660917       5.05254874       0.53023453       0.03041820       0.17526455
S        8.91992006       8.31095420       8.55909862       1.43731988       0.64114206       0.06943617
S        8.25747284      12.94320804      13.20749260      -0.99301825       0.41475040      -0.18447251
S       13.07713506      12.86666093       8.74281604      -1.73038388      -2.28008231      -1.83175608
S       12.96806321       8.49502290      13.08838995       1.52506971      -0.63418342      -0.74636998
S       11.96260973       9.41311132       9.86120320      -0.70366647       0.36561547      -1.05222894
S       11.67370289      12.17388118      12.18642913       0.26548564       0.14669078      -0.78915587
S        9.10991921      12.00528142       9.40663268      -0.40969662      -0.04804080       0.54711800
S        9.00254598       9.45476483      12.40977796       1.33222401       0.06803951       1.72564877
Sb      -0.03059611      -0.26581003      14.36095162       1.11633585      -1.50873642       5.05538790
Sb       3.50476004       3.58336695       3.65678475      -1.76342322       5.22084447       4.36434522
Sb       0.06122156      14.41838298       7.35743915       0.50691670      -0.69655654       0.24435968
Sb       3.93923541       3.64773846      10.80765399      -0.23051758      -0.89099543      -1.60608361
Sb      -0.24790811       6.95702698      -0.06763446      -5.43230359       4.90280490      -0.25979231
Sb       3.28033861      10.66760248       3.44428872      -0.02071942       1.98995284       1.07172658
Sb       0.24852386       7.48820770       7.15668866      -0.56551712       3.11901101      -0.49406665
Sb       3.50440371      10.88561024      10.80765895       1.12752770      -0.10480831       5.53410353
Sb       6.92618333      14.42247090       0.02815910       3.84825606      -0.06324860      -0.97769367
Sb      10.95295539       3.59941562       3.63280350      -1.85536111      -0.00476288       2.85664885
Sb       7.15168451      -0.16172618       7.31040219       0.93944489      -2.49456053      -2.95104176
Sb      10.73826118       3.78375773      10.91509914      -1.88788000      -0.69344937      -0.27953394
Sb       7.22921036       6.84483736       0.25595267      -0.62082071       0.91253576       1.47416511
Sb      10.81956763      10.78474320       3.63036975       5.18432519       0.64448199       0.39142556
Sb       7.31210295       7.08920213       7.25726063       3.82830779       2.14625158      -3.27320189
Sb      10.31219840      10.82928195      11.02997962      -1.36878980       3.41824808      -1.02686656
128
Lattice="14.3306 0.0 0.0 0.0 14.3306 0.0 0.0 0.0 14.5792" Properties=species:S:1:pos:R:3:momenta:R:3 config_type=highT_NSS128_600K pbc="T T T"
Na      14.21263493       3.69167764      -0.15125233      -1.35165557      -0.62784290      -0.37365962
Na       3.25251383      14.11919871       6.56277813       0.75253834      -0.10189042       0.62792424
Na       3.74026747       0.06898936       3.81873471       1.28497198      -0.56255466       0.01220836
Na      -0.15156791       3.51417152       3.88936062       0.03605866       1.92521684      -0.82224121
Na      14.23279641      14.33109313       3.71727346       0.26480960       0.47569347       0.72859402
Na       3.59428684       3.71443328      -0.04376086      -0.23550762      -0.74638196       1.45830526
Na       0.09095205       3.61473734       6.85238190      -1.02076819       0.68256637       0.19373125
Na       3.62595392       0.90481550      14.40401143       0.89100633       0.07034232      -1.07785012
Na       3.07405207       0.21999032      10.70572372       0.59239366      -0.52319175      -0.56371616
Na       0.09736162       3.17729448      10.46967126       1.15459498       0.36884319      -0.13775377
Na      -0.27895268      -0.50434586      10.98265029      -0.36779326      -1.24633927      -0.00383769
Na       4.00976422       3.66095909       7.44644364      -0.75327059       0.21743688       1.37375337
Na      15.22038408      10.62288535       0.15465206      -0.58243557       0.18495386       0.19934885
Na       3.89709184       7.26831980       7.54663408      -0.76280831      -2.29667006      -0.46758359
Na       3.71577218       7.10752472       3.81146035       0.88334112       0.66421491       0.91250141
Na      14.24488544      10.88673786       4.12979643       1.67636979       0.91473124       1.11892164
Na      14.59572649       6.93101502       3.63149907       0.05877956      -0.79039332       1.72197573
Na       4.37962659      10.39267076       0.16133437       1.14828617       0.78464554       1.52342192
Na      14.09567139      10.75736773       7.72989447      -0.33623181      -0.20333390       1.01570366
Na       3.69680327       6.73468121      14.85983278       0.27222147       0.99477406      -1.83800068
Na       3.60859679       7.01907747      11.24524173       1.35422425      -0.19538371       1.97068154
Na      14.01027315      10.41265162      11.13360829       0.21488225      -1.00060758       0.27856396
Na      14.23622153       6.84766337      11.02262308       0.41506640      -0.96572226       0.05609141
Na       3.57813307      10.86636149       7.59834352      -1.90805487      -1.17685732       0.34541353
Na       7.86308092       3.37020934       0.21305459       0.87812222       0.60321808       1.05014019
Na      10.51593900      14.70009944       7.43402091       1.39848432       0.56233330       0.74436950
Na      10.83397802      -0.07028782       3.34598395      -0.11326183      -0.43743372      -0.78080937
Na       7.07098795       3.27548595       3.31233235      -0.27832219       1.04946464       0.63440569
Na       7.19507107      13.94614161       3.88806939      -2.19554739       1.13423770      -0.87037345
Na      11.11797841       4.00722021      14.73987905       2.02329975       1.16512704      -1.53839927
Na       7.47076797       3.34374010       7.05762189       0.73064870       0.42610072      -0.47571546
Na      10.90385276       0.53654950      14.18811241       0.14198849      -0.76353733       1.84422091
Na      10.54911571      14.20384492      10.68069993      -0.73149468      -0.11108839       0.02177571
Na       7.49558707       3.18491360      10.65299902      -0.47500345      -0.75535023       0.04747761
Na       6.51348425      14.23625301      11.04537303       1.04238824       2.03053467       1.27199582
Na      11.12370374       4.50330853       7.15980078      -0.77210482      -1.06517830       1.73803454
Na       7.94621649      10.69198733       0.15853044      -1.99154302      -0.13005791      -1.99766030
Na      10.47452241       7.68748394       6.50310249       1.13066548       0.54255329      -0.21989649
Na      11.28431428       7.24112190       3.21109444      -0.25439258      -0.04633272      -1.54702205
Na       7.11088573      10.80326332       3.42438812      -0.62405924      -0.27168424      -0.15345529
Na       7.24272443       6.92769820       3.47758076      -1.41745328       0.92371722       0.46652249
Na      11.53448917      11.00577326      -0.08747311      -0.19594799       0.04655964       0.04976890
Na       6.56589375      10.57954527       6.97137571      -0.12339379       0.02543054       0.77807062
Na      11.22215822       7.44705431      14.41175695       0.91672201      -0.57836846       1.61804021
Na      10.73120024       7.42781927      11.17490446       0.14745963       1.15862956       0.56301981
Na       7.27560823      10.25743900      10.77060628      -0.40196798       2.43952166      -1.50988798
Na       7.39569144       6.19783770      11.13523204      -1.78704661      -1.31780594       0.83698398
Na      10.53345004      11.13325265       7.26722721       1.19972871      -1.15377403      -0.02272895
S        1.20006166       1.47007248       1.47618597       4.26159287      -0.32665355      -1.31027237
S        1.25088147       6.16329331       5.89272138       0.91577199       1.36575904       0.07379888
S        5.70822584       5.62729383       1.51657984      -2.73622977      -1.19256086      -0.99426561
S        5.83162724       1.18439483       5.90125031       1.03624557      -1.44286709       1.22179226
S        4.83104693       2.03329842       2.16886657      -0.31533122      -1.07857584       0.35333247
S        4.85849004       4.84165477       4.95221037      -0.54302856       1.01104576      -1.59958254
S        1.99148258       4.50769099       2.41834779      -0.38457075       1.49713577      -0.67332701
S        2.03696833       2.02429712       5.02687149      -0.73680051       0.38778928       1.82094848
S        1.31467843       1.42448969       8.68410519       0.07407484      -1.38729386      -1.51317202
S        1.19222104       5.60819488      13.02875989       0.99757318       0.78007807      -0.25485841
S        6.05645325       5.39781003       8.71202610       1.10005151       1.26642802      -1.43787882
S        6.05861183       1.44493834      13.04511502       4.11986598       1.12325534      -0.17920483
S        4.90353891       2.08080290       9.61616400       0.17895593       0.21886332       1.12204201
S        5.16867228       4.90052030      12.31081764      -0.66308278       0.80419712      -0.15947782
S        2.33875232       4.85667734       9.18169228       2.33709401       0.56545361      -0.72850074
S        2.24841406       2.70998048      12.30437254      -0.51625455      -1.57626604      -1.73062915
S        1.64957295       7.99740635       1.31184602       1.64475242      -1.66270995      -0.83380035
S        0.93650848      12.82927884       5.95079058       0.10765979       0.38365710      -0.71347393
S        5.77473915      12.94929313       1.47031701       1.77935256       0.29414708       0.01580631
S        6.06509738       8.02495931       5.67663939      -0.30841843       0.04069642      -0.20840907
S        4.90284556       9.24463139       2.42254097       0.36966919      -0.99249031       0.97163725
S        4.79753830      11.72214544       5.16530033       1.72631137       1.22566175       1.13404571
S        2.35249921      12.19010899       2.31033551      -0.57110005       1.31936733       0.47181971
S        2.04166447       9.23230287       4.71822418       2.78930578       1.94768885      -0.99735900
S        1.01494147       8.78774473       8.99685113      -0.06402089       1.37914112       1.22882262
S        1.59130390      13.02436232      13.27139964      -1.02807080       1.82566585       0.08193665
S        5.27949270      12.83810503       8.54156135      -1.85780767      -0.74507730      -0.63708319
S        6.04024106       8.43779939      13.40459636      -1.53186185      -1.24665992       0.47819055
S        4.79597466       9.23609849       9.53676753       1.27044853       0.79768391      -1.44555618
S        4.90553384      11.95859066      12.20892777       0.45642507      -0.49118518      -1.18251327
S        2.04195862      12.15295673       9.83577895      -0.18833434      -0.48556381       2.07065929
S        2.29412295       9.10321311      12.35346447       0.29121112      -0.60110246       0.52448353
S        8.48104427       1.48535016       1.61298630       0.10149844       0.92247740       1.78347919
S        8.73142907       5.87570377       5.83660754      -1.26582347      -0.68597199      -1.55137740
S       13.02063023       5.91868477       1.27477196       0.26408520      -1.48756869      -3.35446048
S       12.87956765       1.46392860       6.07567631       0.94352158      -0.93089314      -1.23926350
S       12.02043660       2.31342769       2.27667910       0.82605966      -1.80756328      -0.25514691
S       12.32194143       5.04232858       4.73430017      -0.34709180       1.80610850       0.15800126
S        9.35288616       5.28052662       2.45941177      -0.32297671       1.44252584       1.96006669
S        9.45966968       2.20075148       5.22270596      -0.47591619       0.31439446      -0.59704374
S        8.30659333       1.11310525       8.83948150      -1.42297572       2.09586040      -0.65364943
S        8.88566405       6.03367564      13.60804203       2.66181173      -0.17732387       0.04303316
S       12.75302358       6.12617274       8.60512042      -0.07808010       0.72085647       0.41041999
S       13.40920598       1.36590114      12.89045986      -1.11980895       0.49657012       0.06349603
S       11.93585995       2.32663780       9.57508352      -0.96888696      -0.08078411       0.24408010
S       12.01988552       5.21464843      12.34319410       0.78312330       0.71087193      -0.56695489
S        9.18191231       4.99016017       9.55974267      -2.48876391      -1.99353181       0.27542779
S        9.42027298       2.64635156      12.51158430      -0.35045548      -1.41490530       1.15403730
S        8.31887244       8.33315851       1.77662030       0.81574529       1.00777965      -0.11631644
S        8.50148956      12.46542422       5.93718699      -0.97007803       0.25313624      -0.37932664
S       12.82177538      13.18999873       1.22470696       0.73444984      -2.65381125      -1.47851242
S       12.74817956       8.81665751       6.13363423      -1.41588785      -0.57237021       1.71582913
S       12.24550879       9.57421503       2.17536604      -1.86872707      -1.88783331      -0.76797794
S       11.97851715      12.31554521       4.81976152       0.77643568      -0.86352109      -0.17783833
S        9.17709786      12.22159691       2.09223290      -1.15024445      -4.73844258      -1.60426505
S        9.35806334       9.61464702       4.94316217       0.77656344      -0.88152316       0.96970903
S        8.63722893       8.61258475       8.66486960      -1.41930310       1.92846027      -2.57348725
S        8.43542816      13.27756641      13.19118437      -0.20550028       0.72307281      -0.88965988
S       12.76878828      12.97267016       8.65150964       0.64429342      -1.14578635       0.09335344
S       13.28638917       8.79728219      13.17696847      -1.32530758      -0.98989031      -0.15933832
S       11.74642467       9.40128224       9.54569793      -0.35982681      -0.02966166       1.26318724
S       11.89632133      12.21530080      12.31759293      -1.31050974      -0.28253329      -0.25951664
S        9.06748822      12.26709737       9.73795046       0.39440197       1.06358174      -0.15649867
S        9.51604777       9.51197116      12.48580836       0.55347021      -0.65740759       0.46314568
Sb       0.10615414       0.14887338      14.55833295       0.24494525       3.88202395       0.23529135
Sb       3.70829309       3.38827889       3.59150151       2.16141256      -3.03346492      -0.21434937
Sb      -0.19807653      14.31378749       7.30587086       0.61742743       1.55266990       0.54236447
Sb       3.82563769       3.65578081      10.84309259       2.78998038       1.01394535      -0.18861284
Sb       0.19040358       7.13201668      -0.16018800      -1.12741995      -4.67662249       2.94118100
Sb       3.47065871      10.63496393       3.56313648      -1.24145376       0.32202551       0.39162447
Sb      -0.15029906       7.38644022       7.36186974      -1.76529506       0.14565851      -3.24200883
Sb       3.43629587      10.69053368      11.00422516      -1.12544847       4.54671362       0.23320652
Sb       7.11123596      14.38918346       0.16724515      -0.07326445      -0.40995436      -2.92896699
Sb      10.61224070       3.68893520       3.59264023      -3.47480175      -1.44372672      -1.56005683
Sb       7.06942265      -0.32096244       7.33002635      -3.05306806      -0.16656009       2.85069447
Sb      10.80283530       3.87598791      10.84035119      -1.87886232      -0.60214191      -0.76812075
Sb       7.24756881       6.98174056       0.33480541      -0.66209419      -3.32544397       0.60843620
Sb      10.63056787      10.92601933       3.50582551       1.62904632       0.24064812      -0.97651839
Sb       7.43439055       6.98274387       7.33974459       4.25936831       3.82834874       1.99636817
Sb      10.55910701      10.84133436      10.84366894      -4.65020479       0.59373297       0.49150913
128
Lattice="14.3306 0.0 0.0 0.0 14.3306 0.0 0.0 0.0 14.5792" Properties=species:S:1:pos:R:3:momenta:R:3 config_type=highT_NSS128_600K pbc="T T T"
Na      14.61243351       3.65782480       0.20768427      -0.46201061      -0.76219932       0.05026284
Na       3.71781018      13.30212576       7.13389102       0.98735788       0.94336205      -0.68060173
Na       3.96760708      -0.28196526       3.54938199      -0.75882307      -1.13111875      -0.85073102
Na       0.10860673       3.79445327       3.34676988      -1.79391925      -0.49865129      -0.97035832
Na      14.85048061      14.15848972       3.89816527       0.34276194      -1.42238956       1.73654177
Na       3.65285975       3.11494147      -0.05322404       0.61956030       1.22298261      -1.24465270
Na       0.58854021       3.55383422       7.17746443      -0.96121007      -1.97333564       0.13922005
Na       3.66272684      -0.61689138      14.74511031      -1.28995596      -0.30129604      -2.32853172
Na       3.88921460      -0.24181467      11.35047453      -1.66495709       1.11201511       0.28826199
Na       0.05240952       3.82936748      11.29005467       0.28500333       0.83424008      -0.23309450
Na       0.56233115      -0.26557971      11.06366052       0.28307931       0.00024863       1.87039561
Na       3.50622114       2.80578537       7.36562620      -0.41129526      -0.17709397       2.27438553
Na      13.77853696      10.63725835       0.29268637       1.22026795      -0.47649736       0.99572115
Na       3.75924119       6.58785393       6.97928874       0.15163799       1.65280163       0.12371062
Na       3.51107468       6.91075288       3.43233051       0.30369472       1.44147545       0.24037754
Na      13.93805392      10.82073966       4.20196555       2.09242065       0.29565537       0.38322686
Na      14.59785955       7.58855278       3.66218943      -0.75200047      -0.02333566      -0.54511976
Na       3.28465052      10.01105582      -0.01322277       0.50130911       0.86189287      -0.17352484
Na      14.14795986      10.75955144       7.88944447      -1.09559676      -0.77475128       0.05534276
Na       3.66119498       6.70312409      14.52488041       1.22163495       0.65195232      -0.75117085
Na       3.47447934       6.99117592      10.51655102      -1.01384321       0.80581389       1.33352642
Na      14.10043119      10.85821824      11.35732290      -1.01622474       0.77586208       0.76271213
Na      14.53133035       6.97906246      11.15111592      -1.20980689      -0.04242831       0.16866152
Na       3.35662079      10.02068897       7.22878032       2.09099845      -0.70477420      -1.00475710
Na       7.23312241       3.93361580      -0.24864568       0.06581862       0.11536593       0.42052033
Na      10.99429735      14.66305978       7.27133197      -0.13165948       0.65722543      -0.39173727
Na      11.06319765       0.13510075       3.72768928       0.08081167      -0.87814885       2.45868566
Na       7.33002372       3.38005689       2.96729156      -0.28034991       1.20606149      -0.38369783
Na       7.39651339      14.42003958       3.73505604      -0.63065224      -1.41691871      -1.16385783
Na      11.19723041       3.01954959      14.14383982       0.22604881       0.52439506      -0.26639570
Na       7.00769100       3.45904420       6.46480773      -1.21111112       0.64759993      -1.21757738
Na      10.72657926      -0.70316417      14.78338019      -0.14803692       0.28563468      -1.71168276
Na      11.14159414      14.49541145      11.16738070      -1.06714620       1.27698884       0.02204924
Na       7.04491685       3.90244905      10.41224175      -0.05337612      -0.19591098      -1.21132835
Na       7.56674041      14.89659030      10.82970428      -0.79850431       0.15384064       1.27947405
Na      11.38122466       3.88530627       7.17602692       0.31635888      -0.45189890       0.16589307
Na       6.89021157      10.69678773      -0.15618786       1.10546982       1.07460334      -0.89680359
Na      10.90496319       7.23136798       7.59589034       0.55790857       0.76206325       0.36748682
Na      10.93404287       7.31141401       4.58533684       2.01072631       1.93112651       0.01124555
Na       6.92242686      10.66760367       3.53589258      -0.29815285       0.19771035       0.23439526
Na       7.55371378       6.85662538       3.73455170      -2.37033149      -0.45992908       1.45501077
Na      10.26246101      10.25131311       0.08403982      -0.15873379       0.99088528       1.22906338
Na       6.45647324      10.62941988       7.22189198      -0.47971050       0.88137233      -0.44144867
Na      10.56516914       6.52762449      14.57230459       0.10947009      -0.96002336      -0.55249615
Na      10.44175140       7.48107165      11.38802513      -1.61842203       0.99211052      -2.38429293
Na       6.99131826      11.31876474      10.70509319       0.37164252       0.56051902      -0.04258511
Na       6.82187941       7.48845106      10.90186841      -0.86954715       0.77600221       0.87646660
Na       9.90494681      11.14619643       7.57735319       0.45346101      -0.56267711       0.29274774
S        1.61767445       1.24568535       0.91496959       0.65136784       0.38672088      -1.64002345
S        1.37748781       6.02342046       5.69491203       0.20121644       3.09153581       0.00529039
S        5.90376523       5.61667127       1.32699384       0.65833016       2.27610691      -1.53298370
S        5.51361512       1.13143152       6.04082613      -2.17684006       2.15590176      -3.12270049
S        5.32872990       2.03194630       1.92650361       0.15331524      -0.10162207       0.55681631
S        5.04481327       4.70591719       5.01507352       2.81377018      -1.87647187      -0.97702965
S        2.50039535       4.73017425       2.03561633       0.62530987      -0.38052866      -0.51317340
S        2.19273611       1.95205465       4.53224749       0.30755116       0.04545118       1.24523601
S        1.24767774       1.62723664       8.90555981      -1.88923948       1.05780344       1.81722121
S        1.33929587       5.75574742      13.24936598      -0.99764878      -1.88790590       0.05543103
S        5.67895003       5.75886154       8.71506433       0.13485738      -0.82184407      -2.93714768
S        5.88705629       1.32976125      12.87140057      -1.03275569      -1.13382871      -0.01237646
S        5.03593706       2.06120494       9.61327068      -1.69784064      -2.05586797      -0.98279761
S        4.89658425       4.99471492      12.33672379       0.02800551      -0.73351739      -1.35953218
S        2.52009237       4.72987277       9.33667454       0.84251423      -2.12088727       3.52808302
S        2.30916464       2.21253104      12.30852927      -4.13562932      -0.34181167      -0.89798808
S        1.51414259       8.41153266       1.33097434       1.47412649       1.50382531       0.27119529
S        1.02555657      12.73235225       6.14569974       0.83424953       1.50473384       1.82345054
S        6.21867703      13.18313594       1.16237804       0.15377959       0.64677926       3.02370248
S        5.83573111       8.26169932       5.86266155      -0.61516478       0.18496996      -1.80336905
S        4.96966908       9.26682330       2.23162505      -0.27764933       1.78256860      -0.91788699
S        4.79725690      11.77902826       5.09146356      -1.61598171       0.39620846      -2.70185726
S        2.23448203      11.92482132       2.38139372       0.26799684      -0.02835493      -0.11308911
S        2.18494519       9.09669972       5.01561457      -0.75510020      -0.82430201       0.81730887
S        1.26937334       8.47263281       8.89332646      -0.35913274       0.65331545       0.06008920
S        1.14754865      12.49651916      13.32687106      -0.34311334       0.09114118       0.85304294
S        5.65015502      13.15558364       9.02850695       0.12754992      -0.40050075       0.13889275
S        5.60666445       8.46659716      13.54522997       1.49331191      -1.27644577      -0.06041237
S        4.96528494       9.30344455       9.56293882      -0.43726185       0.03224504       1.54633458
S        4.68417825      11.81746862      12.54719797      -0.14885720       2.01724608      -1.40794459
S        2.57476804      12.29348419       9.39373577      -1.14913974      -1.63815090       1.76016305
S        2.07510710       9.36701135      12.16124837      -2.37518159      -0.56462862       1.34203486
S        8.89950433       1.57729459       1.17127974       1.26372349       1.09753074      -0.60811465
S        8.69101472       5.77764472       6.16993678       1.03942414      -0.01418413       0.67643373
S       13.14779187       6.01328723       1.55390167       0.08355808      -0.50576249      -1.92168003
S       13.12546093       1.52433188       6.10653621       1.59625711       0.22096992       0.40070633
S       12.10203853       2.53777457       1.83523740       0.92810345       0.35716457      -4.47121643
S       12.34953420       5.04778133       4.80328857       1.73474008      -2.24777502       1.08913282
S        9.54271380       5.19990177       2.18596597      -0.44831039       0.58034935       1.05554338
S        9.50747736       2.42439849       4.88949385      -0.13428971      -0.71380410       0.85788872
S        8.57147470       1.39465704       8.28851300       0.84116834      -1.13178453       1.48988025
S        8.46747744       6.34798243      13.06081720       2.23076338       0.04761619      -1.23789949
S       13.10551234       5.86662888       8.60141838      -1.67405265      -0.01800176       0.07684259
S       13.34902111       1.29681737      12.98984999      -0.82355416      -2.12231764       2.63624262
S       12.29364846       2.52015940       9.49134535       2.06323668      -1.87180811       0.76030158
S       12.02471242       4.99216477      12.15449098      -0.11655455       1.44476700      -1.73276021
S        9.55831696       5.07230070       9.42876569       2.29017833       1.54535576      -0.61495480
S        9.31186531       2.47799333      12.13531461      -0.64562268       1.75571354      -0.85046257
S        8.37528763       8.88949093       1.36262677      -0.46370714      -1.53999172      -2.02260080
S        7.94516173      12.42440794       6.04512367       0.88806943       0.76152514       0.52637148
S       12.94715046      13.14927524       1.63319790      -0.92037658      -0.09722438      -1.17091584
S       13.02760770       8.53852057       6.01838045      -0.36590450       1.67658541      -0.33878467
S       11.96720240       9.46473880       2.53670657      -1.22252557       0.88474186       1.20721152
S       11.67053118      12.35524277       5.19097253       1.21837458      -1.06019919       1.48506667
S        9.25123829      12.19255958       2.33757197      -1.23414944      -0.08847142      -3.00136096
S        9.41429028       9.21553531       4.98396408       2.88603077      -0.04545630      -1.82364391
S        8.34712147       8.64141459       8.76359916       0.60745060       0.87055207      -1.17768900
S        8.65777505      13.16342716      13.11405470      -0.68088050      -1.62196103       0.97908225
S       13.18583750      13.13941933       9.16959763       0.32129893       0.42940590       0.16023259
S       12.75731114       8.39863761      12.97482452       1.10729594      -1.92279043       2.54745125
S       11.89982320       9.78929950       9.77261853      -0.50942546      -2.15286691       0.83600688
S       11.94173409      12.20610151      12.55649010       0.05116118      -3.20851126      -0.08981924
S        9.37445252      12.58883596       9.61969856       0.79159200       1.39992210       2.59352395
S        9.16510011       9.71212186      12.29973937       0.13091568      -0.25168736      -0.73722220
Sb      -0.05459535      -0.12240811      14.61897122       1.71928492       2.55288117       1.64768042
Sb       3.83954340       3.31555353       3.46707054       0.72348515      -0.57059172       2.25054771
Sb       0.08096412      14.47551216       7.62127448      -1.69733007       1.63303667      -1.45450042
Sb       3.64003198       3.49073023      10.78976172       2.89081529      -2.44472108      -0.66174518
Sb      -0.09206642       7.24639401      -0.10167593      -1.99012871      -0.24165906      -0.40367187
Sb       3.44559417      10.49238178       3.69407096       0.92235581       2.49994435       1.19612869
Sb       0.09108221       7.25459057       7.33428457      -2.51372725       0.86843391       2.67336356
Sb       3.53060613      10.61204853      10.87551984      -1.83767460      -0.23101876       4.34774350
Sb       7.31202372      14.70919905      -0.17590313      -0.47528801       0.70260880       3.71859746
Sb      10.81991211       3.73554750       3.44635925      -0.04115990      -3.68793611      -0.62014053
Sb       6.96536044      -0.10826931       7.45197750       4.71455169      -0.60102361      -1.23907191
Sb      10.73202624       3.69633069      10.72632285       0.71084613      -2.92096363      -0.39953574
Sb       7.06564146       7.32366492       0.16235267      -2.45455627      -1.49908372      -0.63079218
Sb      10.59765521      10.84108300       3.70178899       1.81322972      -2.27043631       1.35856826
Sb       7.11716852       7.16474985       7.40970925      -0.63646201      -1.38606212      -5.19335417
Sb      10.49135838      11.14799263      11.01414496       1.70498801       3.08067631      -1.82153099
128
Lattice="14.3306 0.0 0.0 0.0 14.3306 0.0 0.0 0.0 14.5792" Properties=species:S:1:pos:R:3:momenta:R:3 config_type=highT_NSS128_600K pbc="T T T"
Na      14.21316565       3.67023358       0.32388054      -0.10375231      -0.08108712       0.46631533
Na       3.54684875      14.82814534       7.06626120       0.51646551      -1.16364039      -1.40186942
Na       3.84611994      -0.17062835       3.73738430      -1.07615079       0.82297873      -1.85668359
Na       0.05613320       3.86315347       4.21467911       0.36220766      -1.51762349      -1.85820443
Na      14.82456099      14.31841479       3.62529597      -1.09339330       0.15897341      -1.80163672
Na       3.59882674       3.48154365      -0.27092721       0.03997255      -0.06535062      -0.89688590
Na       0.07932018       3.87306337       7.61029228      -0.67646993       1.74154650       0.82390665
Na       3.60862916       0.10141174      14.71785650       0.55414418       1.52002273       0.05787052
Na       3.26707904      -0.25273366      10.80455228       0.99992686      -0.39900051       2.92295687
Na      -0.42749858       3.18204981      11.05151027      -1.34436879       0.77426657      -1.04113165
Na      -0.22843297      -0.40463736      10.89086254       1.85841797      -0.51318700      -0.37446542
Na       3.80939087       3.82683315       7.26907733      -2.01173465       0.17177354      -0.39683009
Na      15.03614826      10.89336323      -0.63784454      -1.00366867      -1.48919733      -0.02363852
Na       3.61093789       7.62985626       6.81590719      -0.96094338      -0.93196249       0.80153408
Na       3.02519040       7.05888687       3.27118667      -0.15682355       1.67524870      -0.32453896
Na      14.11324682      10.18352781       3.07256999       1.45244688      -0.16895742      -0.55643565
Na      14.33075954       7.34146707       3.45665021       2.14079656       0.41223596       1.19626665
Na       4.36225601      10.68207608       0.36926791      -0.39280276       0.03286399      -0.08108371
Na      14.47676286      10.71681348       6.97611459       0.82537807       0.25030388      -0.06265675
Na       3.31904528       7.41711988      14.59658442      -0.77100571      -0.49553636      -0.97027638
Na       3.54063739       7.18293971       9.97895643       0.89509576       0.99795116      -0.01392603
Na      14.43249422      10.41776580      10.30672313      -0.18717500       0.83450816      -0.57286897
Na      13.81980257       7.29475211      10.99234582       0.04489667      -0.83569468      -0.28919578
Na       3.75687009      11.24415165       7.06451156      -0.04793557       1.04892896       1.69018206
Na       6.94502671       3.78967156      -0.07707273       1.47970895      -1.16295340       1.61764709
Na      10.67529879      14.96994518       7.42630883      -0.50095827       0.54288334      -0.66197040
Na      11.01279398      -0.05161983       3.40478198       0.81602443      -1.56848335       0.32997186
Na       7.19519165       3.13901513       3.83427830      -0.50332751      -1.48066763      -2.49735804
Na       7.67360229      13.69038426       3.56300357       0.00187480       3.34150341       0.90048707
Na      10.42856844       4.14127217      14.46248409      -0.26005415      -1.34559863      -0.44621623
Na       7.35506424       3.29497122       7.81622528      -0.15576490       0.93185892      -0.29208645
Na      11.00822007       0.68971304      14.67828424      -0.22518784       1.23341093       1.27358254
Na      10.72060505      14.26741313      11.11196850      -1.67018635       1.08499570      -0.15030508
Na       7.03529350       3.65022387      10.65883548       0.28196711       0.65733394      -0.71651615
Na       6.33340328      14.33768120      11.18670336      -1.37821879       0.74771977      -0.11032001
Na      11.07488705       4.17878518       7.34995251      -0.90594932      -0.90202194       0.42227481
Na       7.71963850      10.73554817       0.30440057       0.84180073       0.36679534      -1.08817253
Na      10.68076322       7.79493135       7.02553544       0.03642858       1.12509856       0.26851556
Na      10.34369795       6.86205363       3.48637951       1.45298447      -0.95600518       0.58953650
Na       7.24298710      10.54390617       3.81032812      -1.89436505      -0.56216632       0.27713234
Na       6.75807907       7.03526002       3.55552887      -0.86030785      -0.36474458      -0.17481370
Na      11.47127029      11.28941243       0.20746081      -0.59204488       0.91606845       0.34127292
Na       7.38713071      10.35697856       7.77632048       1.80079904      -1.77619640       0.42134590
Na      10.46402607       7.99200845      14.48990077       0.51744521       0.57293517      -0.48716877
Na      10.99112853       6.91931593      10.24703845      -0.42974969      -1.24129228      -0.22994950
Na       7.26402121      11.03732006      11.13384528       1.10078641       0.26835555      -0.86878310
Na       7.14527239       7.10255317      11.17931140      -0.72003551       2.30461200       0.44052768
Na      11.18200958      11.10104021       7.42915823      -0.69043022      -1.04172380      -0.18484570
S        1.58092862       1.21345670       1.25124176       0.21907434      -1.60521704      -0.35204377
S        1.54279515       6.00036520       5.82461967      -0.01642385      -1.50359298      -0.37447698
S        5.61527642       5.74973276       1.50901963       0.11420842      -1.07478495       0.50517319
S        6.01016836       1.31721117       5.62516200      -0.58066683      -0.58605009       2.10769666
S        4.97052181       2.17209211       2.34295309       0.10313514       0.24649007       0.54904072
S        4.85415540       5.06873470       4.85725383      -1.20163893       0.36586757      -0.57158074
S        2.08494683       4.81373151       2.24940915      -0.52404266       1.34224825       2.54366469
S        2.11780941       2.24210358       5.00335774       0.77676938      -1.37714294       1.15783754
S        1.18130751       1.51294842       8.84450259      -0.78105874      -0.03528223      -0.71374600
S        0.97626305       5.70992545      13.07995357       0.50238241      -1.19333002      -1.52687001
S        5.79516039       5.51505993       8.66609090      -0.55841883      -0.51058379      -1.84579956
S        6.10462739       1.54444413      13.33264128      -0.26379926       0.02296213       2.64371213
S        5.01210626       2.00150292       9.63927425       2.08030786       1.44694434       0.93158273
S        4.61822821       5.07462456      12.05571147      -0.23783245       0.69843828       1.97359819
S        2.22105050       4.78774326       9.29806999       1.14581979       1.11727201       0.17604165
S        2.25798523       2.29624397      12.29040461       0.98920367       1.70373993      -1.13048413
S        1.24547968       8.45558008       1.26178666       1.49105250      -0.71395285      -1.63239367
S        1.59291253      13.24212651       5.82905581      -1.09072361      -2.58494286       0.05782699
S        5.84650746      12.85059297       1.31488654      -2.09437414      -0.59471376      -0.18523038
S        5.73704366       8.63940980       6.01831122      -1.28226373      -0.26664340       0.35302018
S        4.78104988       9.23412957       2.49354632       0.49990476      -0.65938223      -1.03107172
S        5.14329969      12.09219762       4.78254263      -0.53385132      -0.86974549       0.80193243
S        2.58281218      12.20572040       2.13917907       0.73769646      -0.16309080       1.10701821
S        1.88729339       9.34290295       4.97074792       0.32562309       1.22799760      -0.10158562
S        1.35814834       8.47849239       8.67541979       1.47876631      -0.47291623       0.67077990
S        1.49167198      13.01938622      13.05045545      -1.26042345       0.09774781      -1.03955049
S        5.57733758      13.09239170       8.51024824       0.78419460       1.06840844      -1.52549008
S        5.90861269       8.78771580      13.44358819      -2.02666771      -0.52885085      -0.28254447
S        5.44004485       9.31800220      10.27602168       0.06413718       0.45669375       1.40352353
S        4.71386402      12.17376591      12.32715749       1.34061026       0.61624563      -1.85606818
S        2.27545070      11.58220015       9.56356664      -1.69770487       2.56800096       0.54549016
S        2.00836584       9.24854885      12.28931317       2.18938062       1.47797756      -1.41270729
S        8.50945590       1.33648062       1.82470645      -0.09902721      -0.46285627       1.11258889
S        8.33289759       6.13560996       5.62435320      -0.57545459      -0.60515167      -1.20885263
S       12.85737752       6.14515848       1.61882268       2.59578984      -0.05079098       0.34134512
S       13.06228578       1.58942267       5.80979874      -3.44527477      -0.49325748       0.07712428
S       12.08640515       2.30893141       2.15693570      -2.77022911       1.61363646       1.26453226
S       11.93443878       4.81654201       4.86990800      -0.57745857      -0.79835256       0.97662485
S        9.15374374       5.00007090       2.50313521       0.43339257      -1.22387142       1.33930517
S        9.28751372       2.19911679       5.09188002      -0.91340517       0.47907949       1.85520249
S        8.13101915       1.10508054       9.24850997       0.20100477       0.60718335      -0.41151364
S        8.57419671       6.06212589      13.28421689       3.19042632      -0.29662203      -0.40016679
S       12.81596070       5.75460934       8.41780868       2.71186716      -0.93183424      -1.11581709
S       13.22384983       1.32215001      13.12984628      -0.18161119       0.58671318      -0.61038233
S       12.00871401       2.56542553       9.54132671      -1.61287857       1.07820639      -0.00613883
S       12.05866393       5.16467797      12.32919706       1.16341973      -1.14511155      -1.56952160
S        9.18292832       5.06331979       9.58195797      -0.24021218       1.63777805       0.90060302
S        9.38862561       2.44532424      12.27134560       0.37965521       1.74126603      -0.42448651
S        8.44743504       8.60333138       1.73265019      -0.78394153      -0.93846941      -1.38362533
S        8.51481703      12.86110617       6.17225260      -0.11803947       1.10487316       0.67783444
S       12.99089019      12.89828028       1.32872581      -0.33645790       0.25466086      -0.08261314
S       13.09381302       8.37046544       5.61018225      -1.81220481       0.82521179       1.54210234
S       11.90107457       9.17693664       2.22135485      -0.01494201       1.65483486      -0.92265638
S       12.38214436      11.98083442       4.86143250      -3.17809945       1.36834065      -0.30266861
S        9.59288650      12.07234445       2.32958247       1.12601251      -0.61365293      -0.45361420
S        9.27260808       9.46489717       5.05073163      -1.56338263       1.90426376      -2.68544877
S        8.45052245       8.35123017       8.71674880       0.02575465       1.29174364      -0.48660972
S        8.73225501      13.11116906      13.39736946      -0.80862109       1.35937993      -2.24945446
S       13.09119194      13.01052760       8.59646283      -0.31696279      -1.74153027       1.83948234
S       13.01415902       8.82930889      13.46403401      -1.81922348       1.08666367      -1.06556749
S       12.27790293       9.37465606       9.27762881      -0.32498185       1.50701298      -0.07856896
S       12.39735409      11.95634934      12.19273150      -0.33286783       1.08580725       0.42821604
S        9.63024075      12.05383143       9.45166411      -0.64422825       0.31947933      -1.18668889
S        9.37470823       9.71378671      12.24653724      -0.46498248      -0.16589774       0.95873100
Sb       0.17743264      -0.12144466      14.50236739      -1.58824686       3.05826021       0.20978552
Sb       3.57456851       3.44074172       3.62399632      -1.04206098       1.26650734       2.32147512
Sb       0.07136807      14.51476568       7.07447760       5.53858423      -0.03353808      -2.89719255
Sb       3.50234091       3.51558509      10.71063453       0.29292871      -4.47403057       0.13977635
Sb      -0.19507662       7.07683217      -0.04657062       3.49446637      -3.12319580      -0.76218935
Sb       3.47462676      10.74007959       3.67725918      -1.89975435      -3.01134419       2.14326814
Sb      -0.00206300       7.11996151       7.28877713      -0.20434586       0.18736916       2.05287046
Sb       3.62504134      10.45347905      11.09257468       0.65543807      -1.29880644      -2.06443118
Sb       7.33981315      14.31328735       0.25063130       5.39745358      -1.10378305      -2.62407885
Sb      10.59945906       3.51699449       3.61796219      -1.82881283      -2.89536733       1.88452016
Sb       7.21630928      -0.13343839       7.41386206       1.76506604      -2.56053023       0.74910055
Sb      10.56178196       3.80406522      10.98757950       1.14458958       1.43748979       3.18888554
Sb       6.97691803       7.20794721       0.27189660       0.04847966      -3.02763443       3.46145357
Sb      10.85265135      10.51346974       3.73967870      -2.23365592       0.64656928       0.02030955
Sb       7.03595477       7.04179637       7.33955791      -0.68570439      -0.22140271      -2.21274981
Sb      10.96265921      10.73583742      10.82502445       4.15359903      -1.07419347       1.36311130
128
Lattice="14.3306 0.0 0.0 0.0 14.3306 0.0 0.0 0.0 14.5792" Properties=species:S:1:pos:R:3:momenta:R:3 config_type=highT_NSS128_600K pbc="T T T"
Na      14.58779149       3.73292269      -0.09248938       2.15404094       0.94492659      -3.19592989
Na       3.50753735      14.28649357       7.27017818       1.26823397      -2.31760572      -1.93377805
Na       3.91933118       0.00379246       3.32600200       1.78068866      -0.38479458       1.64100110
Na      -0.11944218       3.46070214       3.80289009      -0.58747620       2.06166759      -0.40107348
Na      14.02225239      14.31039990       3.53545705       1.70657601       0.56768484      -1.74683736
Na       3.41958862       3.70821938       0.28257001      -0.11236876       0.19466795      -0.05378722
Na       0.30415982       3.65162603       7.09897534      -0.61640921      -0.88136540      -1.98190664
Na       3.44165705       0.63701144      14.82363290      -1.01070214      -1.40552539      -1.24481582
Na       2.79317246      -0.22836546      10.98780543       0.16849562       0.96236000       0.70438780
Na      -0.35373876       3.73262176      10.39485692      -1.79967856       0.43930327      -1.52145508
Na      -0.17167470      -0.26482445      11.16179043      -1.13250074      -1.14745636      -0.36319879
Na       3.73564413       3.34171191       7.36453888       3.41519368       1.97727509       0.32784738
Na      14.05687434      11.17052730       0.45662043       0.80870091       1.09878313       0.57678942
Na       3.70534335       7.66338165       7.23805222       0.15998122       0.01984830       0.97135729
Na       3.55659894       7.27548533       4.10091246       0.68327051       0.89101965       1.39962416
Na      14.12237777      10.94809089       4.08909631       0.66468000      -1.02056810      -1.67695184
Na      14.16523740       7.14642418       3.58192632       0.24717416       1.86542716       0.71310699
Na       3.59029215      11.62435225       0.16019138       1.31793179       0.58886724       0.40430597
Na      14.24786687      10.76559788       7.54125632      -1.50726693       0.89316554      -0.86156810
Na       3.50389003       7.93929209      14.38165939      -1.34940053       0.32029339      -0.39695316
Na       3.48145488       7.13846962      10.56371635      -0.52246371      -0.31356743       0.65075683
Na      14.21673296      10.54532140      11.66489216       1.11412935       0.12865330      -1.17775873
Na      14.82408616       7.10548763      11.22461046      -0.43017537      -0.75169357       2.52553728
Na       3.53157506      10.97705252       7.24892057       0.33762160       0.87302245       0.33696985
Na       7.05685821       3.55035912      -0.59209393      -0.10577553      -0.59448475      -0.99659978
Na      11.02110483      14.14024870       6.87963507       0.29182495      -1.08609861       0.10394688
Na      10.71226448      -0.20534901       3.46088933       0.47523255       1.17787709       1.70578657
Na       7.35467601       3.87096434       3.35869757      -0.82052679       1.21536327      -1.25809591
Na       7.39987613      13.94170474       3.73767994      -0.10500747       0.68176512      -0.60582207
Na      11.58706772       3.70771849      14.54753650       0.80327510      -1.49028964       0.42920856
Na       7.81737067       3.35822657       6.92094713      -0.83865131      -0.47782434      -0.72408250
Na      10.35200969      -0.09320816      14.49556136      -0.49114199      -0.45142274       0.93476820
Na      10.58646707      14.39504745      11.24922847       0.36396710      -1.20433519      -0.33725417
Na       7.28169455       2.76807678      10.81879373      -0.66899065      -2.13299394      -1.15188012
Na       7.01220742      13.69867671      10.29351497      -0.07353224       0.82789506       0.45489529
Na      10.42536672       3.69739877       7.10279547       0.31962654       0.18486784       0.09669415
Na       7.09582522      10.79373581       0.43545522      -2.63086095      -1.51044939       0.42960874
Na      11.07375108       6.69389360       6.97222194      -1.36622238       0.82335353       0.78379714
Na      10.89594781       7.38078859       3.76170549      -0.32772763      -0.45420196      -1.18902896
Na       6.88566137      10.37351419       3.92536742       1.28665089       0.15032419       0.05123865
Na       7.22832149       7.18722992       3.57269570      -0.60523884      -1.47546953      -0.26506136
Na      10.62678534      10.65285598      -0.27355948      -1.05377173       0.68714617       0.27989627
Na       7.55776232      10.49774731       7.20787223      -0.54943538       0.89741073       2.21746836
Na      10.76901541       7.39380685      14.55959614      -0.40476442      -2.10245397      -0.75678917
Na      11.15531648       7.28498885      11.02897090       0.92152099       0.68193548       4.02664894
Na       6.80833976      10.25187504      10.48254750      -1.10056714       2.30997403       0.77764074
Na       7.48036987       6.80015914      11.20424967       2.71385239       0.07316760      -2.56577660
Na      10.74988644      10.44564558       7.27594917      -1.45987613       1.56141388       0.98671289
S        1.09163624       1.49673016       1.23647764       2.39973481      -0.97363123      -3.25594756
S        1.51027257       5.94902272       6.13597243      -0.19296883       1.68187376      -1.40715796
S        5.71752180       6.05566361       1.66070847      -2.71095337      -0.32861618      -0.11985225
S        6.14486789       1.34180373       5.83063593       0.04735472      -0.47619148       2.07814133
S        4.80720835       2.36056353       2.30246178      -1.45319461       0.44503091      -0.30277376
S        5.04764328       5.03643235       5.04060338       1.65457971       1.50946531       0.71297018
S        2.23513365       5.32338730       2.56603507       1.48562779      -0.46659971       0.10068159
S        2.04856479       2.48461924       4.95615456      -0.79741659       0.80052531       2.06421267
S        1.40276366       1.14188348       8.57459683      -0.93463848       0.44911270       0.69063424
S        1.68626998       6.00833732      13.61387563      -0.02676122      -0.39827749       1.46277400
S        6.02298957       5.75823442       8.77303338       1.42694064       0.10405550       0.33118664
S        5.69084431       1.01253187      12.64684807      -0.12964777      -1.22587071       0.18606273
S        4.68119937       1.82548456       9.71304523       0.69659560      -0.92366539       1.16829693
S        5.31109022       4.66112771      12.07987174      -0.12228611      -1.20691787      -4.34317216
S        2.33291039       4.90996509       9.48018246       0.64588433      -0.65064308       0.33134240
S        2.47675663       2.54441894      12.79139988      -1.96059564       0.35368164      -0.10955478
S        1.30160116       8.78934361       1.48607043       0.15833607       1.02690111       0.57769007
S        1.21673000      12.81682178       5.88685014       0.65451210      -2.31515566       0.72054127
S        5.41495843      13.08207574       1.15831979      -0.58423886       0.86477635      -2.85070228
S        6.13107759       8.48145615       5.94347333      -1.26661224      -0.17375802       0.56021984
S        4.61345835       9.62968621       2.45192947       1.23828661      -1.81716216       0.29172419
S        4.83441538      12.17833796       5.04041258       0.32778454       2.56392127      -3.85609387
S        1.81525811      12.43870967       2.63238084      -0.11920998       1.52308798       2.74340639
S        2.00243660       9.58700452       5.22627739      -0.36185762      -0.26259579      -1.31874247
S        1.35787484       8.56801047       8.78215992      -1.13976716      -1.51978146       0.97770460
S        1.32560743      12.97377360      13.39374795       1.30408943       1.12207083       2.51495664
S        5.65794109      12.73964525       8.37633627      -3.01544537      -1.54948463      -0.72015673
S        5.78121955       8.55141172      13.06417175      -0.45097419      -1.61459768       0.49593611
S        4.49938043       9.41172681       9.14744622       0.64353532       1.11472775       0.80711138
S        4.81992199      11.96457854      12.16489599       0.13537832      -0.55799716      -0.33462060
S        1.87008623      11.91753198       9.57852004       1.04863553      -0.81064953      -1.40148480
S        2.31195447       9.15145974      12.25767529      -0.74820732      -0.45777185       0.03887439
S        8.09934805       1.23371026       1.12424929      -1.65330636      -0.49683748      -1.39060566
S        8.71895081       5.65869643       5.77557529      -0.69532119      -0.57303166      -0.64090656
S       13.06006011       5.98867357       1.15699939      -1.44904898      -0.30108129       1.62404646
S       13.28082089       1.61151127       5.73717615       1.16525278       0.24852986       0.09255318
S       12.08708219       1.93006381       2.45419855      -0.11301024       0.32125976      -0.58309602
S       12.27698683       4.93728380       5.17479173       0.02212608      -1.67575639      -0.84310074
S        9.78138334       5.12093545       2.20937076       0.35714950      -0.54225215       0.94573791
S        9.53737116       2.10775032       4.81403535       0.91550658       0.41631989      -0.89188767
S        8.73944778       1.02341409       8.47553253      -0.52259303      -0.70105847       0.23257886
S        8.65321864       5.92263296      13.57916786       1.33406713       0.51036580      -2.07600504
S       13.10066965       5.68856108       8.70372370      -2.22565690       0.11557938      -1.02963788
S       13.01288448       1.53749233      13.21905915      -1.83800946      -1.62029454      -0.82380401
S       11.98329647       2.16273764       9.57744735       0.42081061       0.10989794       0.12758588
S       12.18751873       4.88695694      12.20266699      -0.45519272       0.51630748       0.63184186
S        9.35447726       4.57494596       9.66623907       0.98111577      -2.64897816       2.14572881
S        9.35470931       2.40370801      12.58139118      -0.92872340      -1.59577652      -0.13494762
S        8.52277662       8.71332498       1.44618987      -0.34319136       0.70702875      -1.84883314
S        8.54782997      12.61764246       5.88452072      -0.68169575      -0.26048395      -0.14458423
S       12.60277417      13.27267095       1.22043825       0.06951240       1.08929212      -1.01279486
S       12.97348829       8.41409245       5.94058916      -0.25963302       2.60241724       2.06214651
S       12.15279331       9.27763291       2.19365519       1.67313236      -1.27200377       0.48482444
S       12.14585151      12.24277353       4.79518132      -1.44930077       1.07670118       0.50447504
S        9.28321007      12.20022854       2.33418322       0.38730588       2.29501048       1.70272519
S        9.57274069       9.32807045       5.01035969       0.52930751      -1.00117385      -1.00751627
S        8.89882925       8.28260856       8.53785531      -0.28428936      -0.20727555       0.16745203
S        8.32173048      12.60955273      13.42103725       2.77411160       1.93317839       2.06831311
S       12.86686736      13.19124068       8.52965712       1.97842838       0.85393181      -1.07203637
S       13.18192891       8.51410402      13.24404068      -0.38106782       0.39457551      -0.69297876
S       12.54163133       9.67173691       9.66682304      -0.30397041       0.91400121      -1.24558823
S       12.11863944      12.10302273      12.24946169       0.81046197      -0.89420031       0.04917475
S        9.45405951      11.90541594       9.39128410      -0.00735610      -2.49860546       1.39298697
S        9.30904480       9.61261772      12.20064578      -0.58872149      -0.92870614       0.19986892
Sb      -0.12823854       0.04242480      14.59168262      -0.54441742      -4.96110564      -1.76148606
Sb       3.58968987       3.81054101       3.78855297       1.26619837      -3.64804078      -1.66875457
Sb       0.02727805      14.29623162       7.21250910      -3.74071156      -0.45709362       0.28368798
Sb       3.58348497       3.54845073      10.99393280       3.50953529      -5.86341609      -1.76519634
Sb       0.15121841       7.38534131       0.11533413       1.24681279       0.43741368      -0.94943327
Sb       3.32123785      10.93727269       3.80385045       1.86175520       5.41822541       0.81472295
Sb      -0.01858639       7.23103151       7.48337665       0.47705944       4.84134133      -0.61200392
Sb       3.35811846      10.69627614      10.89390865      -2.53833053       0.69516811       0.42373119
Sb       6.90739824      14.23594488      -0.28917399      -0.88149133       0.29632306       4.63871638
Sb      10.96733351       3.59699528       3.67772868       0.11192957      -1.31371535       3.58005147
Sb       7.25120025      -0.22287916       7.17563859       2.47925125       3.76686555      -2.86036684
Sb      10.77396663       3.48491930      10.98525793       2.82182152       0.98290051      -0.17536453
Sb       7.09278702       7.30839478       0.05227167      -2.89710764      -0.78500685       3.64074824
Sb      10.80613363      10.72877556       3.56655022       0.59902853       1.28284342       0.86023608
Sb       7.33525022       6.93037223       7.25975018      -2.40625562      -0.51151677      -1.54775916
Sb      10.80850851      10.66955256      10.89213569       0.21208564       3.20521074       2.14695454
128
Lattice="14.3306 0.0 0.0 0.0 14.3306 0.0 0.0 0.0 14.5792" Properties=species:S:1:pos:R:3:momenta:R:3 config_type=highT_NSS128_600K pbc="T T T"
Na      14.75159188       3.75465813      -0.30059056      -0.82753695       1.53157547      -1.97099118
Na       3.64891401      13.78370437       7.67706433       0.73981643      -1.72822718       1.39390571
Na       3.77732067       0.31189589       4.77931079       0.09802951      -0.41061338       0.78010147
Na      -0.26201984       3.37305324       3.36498007       1.55168266       0.71445686       0.21987116
Na      14.78886467      14.14126837       3.70330004       0.72679161       0.52543678      -0.94015127
Na       3.85077488       3.39337127       0.22152314      -0.32111282       0.86061703      -0.08773401
Na      -0.40025542       3.30727033       7.16575403       0.55961509      -1.07722713      -0.11192124
Na       3.58554799      -0.02315660      16.13192695       0.15094220       0.96632212      -0.91033046
Na       3.68429988      -0.02421239      11.79500277       0.11054589       0.75940690       0.40187233
Na      -0.15833513       3.92764191      10.77101022      -1.15163069      -1.90239409       1.01221807
Na      -0.08614012      -0.04999902      10.64030857       1.04992030      -0.38087164      -1.38071601
Na       3.57609928       3.12718179       7.47534303      -1.72640614      -0.42068746       0.50308863
Na      14.42123130      11.06492405       0.35564817       0.19002477       1.63668853      -0.44567382
Na       3.38478868       6.62470715       7.42182449       0.50146867       2.52543506      -0.72877213
Na       3.77408503       7.01844752       3.41465284       0.60253891      -0.48944955       1.92293199
Na      14.46865116      10.99217338       3.95008006       2.08420344      -2.50450135      -0.72119292
Na      14.28089106       7.15465289       3.34442394      -0.90767550       0.48542080      -0.57610660
Na       3.90837194      10.51452261      -0.13001238       0.24030031      -0.01262187      -1.16294118
Na      13.92874204      11.02493374       6.78485389      -0.53703763      -0.71491725      -0.53024603
Na       3.35359883       6.55896748      14.47079492       0.12260657      -0.38092642      -0.97177340
Na       3.56705858       7.20051782      10.41406485       0.92997750       1.92472540       0.43582140
Na      14.90016184      10.38554874      10.63084566       0.26497885       1.12736320       1.94770251
Na      13.94143437       7.39921804      10.67208379      -0.68854999      -0.09054094       2.46425431
Na       3.17431284      10.52383849       7.49195781       1.47624854       2.01156800       0.00124459
Na       7.13326886       3.77793576      -0.05434705       0.74460240       0.90241427       0.29735538
Na      10.41159371      14.27060444       7.16234933       0.82863171      -0.60703619       0.49489865
Na      10.79996028       0.10790416       3.81483680      -1.02336374      -1.80041662       0.45588137
Na       7.22765601       3.75735829       3.07757383      -0.07776626      -0.31577246       0.12745675
Na       7.86175961      14.83884672       3.50327474      -0.58857651       0.26333496       0.34870063
Na      10.95659880       2.75279895      14.64178527      -0.66692387       0.32368153       3.42080634
Na       7.58596173       3.64342459       7.18869213      -0.18948165       2.64627804      -1.35040031
Na      10.77994441      -0.45875157      14.70738348       3.68496524      -2.45510662      -1.48758845
Na      11.00002095      14.35565963      10.82651108       0.07196963       1.60696666       0.91442298
Na       7.34936085       3.80298643      11.02992632      -0.83903987      -0.58360160      -1.28846248
Na       7.52857031      14.39488900      10.84770593      -1.52821149      -2.45782721       1.01962662
Na      10.44756840       3.63330701       7.10903646       0.43928454      -0.72586841       0.78437345
Na       7.46816169      10.94163303      -0.28244880      -0.47703142      -2.04317242      -0.36340683
Na      10.70384808       7.50647449       7.63165012       1.16301988       0.48465742       1.72468735
Na      10.39494635       6.99907780       3.43299416      -0.39874922       0.99817834      -0.12110691
Na       7.14561760      11.60832086       3.59396680      -0.17790218      -1.11831244      -0.04757777
Na       6.87706047       7.63145537       3.93424033       1.45341733      -0.91491334      -0.70043680
Na      10.66499639      10.26739833       0.04449616       0.50609545       0.93400863       1.95079499
Na       7.29088235      10.57434739       7.66758301       0.79564657      -1.73928399      -1.94605713
Na      10.65982790       6.49113561      14.74148212       1.36696923       0.00347557      -1.02132085
Na      10.32631020       6.87319494      11.33015460       1.21043899      -1.30192960      -0.83719227
Na       7.55708007      11.04936898      11.07279650       0.25963325      -1.15410730       1.59679036
Na       6.84986528       7.56421153      10.77175514       0.41777365       0.08616916       0.54618431
Na      10.47833944      10.91501606       7.33257215      -1.22127090      -0.15103396      -0.30752000
S        1.38208418       1.41898461       1.18211796       0.94781574      -1.23347566       0.90043170
S        1.42688722       5.96711033       5.69277079       1.83010144      -2.99645380       2.10382961
S        5.58893583       5.80581135       1.54431163      -0.83511302      -0.36628968      -0.66345324
S        5.79233867       1.45352430       6.30230918       1.30447719       2.06731660       1.02875654
S        4.89465689       1.96541648       2.73361043      -2.53781268      -0.04282006      -1.02850873
S        4.92256988       4.90583499       5.31797697       2.01491509      -0.54715404      -1.09370994
S        2.48984603       4.98652246       2.30181205      -2.96271675      -2.09965503      -0.75066639
S        1.91392035       2.55528031       5.14470037      -1.09306044       1.95897242      -1.77743889
S        1.54999895       1.24395126       8.46822154      -0.64719791      -1.00005626      -1.15736243
S        1.08288458       6.28485543      12.72054759      -0.77513105      -0.15577327       2.14623169
S        5.90368785       5.64708752       8.79027884      -0.17730965      -2.07685067       1.35866966
S        5.80677215       1.63777249      13.35248422       1.08213988       0.61274444      -0.73005764
S        4.91026423       1.79632026       9.87945765      -0.52917982       0.42355460       0.83015340
S        4.63820706       4.83249595      12.29536282      -1.04995657       0.37163562       0.24885714
S        2.33920361       4.70219614       9.27862128       0.89625566       0.29272016      -0.13826261
S        1.84160683       2.33312898      12.21592157       0.79085269       1.33239739      -0.41975219
S        1.30771996       8.53457265       1.29218820      -0.63394901       1.81523678       0.56870052
S        1.47375032      12.82004061       5.85577533      -0.45504061      -0.91672945      -0.78432695
S        6.03903482      13.10329408       1.31111505      -0.73174636       0.07472689      -0.73861663
S        5.33869694       8.53269424       6.37401080      -1.31209333      -2.30716398      -1.77230741
S        5.41909592       9.94265398       2.56921781      -0.71313496      -0.32284967       0.33723896
S        4.85436874      12.20831924       5.51584733       0.72633383       1.00908400       0.27590400
S        2.29446407      12.12808602       2.42752074       0.91065515       0.20857111       1.30000659
S        2.29243441       9.23577667       4.55394300      -0.10566194      -0.04988150       0.15156226
S        1.16143585       8.31896025       8.55714244      -0.93660951      -0.27508730       1.12140140
S        1.52503178      12.81989233      13.47072515       0.35539316      -2.06725217       0.02134928
S        6.12543934      12.82398547       8.88733095      -0.22828267      -1.98303057      -1.89037235
S        5.72721880       8.61205032      13.37195215       1.24917517       0.01893593       0.15079421
S        5.46352299       9.54699389       9.51782070       1.38817234      -3.86131816      -0.19056377
S        5.23704590      11.76894881      12.66316347      -0.90136751      -0.23974229      -2.07156337
S        2.45498556      12.20751472      10.04647084      -0.91190526      -1.35109816       2.70374777
S        2.47314011       9.13857425      11.95794347      -4.43183470      -1.11533815      -1.22406682
S        8.73470999       1.36110434       1.04008131      -0.21177611      -3.17421945       2.13982836
S        8.43024683       6.11082444       5.68070469      -0.55303320       1.09055914      -0.20117525
S       13.18813270       5.69767946       1.23472667      -0.00048878       0.65714368      -1.98260118
S       12.81532628       1.25896791       5.54227007       1.87514318       1.49323526       0.12577710
S       12.15550133       1.75048352       2.28273894       0.18329010       0.20237740       0.70279450
S       12.02216865       4.87839693       4.41718299      -1.77875396      -1.11662431       1.13952405
S        9.30930691       4.83323242       1.86672912      -0.58969511      -0.41545484       1.03593851
S        9.04719365       2.42276549       4.85904871      -3.58629230       0.80879461      -1.63929943
S        8.77033385       1.41085640       8.62287897       0.69474736      -0.14805376      -0.77279804
S        8.15631579       5.93301626      13.03439756      -1.17798037      -0.28625596      -0.94678831
S       12.78249036       5.48714637       8.26329883       0.54071903      -1.46305540       1.77622815
S       12.70964274       1.35396806      13.22669952       1.03419972       1.50716014      -2.22968019
S       12.15342181       2.16843854       9.53397161       0.14600253      -0.67446780       1.75173883
S       12.19109239       5.08091542      12.22069113      -1.05090856      -1.49783849       0.41132102
S        9.38274414       4.74498354       9.31588140       2.06461527       2.63910561       0.06471457
S        9.59497788       2.35626331      12.31611827       0.38307733       2.04708182      -0.80729549
S        8.29354908       8.37264129       1.48967028      -0.22348854      -2.93127812      -0.51202269
S        8.43804853      13.13033289       6.14652262      -0.82464771       0.17120006       1.77262151
S       13.07257338      12.84020771       1.45774405      -1.89462335      -0.44502884       1.35818768
S       12.87522151       8.67837889       5.90483151      -2.15070947       0.14857068       0.28528364
S       12.31536264       9.45204855       2.57764284      -0.54769185      -0.77820971      -1.23204035
S       11.80529723      12.19750264       5.08523467       0.12025837       1.42236094      -1.08565083
S        9.36466830      11.86453016       2.06157450      -0.47729126      -0.24133059       1.36899216
S        9.63693499       9.14947093       4.89200688       1.26115079       1.04639619       0.87000124
S        8.69745291       8.51502263       8.70891949      -0.55838208       2.63123518       0.02804294
S        8.80650210      13.21973458      12.88131481      -0.82619651       0.48104890       1.23992855
S       12.86527900      13.11877700       8.30833635      -1.51804475       1.68066845       1.01290223
S       12.38557433       8.41452324      13.66949634       1.88128701      -2.73834820      -0.09057406
S       12.26708022       9.50822090       9.63976290       2.43818432      -0.09669160       1.06817790
S       12.13334263      12.16419188      12.73048999      -0.46759025       0.67307967       2.06226546
S        9.55082733      12.28275707       9.55419471       1.81564596      -0.67667029       0.72842242
S        9.37913268       9.35436836      12.18191206      -0.49038142      -1.37144689       0.97696179
Sb      -0.08679751      -0.01191632      14.48662457      -2.21170832       3.17793033       1.14408908
Sb       3.51181450       3.61578050       3.89097310      -1.36433823       2.90207502       1.27523962
Sb       0.05839517      14.37786416       6.92123365      -2.54666547       4.18482492      -4.60762346
Sb       3.47820154       3.33702048      10.85487275       2.57587376      -0.28066826       0.29143403
Sb      -0.07622002       7.33325686      -0.15465874       2.20216297       0.30210444      -2.98909841
Sb       3.66593749      11.00594082       3.87850328       5.26538815       0.40652445       0.22299788
Sb      -0.12612346       7.01767053       7.04788402      -0.57201786       1.34661235      -0.78847096
Sb       4.01571318      10.67839811      11.04902335       0.30525291      -1.01744029      -3.42619000
Sb       7.22061986      14.41533353      -0.26614401       2.94495434      -2.00810714      -3.16555935
Sb      10.65826127       3.42453970       3.35268783      -8.54069082      -0.38748557      -1.94741793
Sb       7.14526842       0.06184883       7.60920609       0.12009231      -0.54514239       1.61695700
Sb      10.82229743       3.69530288      10.82272489       3.42082936       1.08154989      -1.47994624
Sb       6.85602573       7.17880639       0.13812147       3.12770039       6.61326881      -0.85742165
Sb      10.74169331      10.69688938       3.64382164      -0.27241108      -0.08683158      -0.56758509
Sb       6.97182220       7.24640526       7.42872187      -0.59854763       1.22269916      -0.32739658
Sb      10.87239486      10.85563094      11.04023811      -1.88727606       1.42834601       1.61428863
128
Lattice="14.3306 0.0 0.0 0.0 14.3306 0.0 0.0 0.0 14.5792" Properties=species:S:1:pos:R:3:momenta:R:3 config_type=highT_NSS128_600K pbc="T T T"
Na      14.13168282       3.57682430       0.09954788      -0.83125651      -0.71472507      -1.18470785
Na       3.73613275      15.13280410       6.93764900       0.84131267      -1.33615452       0.98666140
Na       3.73969120      -0.18379575       3.60227233       1.48247290      -0.20535049      -0.55255438
Na       0.04178857       4.27609452       4.06474987       1.48784838      -0.76547008       0.99583501
Na      14.35949685      15.01671165       3.65644079      -0.82404350      -2.23978505       1.21062778
Na       3.61451251       3.19068894      -0.14921591      -0.84586743      -0.48393050       0.20163035
Na       0.19686662       3.59425694       7.21036850       0.43511807      -0.64420554       1.46239448
Na       3.58156066      -0.22700134      14.31675675      -2.10621266      -0.02747273      -0.45218136
Na       3.03538726      -0.03445336      11.05325950       1.19818667      -1.35195090      -0.68026476
Na      -0.21406330       3.38964530      10.97983353       0.77301914      -1.08741755      -0.09797398
Na      -0.56890794      -0.12634082      11.20433534       1.92141945      -0.62853006      -0.67936113
Na       3.53148062       4.02813617       7.11954320       1.76722808       1.92062518       0.17284684
Na      14.31781452      10.84105609      -0.02993798      -0.10158086       0.44876648      -0.84299365
Na       3.48370466       7.47504665       6.83531170      -1.04557403      -0.44171880      -0.52605188
Na       3.96386704       7.08643384       3.68751093      -2.93603599       0.31402691      -0.21871557
Na      14.39355678      11.17853885       3.62972358       0.30651449      -0.23899530      -1.22681963
Na      14.76737884       7.63669741       3.66817093      -0.16659041       0.21699375       0.26565649
Na       3.68591165      10.52968297      -0.20317326      -1.18331943       1.27454248       0.09714063
Na      13.72108936      10.67694754       7.58038261      -1.90441872      -0.11598584       1.17981239
Na       3.61945615       7.03994237      14.32105854      -1.19672326       1.35559200       0.00833416
Na       3.88085637       7.01613997      10.76040877      -0.02013919      -1.14686768      -0.71682063
Na      14.59948754      10.16319416      11.25836401       1.26036412      -1.44925173      -1.64130559
Na      14.09650017       7.23884138      10.95588872       0.22168233       0.62458243      -1.89753984
Na       3.45211328      10.75622057       7.19913747       0.48078542       0.79892085      -0.34433542
Na       6.93030909       3.34613965       0.05934383      -2.54519987      -1.82891286      -0.41602888
Na      11.01438676      14.48149182       7.18439957       3.00180423      -0.30379566      -1.51990763
Na      10.98230782       0.07041235       3.94991569       0.18564214      -1.33130542       0.63274342
Na       7.16597471       3.60580662       3.64905766       1.48942918       1.09379255       0.76534542
Na       7.10148982      14.25554253       3.69758047       1.19098450      -0.38092838       0.32614073
Na      10.53474851       3.20883627      14.82514651       0.41310304      -0.24707332       0.79678076
Na       7.17149868       3.59092910       7.08637963       0.98575504      -1.44410367       0.52822378
Na      10.82159050      -0.33095662      14.61181958       0.61209186      -0.27028214       0.10228208
Na      10.81306593      14.33480387      11.16161306      -0.21051577      -0.42947722       0.47811670
Na       6.90124204       3.69545823      10.69543663       0.02944705       0.81274757       1.67249870
Na       7.13336406      13.97514332      10.83303201      -0.85309258       1.26557207       1.85925795
Na      11.27783142       3.85035791       7.66355202      -0.95133368      -1.31846247       0.19570559
Na       7.08755696      10.60974597      -0.30390410      -2.21083135      -1.84979677      -0.92351728
Na      10.75771285       6.83892199       7.30395105      -0.26416784      -0.55041231      -1.21422190
Na      10.97604266       7.04538797       3.67828401      -1.06222669       0.48023005      -0.70353198
Na       7.23115761      10.77375795       3.22840136       0.53702237       3.03605256       0.62828961
Na       7.31666805       6.85050926       3.61992223       1.01810887      -0.54008017      -0.95610447
Na      10.87524533      10.90145977       0.00382803       0.96784408      -0.16673782      -1.12869905
Na       7.08962565      10.85251120       7.09654933      -0.71413455       0.05719278       0.41065116
Na      10.78125561       7.05823620      14.66934074      -1.27478863       0.40494003       0.11965365
Na      11.08496833       7.12348626      11.10120157      -0.73232573       1.16281506      -0.33822185
Na       7.10332067      10.29718014      10.79176546       0.31979391      -0.62563879       0.68273062
Na       7.18726678       7.22209770      10.58121146      -0.62944275       0.00190748       0.50726587
Na      10.20082966      10.87616698       7.16672782       0.11347756       0.96394043       1.28272194
S        1.46846628       1.35454764       1.20240052       1.33210203      -0.62821303       1.84916903
S        1.37277114       6.09134793       5.90359818      -0.99703575      -0.00230016      -1.45305433
S        5.71177891       5.99326033       1.40668988       0.43724098       0.48023292      -0.83143115
S        5.95209326       1.56110973       5.76316795       0.48765974      -0.50838574      -1.26615387
S        4.92241095       2.29162507       2.17492795       0.94098558       0.71728685       1.86351284
S        5.05283219       4.77312846       4.85735578       1.22524451       1.52299629       0.27072708
S        2.20345921       5.23348322       2.41665784      -0.91252949      -0.72195207      -1.64085117
S        2.14040320       2.30300162       4.99714523       1.82290135       0.17185006       2.49928207
S        1.45038882       1.46997434       8.64506986       1.71410746       0.76173616      -0.29393357
S        1.44054731       5.97929430      13.13686779       1.16185820       1.26865795      -0.22344275
S        5.88627587       5.71363089       8.57245184      -0.09029886       0.33851391       2.10717753
S        5.67290986       1.22643997      12.87235027      -0.54473364      -0.39207719       1.09363503
S        4.41838115       2.03707006       9.64910858      -1.96019067       0.35429047       1.68791809
S        5.02715880       4.90535546      12.30866215       1.14144505      -1.50914463      -0.83236876
S        2.26576585       4.94731628       9.61978024      -0.99188974      -0.08255607       0.54642792
S        1.88749437       2.32708872      12.33154093      -1.23728227       0.51797608      -1.43894306
S        1.42307142       8.76342802       1.39626815      -0.88058723      -0.44746477      -1.03206526
S        1.52068249      13.22261082       5.79736279       0.26778189      -2.84732733      -1.81803963
S        5.87568312      12.86635786       1.29351818       2.61804069       1.03861718       0.03381012
S        5.83307788       8.42566051       5.77917950       0.91988869      -0.58609786       0.45074363
S        4.81339868       9.32358125       2.18470323       0.05684767       0.75861757      -2.59885029
S        5.09125046      11.87202893       5.12383944      -0.35918476      -0.99500370      -1.97747287
S        2.65192019      12.22880578       2.42643727       1.69206039      -1.76948227      -0.60778346
S        2.20288198       9.34465067       5.05465176      -2.01728143       0.53338322      -0.14836666
S        1.13099383       8.67168410       8.65102766       1.20297860      -1.23395937      -2.27754515
S        1.05101899      12.89913112      13.24182195       0.89259437      -0.85493395      -3.39057077
S        5.54703437      13.34408148       8.53658753       1.34667800      -0.33485989       0.38799260
S        5.84475906       8.43968377      12.86482873       2.16384911       1.07659144      -1.01345313
S        4.72360614       9.34920781       9.32972739       1.31007110       1.75232800       0.21863855
S        5.07230661      12.09900429      12.15026664      -1.01844827       0.74159904      -0.18567773
S        1.98596307      11.83698079       9.77231223      -0.60368375      -0.47235216      -0.54883186
S        2.52729537       9.05875879      12.28060515       0.60094009      -0.35756866      -0.36375263
S        8.64555731       1.20916565       1.10470195      -1.87018767       0.46629591      -0.86153908
S        8.61720753       5.73897873       5.84203509       1.15707226       0.00212896      -0.34076020
S       13.04835295       5.81967878       1.43580128      -1.65035263       0.55423399      -0.25274747
S       13.15972134       1.45400826       6.11527943      -0.67015897       1.28687601      -1.00161384
S       12.35992027       2.54070849       2.52306996       0.03590671       0.35524593       0.85918374
S       12.03326801       5.05647116       5.20026441       1.57814735      -1.68157091       1.72796013
S        9.37599699       5.12413781       2.36955899      -1.80554453       2.49730915       0.86371452
S        9.45941650       2.18012686       5.29049847      -1.01474458      -1.20149185      -1.37361680
S        8.34709586       1.45657640       8.90544595      -0.59791099      -2.98129720      -0.60231095
S        8.12330241       5.53755815      13.16820536       0.68622249      -0.76920467       0.02093773
S       13.13297925       5.66968657       8.79836217      -0.25665169      -2.11476790      -1.29617623
S       12.81319546       1.34972485      13.26978570       2.02104956       0.67509508       2.12305037
S       11.99401226       2.13413873       9.53841245      -0.78499912       0.71464109      -1.24641987
S       11.90792453       5.04815255      12.60363208       0.35944989       0.24834531      -0.73497129
S        9.39958588       4.95206258       9.51423538      -0.02521772      -0.83929278       0.81649128
S        9.65421298       2.18497610      12.56411898      -0.67510558      -1.24394086       0.56421376
S        8.52108698       8.61353749       1.31370737      -1.54493686      -2.18442048       0.62122423
S        8.68995648      13.04209399       6.01326199       1.28462122       0.95683437       1.94090999
S       12.94375210      13.05517216       1.49147669      -0.00971145       0.39485278      -0.51838143
S       12.71915746       8.54505421       5.96904521      -1.48603863       0.92115795       2.25157052
S       11.93484812       9.45633874       1.98337919       1.41861101       1.20284688       0.73340011
S       12.11980826      11.74034409       5.04181810      -1.28986184       2.10347281       0.85550483
S        9.36466721      12.19807904       2.54913880       0.74016077       0.68985234      -0.13493393
S        9.06163204       9.24349244       4.82640714      -0.39478683      -0.62595232       1.48783088
S        8.59326142       8.45043839       8.36760987       0.34280351       1.07913558      -1.65389759
S        8.48575917      12.91644708      13.10706748       0.78739064      -0.23146189      -1.78986257
S       12.84089809      13.10745645       8.57617014       0.60899630       0.48743096      -1.36269775
S       12.92849572       8.53134474      13.23434403       1.15217419       0.72547381      -1.71525681
S       12.27421570       9.21520859       9.81044927      -0.04524949      -0.08499228       2.36374179
S       11.97569383      12.00718110      12.45057886      -4.18254144       1.33276441      -0.78909690
S        9.49961599      11.87517025       9.65370604       0.86737786       0.54029549       0.43059442
S        9.40359423       9.00506956      12.21754056      -2.15034716       0.70694749       0.13459919
Sb      -0.03414565       0.04754509      14.66755362       1.66111512      -1.89826995       4.26381175
Sb       3.52086400       3.68170132       3.47336329       5.91302866       0.31671693       1.41010964
Sb       0.16394156      14.26756541       7.46341619      -1.06761662       4.86281965       3.51592729
Sb       3.51828064       3.58359268      11.09808575      -2.41767240      -0.58698553      -5.65823392
Sb       0.18340143       7.17101838       0.06676283       5.31029277      -0.19580893       2.79024555
Sb       3.68008251      10.57372569       3.75221961      -3.92140179      -1.59090382      -1.11802456
Sb      -0.18727683       7.21361031       7.42553371      -1.59177873      -1.54985204      -1.69351867
Sb       3.68006702      10.66467754      10.86203319       0.50175438       3.82293211       2.92470984
Sb       7.16003527      14.49121850      -0.28283970       0.10895440      -0.41236898       2.35740784
Sb      10.65560802       3.66233476       3.89341390      -0.53591627      -2.97623806       4.03181705
Sb       7.18147271       0.18454855       7.24549895       1.78153871       4.46150002       1.58322852
Sb      10.67692339       3.60063620      11.01976335      -3.89806140       1.31092800       1.08853185
Sb       7.31229027       7.27410779      -0.13948190      -4.95070568       0.88823952      -3.48055747
Sb      10.58713083      10.61992099       3.58258725      -0.92879477      -0.46390663      -1.56311738
Sb       7.25467043       7.06579584       7.14397618       1.25516345      -1.36769143       3.59357659
Sb      10.87316385      10.63795380      11.02612720       0.04169981       1.03662590      -4.54049391
128
Lattice="14.3306 0.0 0.0 0.0 14.3306 0.0 0.0 0.0 14.5792" Properties=species:S:1:pos:R:3:momenta:R:3 config_type=highT_NSS128_600K pbc="T T T"
Na      14.06693166       3.57596863       0.12723697      -0.17335678      -1.04324866      -1.48283448
Na       3.63790441      14.46158204       6.95791954      -2.09702669       0.72144909       1.03613916
Na       3.16492134       0.02211156       3.47413557      -0.99524231       0.06399247       1.31190904
Na      -0.16502737       3.28332613       3.71473028       1.46499456      -0.20609589       0.23066476
Na      13.70204913      13.81670025       3.28441900       0.47611782       1.85975003       1.46090405
Na       3.27732860       3.98649060       0.38228416      -2.68955413       0.92782597      -0.94263159
Na       0.02564451       3.50744320       7.11594308       0.51526452       0.72458577      -0.83252325
Na       3.83394400       0.97065013      15.07059758      -0.53539310      -0.39417950      -1.52282825
Na       3.38802680       0.18945337      10.42307975       0.61996540      -1.47493315      -1.15502653
Na       0.15687752       2.92348108      10.93875491      -1.56916285       0.28975243       0.79905846
Na       0.00638754      -0.10334055      10.69587883       2.39520938      -0.90666593       0.07218098
Na       3.61960220       3.69396079       7.61646454       0.60314321      -0.03347767       0.97982892
Na      14.64586501      10.66366906      -0.38305509       0.58825239       0.54387435      -1.46932471
Na       3.63449584       7.51272937       7.53718056       0.01287918       0.04984816      -0.10890820
Na       3.53950908       6.85958848       3.53941888      -0.21521349      -1.02400015      -0.31276215
Na      14.45405657      10.28500167       3.28435967       0.30882376       1.89003975      -0.47854186
Na      14.19131739       7.05883671       3.71747927      -0.73439938       0.36089840       0.08481030
Na       3.67668419      11.20713675      -0.30988133       0.20559209       1.20528085       1.03089131
Na      14.21293249      10.77522899       6.64068366       0.40021736      -1.30376314       0.47318652
Na       3.48114016       7.38289903      14.20643302      -1.72039478      -2.04388899      -0.02755439
Na       3.75122505       7.34751236      10.91282794      -2.16292731      -0.52219913      -0.56149226
Na      14.64624751      10.70087783      10.28888592       0.82041590       2.08252007       0.27513200
Na      13.81212409       7.01074893      10.75106964       0.20332995       0.22651335       0.69159556
Na       3.81468755      10.67001777       6.90557226      -2.33384291       1.54545050       0.29846615
Na       7.10092663       3.62530457       0.64741325       0.51056433      -2.13078587       1.06123372
Na      10.87279880      14.26559300       7.63089159       1.58399899       0.39884065       0.44138126
Na      10.14380371       0.20778509       3.72163998       1.53326607       0.15303092       0.94829021
Na       7.01515377       3.70834390       3.98380943       1.47868868       0.00635902       0.51007679
Na       6.85715789      14.38016605       3.43166064      -0.06264091       0.58539672      -1.30429519
Na      10.35345422       3.58223243      14.79005249       0.35616095      -0.61718720       0.28602503
Na       7.32288958       3.68146083       7.47537622       0.01730736      -0.55959267       0.57053038
Na      10.89737259      -0.23195427      15.17645398       0.20632662       1.04979946       0.83169932
Na      10.94602447      13.94691310      11.59391751       0.82698477      -0.20695924       0.91842217
Na       7.43514103       3.79405839      11.20072205      -0.67729038       0.76448680      -1.83513456
Na       6.99021900      14.84297826      10.85190115      -1.75452816       0.46147477       0.46611026
Na      10.99234185       3.45189427       7.46389621       1.09738339      -1.45293158       0.01038235
Na       7.54412891      10.90296733      -0.14730798      -0.15443939       0.69217873       0.94299636
Na      11.01585176       7.18915180       7.42488389       0.04769112      -0.28470499       0.53863314
Na      10.72058591       6.90661181       3.46524631       0.13796683       0.81528719      -0.29394897
Na       7.12398255      10.43942873       3.35805451       1.26363295       0.40509531       0.02797098
Na       7.48069860       7.15060935       3.46453315      -0.85011557       2.28998828      -0.74137997
Na      11.34182149      10.54354041      -0.16555477       0.51993145      -1.92020910       0.69472390
Na       7.04971165      10.72643852       7.29907405       0.06759506      -3.20907140      -0.09375539
Na      10.73757130       7.09193974      15.09588032      -2.52715299       0.22730630      -1.54265580
Na      10.35112023       6.98955938      11.16668974       0.02817753       1.25940573      -1.39363526
Na       7.31794111      11.48099006      11.09415310       1.40743851       1.14205881      -1.65023750
Na       7.02468750       7.73201389      11.02406835       0.20570541      -1.46167508      -1.11571576
Na      10.30386589      10.98265948       7.08663867      -0.76006675      -0.32092912      -0.21891967
S        1.17334351       1.20712775       1.86059969       0.88875697      -0.74617206      -0.62601095
S        1.53374679       5.88740745       5.99516741      -0.83991793      -0.49586760       1.01115508
S        5.65617880       5.98630554       1.21330918       0.23445634       0.35983737       1.35442749
S        5.57421736       1.77517679       6.29146559      -0.57140812       0.80462886       2.57652926
S        5.04866299       2.33097701       2.43508906       0.26229939      -1.13559023       1.57006063
S        4.98022012       5.05971271       5.15894829       0.85238661      -1.57268266      -1.14732556
S        2.09402090       4.88061075       2.62634915      -0.50098770       0.26810913       1.35496526
S        2.32941985       2.10136982       5.10637555       1.58071070       2.27425024       1.01694743
S        1.44864704       1.51827818       8.67037902      -0.88725406       1.07147532      -2.37334248
S        1.22518209       5.89126221      13.34317459       1.35015612       0.10404128       1.15940622
S        5.90710970       5.99595817       8.85865205       0.15169965       0.01701198      -1.10039793
S        5.73408802       1.90192288      13.26468349      -0.35075679      -0.58747677       0.93007575
S        5.16781622       2.55524178       9.66427596      -2.35697311       0.49908815      -1.78187654
S        5.10040894       5.11425698      12.43460323      -0.25391268       0.68748906      -1.05053198
S        2.16841174       4.95649269       9.82291962      -2.31283896      -0.40406199       0.65208841
S        2.27780035       2.25553861      12.54690230      -1.86875777      -0.53274827       0.43688932
S        1.41394922       8.22741553       1.70913258       0.77964785       2.88984665      -0.04895003
S        1.58609518      13.09790590       5.79913247      -1.06202212       2.91867483      -0.61521876
S        5.55374644      13.16766494       1.07174661      -1.76333227       1.65800013      -2.37706884
S        5.80309255       8.04109491       5.79268073      -1.52005353      -0.37005639       0.56248256
S        4.83879020       9.25820385       1.91088681       0.06406660      -0.60528798       1.40460123
S        5.14517029      11.91266017       4.76181264      -1.60943091      -0.84457813       0.33092781
S        1.86942501      11.85377693       2.19672670      -0.49489650       1.12208799      -0.16112356
S        2.41482437       9.36279439       5.08530717      -0.62640335       0.47242014      -1.56210640
S        1.32188851       8.66525828       8.59756419      -0.80759177       2.91239183      -0.81842007
S        1.77506090      13.01641838      13.35396837      -0.77464181       0.49722204       1.52660917
S        5.94177027      13.10221355       8.69074338       1.89442392      -1.03252556       2.60986921
S        5.78785269       8.98820889      13.10619043      -1.39773974       0.46656095       2.22043759
S        5.06688101       9.29519696       9.45713944       2.20907536      -0.68548011      -2.61055685
S        4.80806270      12.74223581      11.79879020       1.91904213       0.18719585      -1.85251741
S        2.49714746      12.05380055       9.06772974       0.15694949      -0.79483159      -0.76825825
S        2.27950656       9.56240518      11.97642544       0.80506136       0.27970594      -0.77947132
S        8.58150328       1.23034279       1.53696276      -0.80273396      -1.58274100       0.16650027
S        8.57575084       5.64875496       5.88242848      -0.55652055       1.01901713       1.51284761
S       13.01974934       5.64326649       1.57835021      -0.51442861       0.78972532       1.32531457
S       12.84141814       1.40768798       6.14302936       1.33022606      -1.92260048       1.36256023
S       11.74291156       2.13612647       2.29482950      -0.87997844      -1.51168423       1.68667960
S       12.04909826       4.74630230       5.06196095       1.52433574       0.46409902      -0.89300979
S        9.33101349       4.92519891       2.16542096       0.50268994      -0.37938793      -0.44719825
S        9.22872366       2.36910150       5.25383575       1.15356494       1.46906576      -0.21951646
S        8.71007038       1.67697862       8.46396408      -0.48506686       1.47320969       1.32442768
S        8.60517274       6.06968569      13.08017317      -0.05250181      -1.22056815      -0.16599165
S       13.26064172       5.65634226       8.70495876      -2.70456636       0.49646422      -0.90931245
S       13.09208833       0.99901866      13.21532171      -0.17979970       0.09995413       1.98258361
S       12.05467962       1.69824741       9.87114603      -0.13858707      -1.62843483       1.37725563
S       12.32383269       4.64663688      12.11416939      -1.42106039       1.57408275       1.02494623
S        9.65946276       4.60946937       9.52937948       1.67217968      -0.82184512      -2.11330399
S        9.44963482       1.90382677      12.47008854      -1.19348404      -1.19887108       1.92942922
S        8.70496634       8.65641581       1.08476332      -1.89381452       1.52689707       0.58742363
S        8.10886186      13.13429209       5.53091609      -0.02412482       1.03291839      -0.05618567
S       12.99577985      12.41066725       1.17883874       1.71485817       0.38526911      -0.01143708
S       12.95593156       8.22593137       5.68585298       0.20340093      -2.23601267      -0.66392856
S       11.97615346       9.31944329       2.45877259       0.50792801       0.68873298       0.27492598
S       12.01173475      12.04363082       5.18128532      -0.21752114       0.01013283      -0.29326805
S        9.33346214      11.95749930       2.31015683      -1.68421589      -0.12733905      -2.40448483
S        9.02886801       9.34267045       4.93450793       0.14528015       2.19167118       0.06527115
S        8.72858697       8.39401393       8.42848533      -0.47425288       1.42376193      -1.93292752
S        8.26220869      13.18015620      12.92032426      -0.22041027       0.28037836       0.84069612
S       13.24452565      12.75244296       8.46495119       0.74906468      -1.56102076       1.12866698
S       12.96644437       8.39006334      13.33805197      -1.25338310       0.28043522      -1.17680844
S       11.76442517       8.79205583       9.62937565      -0.35434439       0.76527962      -1.03399359
S       12.56303212      11.74899793      12.03965053       0.13265067      -1.20104866       0.35282408
S        9.52754871      12.16040937       9.43035439       1.54635532       0.65150838      -1.17534146
S        9.28842289       9.73263470      12.19691661       1.79158935      -0.46434371      -0.84297455
Sb       0.11959830      -0.23066863      14.65329078      -1.90442466       0.90968855      -2.16101144
Sb       3.61697722       3.62108418       3.85859289       2.24362201      -3.93301213      -1.86759557
Sb       0.05727077      14.44575343       7.31891891       0.97546503      -0.17871667      -2.32153261
Sb       3.63855752       3.78126646      11.15759718      -1.81225484      -1.56273596       1.90542780
Sb      -0.08971787       7.12709081       0.20844214       0.34591857       1.54382783      -2.46359111
Sb       3.63860201      10.61197448       3.43677660       0.27845012      -5.20605748      -1.29342189
Sb       0.02676781       7.19897955       7.26249773       1.09659572       2.72619815      -1.39020613
Sb       3.74389397      10.93560467      10.72588550       1.88115891      -0.94885484      -1.07015777
Sb       6.97670122      14.55012197      -0.04966012      -0.93087639       0.62218861       3.58198445
Sb      10.55718222       3.56874951       3.65267314       5.29686901       2.73879008      -1.83473941
Sb       7.15181770       0.19205379       7.33114367      -2.41190298      -3.47409751      -2.24564666
Sb      10.72492105       3.34827430      11.07145531      -3.27863548      -2.55994324       4.00932912
Sb       7.07198700       7.37376164      -0.09426115       3.56761284      -4.59516613      -0.67730912
Sb      10.61645640      10.59287614       3.84724219       4.17444084      -3.56768349       3.59581440
Sb       7.25697553       6.99801386       7.19287791      -2.15309510       4.15252222       0.32525523
Sb      10.83950706      10.62905600      10.74069328       3.66763656       1.25767680       2.35129765
128
Lattice="14.3306 0.0 0.0 0.0 14.3306 0.0 0.0 0.0 14.5792" Properties=species:S:1:pos:R:3:momenta:R:3 config_type=highT_NSS128_900K pbc="T T T"
Na      14.67180889       3.69920766      -0.19220701       2.12704349      -1.58636406      -1.72435951
Na       3.44933525      13.56652553       7.61001196      -1.53320499       0.89882146       0.16525600
Na       3.83650955       0.58018019       3.50564436      -0.69242097      -0.95773537      -0.33026403
Na       0.04516526       3.44905306       3.34883287      -0.02746079      -0.55905182       1.53293902
Na      14.88639564      14.06883860       3.50123032       2.08543037      -1.39727343      -0.71596418
Na       3.97173550       3.60734234       0.20337565       0.26884966      -1.08504962       0.22490047
Na      -0.66714833       3.48349074       6.99138564       1.27161042      -0.78670885       0.11534017
Na       3.90071407      -0.12608420      14.44804585       0.92473830       0.50914647       0.80626469
Na       3.33276290       0.28875881      11.51839342      -0.12053425       2.40354337      -2.09792637
Na       0.15191455       3.16247025      10.01499437      -1.23701704      -0.45328261       2.66630983
Na      -0.14491656       0.45862746      11.17866930      -0.49305050       0.75390073      -0.50294247
Na       3.10620752       2.93212440       7.45367143      -0.34661351       0.39379197       2.20084899
Na      13.24685353      10.06670297       0.19411507      -0.24056873       0.81437714       0.84189205
Na       3.58562709       6.55124750       6.77608965      -0.06950828       0.44201340       0.27512909
Na       2.68236472       7.70863703       3.27584522      -1.03835554       1.24262442      -0.03238308
Na      14.24110880      10.45531073       3.39189275      -2.74482488      -1.50945939      -0.31617873
Na      13.87328871       6.65925625       4.09519563       0.50852615       1.30433966      -2.21878832
Na       2.84319794      10.59093765      -0.14491962      -0.97515245      -0.65524213      -0.84033979
Na      13.95717774      10.60507800       7.44466767      -2.49775305      -1.09882584      -0.10571650
Na       3.62252891       6.92761827      14.63191055       1.63598619      -0.12940921       1.38357929
Na       3.98245392       6.80267855      10.80757912      -0.18442712      -0.85687487       1.54866857
Na      14.19432070      10.78501942      11.45438412       2.45440950      -0.21420404       2.36891256
Na      14.44528222       7.29042111      10.57204465       2.72740133       2.54161962       0.13347060
Na       3.10265217      10.59583989       7.34013231      -2.21822108      -0.03934296       2.39644719
Na       8.05471847       4.05511559       0.53058742      -1.93311485      -0.23380299       2.52859183
Na      10.90686588      14.41681409       6.86155828      -1.76105714      -0.07751054      -0.43945414
Na      11.48851834      -0.20556282       3.09074849       0.04850417       3.18147149       0.59591249
Na       7.36760916       3.58509518       3.81988257       0.51833732      -1.65575629      -0.03281124
Na       7.40472117      14.00081501       3.99947431       1.79365287      -0.78205362      -0.82516436
Na      11.07970313       4.08903861      13.83329350      -2.08993247      -1.08792522      -0.64003148
Na       6.48939738       3.42971929       7.16490093       0.02734014       0.30551362       2.15347722
Na      10.98918158      -0.29221268      14.75857225       2.10550048      -2.64227217       1.43561104
Na      10.89631446      14.74462566      11.33428950       0.82506408       0.08024312      -1.83135338
Na       7.57164703       3.78087178      10.41431136       2.07773752      -1.48040490       0.32149815
Na       7.31893068      14.61190478      11.79209178       0.20014754       0.31855255       0.51954706
Na      10.37128236       3.66193061       6.58892438       1.81590474       0.55646118      -0.85951129
Na       6.59459453      11.11761290       0.30635312       0.22611419      -0.66995554       1.59270083
Na      10.83133020       7.70557743       7.02788649       0.03097659      -0.73111785       2.38310690
Na      10.41152463       7.34105368       4.12628580       1.76908930      -0.18521295      -1.27610441
Na       7.09411539      10.37072640       4.02093559       2.04825026       0.75217443       1.62929835
Na       6.74608277       7.15817563       3.63582725       1.25695601      -1.04581459      -0.13435272
Na      10.01349859      10.74774215       0.71588106      -1.27128516      -1.56576154       1.47787595
Na       7.46227070      11.36688695       7.73037900       0.64168781      -1.39823951       1.32290268
Na      10.83242494       6.95665473      15.28370891      -0.03284237      -0.15996899       0.10373909
Na      10.66109850       7.11050015      10.85571585      -0.32558708      -1.38565220      -0.44939831
Na       7.06863925      11.06025194      11.68869142      -2.65273137       0.17137996      -2.88132999
Na       7.10316880       6.86510911      11.19148995      -0.03431243       0.89236890      -0.20677683
Na      10.93637640      10.83654039       7.47786075       0.59271440       1.81044142      -0.48658125
S        1.71848378       1.30195702       0.70980766      -1.75553874       0.72226422      -0.33919759
S        1.32772900       5.51238797       6.10074804       0.66060636       0.53291876      -1.94012027
S        5.99287741       5.76612347       1.42841908      -1.78419913      -1.30272763      -0.90405789
S        5.36028430       1.05006320       6.01988946      -0.35093224      -0.07559611       1.52289117
S        5.02269431       2.50311280       2.43865530      -0.77487005      -3.61314457      -0.14191824
S        5.35719883       5.27447677       5.09439924       1.45654900       0.25892327       0.59640694
S        2.31587378       4.96278777       2.16184942       0.14277336      -1.05277569       1.44658290
S        2.10877725       2.25227208       4.73245067      -1.84592709      -0.92221635       1.39225870
S        1.07115756       1.45892553       8.58353803       0.83161960      -1.41297113      -0.10005066
S        1.73066537       5.86835732      12.99629061      -1.90954653       2.79689720      -0.23469921
S        6.26155934       5.98099703       8.69562138      -0.52868669       0.94565920      -1.02155684
S        5.67071122       1.43434769      13.39983616       2.11325922      -0.88748188      -0.99388760
S        4.84479671       1.85167842       9.29466611      -0.68235813      -1.48571990      -0.63314815
S        5.08819388       4.81864229      12.25190082       0.93721965       0.94655040      -1.36729446
S        2.59150409       5.17051379       9.27735075      -0.11998861      -0.16061547       1.73403084
S        1.74379981       2.67384167      11.83218420      -0.83250238      -0.27177573       0.68222585
S        1.16778488       8.64506827       1.15135264      -0.65184527      -3.43217508       1.71307622
S        1.13074544      12.53945141       6.20164968      -0.46762110      -0.71916610      -2.40838800
S        5.82315146      13.41905113       1.80446331       0.73878496      -2.94656531       1.37242142
S        6.03208931       9.13302610       6.45807956      -1.02260031       1.17386833       1.07043491
S        4.60989837       9.17425648       2.49438025       0.60897399       0.75871850      -1.37991407
S        4.68656517      11.84179914       5.37023848       0.54639999       2.38195364       1.45673645
S        2.27994544      12.23305505       2.19800141       3.55106787      -0.03436857       1.57261532
S        1.97916558       9.35360828       5.12226801      -0.11604460       4.12395511       1.88184305
S        1.41326453       8.32810460       8.32061858       2.18837188       1.80670480      -0.96585128
S        1.14271986      12.65514759      12.99130518      -0.93578776       0.39860267      -1.11730737
S        5.83147430      13.07764724       9.15299795       0.81698756      -0.97706878       2.78160693
S        5.72173911       8.62848486      13.51835423      -0.21060895       1.29323854       2.20097097
S        5.24919349       9.19433546       9.84330960       1.56884582       1.82582397      -0.36373732
S        4.57661116      12.13063986      12.09572630      -0.04464258      -1.03385545      -2.59508017
S        2.06827394      11.93814710       9.77183821      -1.08329002      -2.42649866      -0.46764520
S        2.59679772       9.01235206      12.19701272      -1.23567372      -2.56624437      -1.65345677
S        8.93183799       1.44185095       1.07180890       0.42055478      -1.97973675       0.81789240
S        8.55509336       5.92233572       5.56048634       0.92445049      -0.69016358      -0.16995763
S       13.17947118       5.54412205       1.15049019      -0.95715910       2.06860389      -0.96672944
S       13.26681831       1.22624447       5.32034693       2.30229970       1.80347948       0.64583635
S       12.30780945       2.13907523       1.75288328      -0.86946822       1.09903933       0.50073881
S       12.06038128       4.61428831       4.91775642      -1.67182482      -2.05210200       0.07199771
S        9.78040441       5.01636931       2.46544974       0.97368495      -2.07867684      -2.30504756
S        9.62947551       1.80407794       4.63895319      -0.69182401      -2.86085152      -1.03983040
S        8.66192624       1.59635369       8.71876702      -1.30355655       0.04642989      -0.98117699
S        8.73887247       6.13811992      13.49003284       1.41957076       0.66736162      -2.22474553
S       12.65656087       5.70751179       8.41477512      -0.79047794       0.33137163       1.62415344
S       12.88908283       1.20167182      13.20361915       2.51835107       2.79165984      -2.48796953
S       12.20206362       1.84911187       9.12880078       0.78982404       0.69120410      -2.92196512
S       12.43135684       4.47500812      11.56036875       1.32551944      -0.59369318      -4.53600989
S        9.60638333       4.82268503       8.98435723       1.71482351       2.67536892       0.39862161
S        9.27249959       2.68963418      12.05948127       1.51539311       1.26108657      -0.41406471
S        8.57276059       8.77309579       1.73709081       1.13416191       0.14272281      -0.26601602
S        8.59264716      13.37725102       6.25652339       1.40791604      -3.07802186      -1.01166156
S       13.36356588      13.00993123       1.50694566       0.43429223       1.27477801      -0.84755800
S       12.87412159       8.60957290       5.60921843      -1.09527899       0.86139270       3.33149217
S       11.91223664       9.40293766       2.23465425      -0.65955344       0.90492529       3.45894575
S       12.46322043      11.94687982       4.92477964      -0.58949473      -0.40845365       1.14666836
S        9.20410599      12.49501446       3.08346734      -0.55577848       0.14916554      -1.97550623
S        9.38594324       9.87912529       5.68906948      -0.90621390       1.50883378       1.21765474
S        8.91703044       8.03669049       8.78633781      -1.51358521       1.22112044       1.57172633
S        8.31778243      12.98354424      13.75884651       0.67088641       0.54480656      -0.82840446
S       12.67428935      12.84440160       8.75918301      -0.98895003      -0.99207876       0.09611231
S       12.75710807       8.01284789      12.90887170      -0.34352231       0.37607535       2.29677583
S       11.98328305       9.67172114       9.74898669      -4.61985390       0.77963516       0.25836359
S       11.86944169      12.33849955      12.55606665       1.71906335       3.44941870      -2.86539172
S        9.06063447      12.37822395       9.91690177       1.17403690       0.44806344       0.11906902
S        9.30316220       9.26234826      12.43111567       0.13016114       0.44063953       1.92625461
Sb       0.13084914      -0.19615702      14.39275417      -1.17397875       7.37166945      -0.21040385
Sb       3.64021628       3.77861076       3.77362775      -1.98428970       2.97082895      -1.17471957
Sb      -0.23970199      14.25251847       7.14044731      -0.79122574      -1.52965671      -0.21018932
Sb       3.66727472       3.62917720      10.66188653       1.36348433      -5.45201490      -6.64658568
Sb       0.07747915       6.97130941      -0.25556637      -1.50025635      -2.70010521      -5.61586662
Sb       3.37095152      10.81766184       3.81541638       1.72657166      -1.28805832       1.76200113
Sb      -0.04133472       7.05931152       7.17372085       2.10824776      -1.82160585      -0.55544774
Sb       3.59295581      10.52184313      10.88852975       1.25186661      -3.01973949       7.08009428
Sb       7.12303340      14.62593321       0.35075123      -0.45898505       2.33792475      -0.01985583
Sb      10.95445281       3.23841391       3.45462214      -2.18870192       3.20685295       3.07312408
Sb       6.98349588       0.27025043       7.56904662      -4.00369475       1.92841972      -3.21091599
Sb      10.86442438       3.46264157      10.35050796      -3.97305169       0.45728839      -3.16189024
Sb       7.34505405       7.39003124       0.29366521      -5.22693224       0.75615623       6.50304678
Sb      10.65850537      10.84662241       3.94396075       4.47324068      -4.69010988      -1.75915406
Sb       7.37416615       7.21225809       7.09369372       2.89194192      -1.17921734      -2.12562701
Sb      10.60119237      11.01906240      11.12148400      -0.80347713       4.26033912      -3.94115696
128
Lattice="14.3306 0.0 0.0 0.0 14.3306 0.0 0.0 0.0 14.5792" Properties=species:S:1:pos:R:3:momenta:R:3 config_type=highT_NSS128_900K pbc="T T T"
Na      14.94042724       3.26803792       0.40487433      -1.05706693       0.49568493      -1.59031888
Na       3.80930207      14.88571406       6.76966778       1.23677729       0.56662090       0.37352212
Na       3.81260293       0.18925629       3.44365606      -0.17611674      -1.46451736       0.89872328
Na      -0.00778001       3.91600391       3.85022531      -0.09337046       1.38149459       0.48664392
Na      14.33384425      14.55572959       3.80784631       0.33021923       0.76205712       1.72898740
Na       3.50330112       3.35110812      -0.05161389       0.14432780       2.05680836      -0.67974204
Na       0.36054404       3.51895412       7.19723641      -1.36962497       0.38935549      -1.21437520
Na       3.81223515      -0.74556489      14.42605344      -1.64069446      -1.23033074      -2.32742893
Na       3.33593288      -0.15398825      10.78784441       2.19765861       0.61573590      -1.95757325
Na       0.25034785       3.61892063      10.80619004       1.56793624       0.33824359      -2.26127663
Na      -0.41784537       0.02719204      11.11663953       0.85846309       1.37909820       0.96227236
Na       3.73963349       3.67782284       7.13264349       2.01945718      -2.17244901       0.17491330
Na      14.82209325      10.57615503      -0.51796183      -0.42316765      -1.93838244      -0.44835351
Na       3.91130310       7.06805636       7.43297204       0.97422739       3.06140702       0.94856025
Na       2.88491500       6.74186307       3.63896111       0.85380878       0.44437068      -0.86690371
Na      14.33894239      11.01596789       3.37780480      -0.29271403      -0.45016817       0.75149403
Na      13.96649647       8.11760083       4.14546802      -0.13202688       1.30749012      -0.44582603
Na       4.37390323      10.47768980       0.25024239      -0.90806456       0.53733587      -2.34791363
Na      14.42896562      11.02790050       7.21929149       0.56761325      -1.35941380       1.01331033
Na       3.32195113       7.30431979      13.63517709       0.11931784      -0.80034270       2.06759235
Na       3.79007154       7.39621804      10.73274157       0.93424917      -2.64849228       0.08829002
Na      14.55047583      11.00876020      10.69638351      -1.52268826      -0.93599582      -1.74719732
Na      14.66066083       6.90528854      11.13430321       3.26559895       0.81278810      -1.32169031
Na       3.77264957      11.12949839       7.05781102       0.05892059       0.53079612      -0.87746207
Na       6.43286622       3.34858884       0.13528822       1.50031348      -1.70624954       0.63229670
Na      10.47029670      14.11301710       7.01203075       0.17149003       2.09057483       2.75597256
Na      10.72272302      -0.08943165       4.09302744       3.30338818       1.09018782       0.30572639
Na       6.99284305       3.04281549       3.26733071       2.24602430      -0.26596635      -3.25995327
Na       7.18478196      14.12273511       3.39131620      -1.54585964      -1.33442306      -3.26096017
Na      10.09732916       3.33148170      14.80620687       0.61470277       1.11835967       0.58253485
Na       7.20878404       3.93321539       6.74586176      -2.11596401      -1.56659182      -0.54233824
Na      10.62287269       0.15437785      13.79396109       3.44486438       1.00219678       1.37617303
Na      10.44413735      14.47482030      10.53630314       2.18167744      -1.20653302      -1.13513890
Na       7.34848974       3.24730610      10.35028546      -0.37038699       0.36087348       0.94412899
Na       6.24025468      14.15685513      10.71429280      -2.02938945      -0.81078762      -0.47727517
Na      11.46833147       3.55928250       7.14233065      -1.77411866       0.45064466      -0.39351754
Na       8.24579738      10.90948153       0.11358922      -2.45147603       0.50765819      -1.13241789
Na      10.73433459       7.22459972       7.61274718       0.27343932      -1.12642654      -2.63615362
Na      10.86088114       7.33497912       4.04494271      -3.24647455      -2.57554348       1.14593860
Na       6.98070613      10.36266547       3.85769698       1.13916797      -0.73888599       0.08516608
Na       6.08525349       6.78925725       3.92178840      -0.75335259       0.79297296       0.35931289
Na      11.61484316      10.90558381       0.00234682       0.15263699       1.02760530       1.50381645
Na       7.83134261      10.76172534       7.41472056      -1.62919823       1.31689518       1.46985727
Na      10.38507915       7.11471030      14.91327872       0.89693089      -0.91523589       1.17928736
Na      10.57351764       7.14457232      11.36159452       0.45804035       1.48699825      -1.42027880
Na       7.08875115      11.01359213      10.82529509      -1.54505595       0.52482401       0.63572939
Na       7.32227891       7.07571012      10.85240002      -0.10943705      -1.65434047       0.28381476
Na      11.35798496      10.47110467       7.58240690      -0.96367042      -0.34635472       0.11324656
S        1.65509781       1.04331903       1.71093262       2.31559669      -0.38994864       1.29899863
S        1.13516308       5.70294772       5.44452500       1.70681431       1.10941450      -1.11582994
S        5.14617155       5.84352112       1.53484185       0.81339169      -0.45639512       1.61026674
S        6.05850782       1.54713611       5.74248785       0.90467909      -0.92654808       1.91767756
S        4.93100894       2.16035856       1.99491027      -0.04824076      -4.11350355      -0.70375743
S        4.78065606       5.12896958       5.37501972      -0.28154938      -1.81362355      -1.65647442
S        2.15172875       4.93232638       2.22656104       1.06242905       1.61189837       1.00983795
S        2.73418535       2.07960030       4.98078953       1.00093484      -0.07044941      -1.24292444
S        1.27796833       1.38738394       8.69855811      -0.51691495      -0.53866927       1.10631417
S        0.69435504       5.56737760      13.55363934       4.00542096      -2.44887445       2.49507954
S        5.88051819       5.63955471       8.66218707      -0.97281061      -0.52560310       0.79743634
S        5.40935513       1.32569130      13.00147217       3.30955464       2.10850162       2.38358787
S        5.09241460       2.19127196       9.47057629       2.14201032       1.19911111      -0.97306376
S        4.99744977       5.07419528      12.06062165      -0.96051079      -0.35895394      -0.38107452
S        2.53014089       5.01745644       9.14015360       0.39384818      -2.70537564      -1.49393314
S        2.43780928       1.99285712      12.05250738      -2.61242663       0.80060366       0.23344348
S        1.42040578       8.50022674       1.56073318       1.07417215       0.35901476       0.12538119
S        1.40743822      12.96826215       5.78307662       2.27700409      -2.57049978       0.34242442
S        6.18147050      12.81097365       1.25875726       0.69479808      -1.33726705      -0.41356280
S        5.69912529       8.72960526       6.21795776       2.80480471       2.01487389      -1.03650235
S        4.98158347       9.23002405       2.59863982       1.16868930      -1.39830768       2.06317444
S        5.08412322      12.39022129       4.66915779      -4.03452265      -0.18971421       0.92013717
S        2.48782417      11.98624030       2.08407387       0.75427396      -0.12286052      -0.60933836
S        2.23265651       9.60728174       5.19121609      -0.10032943      -2.37306194      -2.11551392
S        1.39462801       8.10537678       8.83594850      -0.22212457      -0.72190869       1.66714357
S        1.38574765      12.87347919      13.06892057       0.31953938      -0.91276706      -3.11952328
S        5.45308993      13.10637854       8.50010929      -2.35885023       0.24402565      -1.38418705
S        5.38432590       8.58442222      12.98670436      -0.42885831      -0.15105271       1.67105903
S        5.34843866       9.25132052       9.66652716      -1.75744974      -0.66351945       1.64023780
S        4.73212425      12.06295924      12.04055669       1.03344576       0.13093811       0.64926104
S        2.34136004      11.95641748       9.38078993      -1.44202094      -3.09467795       1.22082782
S        2.04238300       9.42826958      12.32061978       1.42242126       1.08504317       1.53228771
S        8.39899555       1.36439997       1.42420628       0.06986076      -0.48707070      -1.73728006
S        8.58196536       6.05592450       5.93894464       0.84819585       0.89993000      -0.13564540
S       12.54073877       5.93564527       1.70616311       0.33034297      -0.56208149       0.70887318
S       13.03832211       1.34878128       6.09169310      -1.07535876      -0.22399041      -3.86040680
S       11.79251458       2.20766272       2.29471932      -1.57829634      -0.64215124       0.92900870
S       12.07183694       5.18919940       5.09036326      -0.65149853       1.31099404       1.86133595
S        8.98594031       4.96448355       2.29770954      -1.97714279       0.96403979      -1.02984022
S        9.35410032       2.26605947       5.02591678      -0.52128578       0.97456071       0.75447052
S        8.40263081       0.95663729       8.63325402      -0.94556895      -1.27368163      -0.47942666
S        8.16892305       5.73373088      13.56102032       0.26104555       1.08385495      -0.50801977
S       13.17448645       5.39291561       8.55422776      -0.82663614      -3.59071332      -3.25205654
S       13.37559239       1.72721032      13.15468238      -3.41412131       0.27780416       0.69395629
S       12.07072490       2.32771903       9.42667843      -2.15137081       1.49046298      -4.78711604
S       12.02569299       5.14943930      12.33395444       1.16730869      -2.28000507      -0.35823431
S        9.24988530       4.98921633       9.45160555       0.54692455      -0.13649843      -0.83699703
S        9.42430509       2.22041846      12.09939912       0.50259508       3.16454189       1.92605846
S        7.95299440       8.68615944       1.32734128      -0.05684066       0.14645080       0.08866615
S        8.25201231      12.74756801       5.92981278      -1.03576919       0.29731247      -0.58129383
S       12.97064737      13.24872879       1.51643802      -2.19806857       1.57729329       1.43942455
S       12.87791195       8.62269890       6.54739210      -2.92606502      -1.59003639       1.29795227
S       11.77400405       9.38758800       2.44011432       0.65102584       1.32784570       1.51469723
S       12.47729253      11.97218390       4.96930083       4.51880774       0.40556291       2.31508387
S        9.65331130      12.44569523       2.48490544       1.15615527       1.12160851      -3.36676677
S        9.54814160       9.87300882       5.09169845       1.07787582       1.20390342      -1.28164874
S        8.68732763       8.31403064       8.77561468       0.20494143      -0.80263971      -3.00290737
S        8.27137741      13.05291693      12.71077590       0.78722607       3.39274508       1.51348527
S       13.07242501      12.83375292       8.86515692       1.85900387       0.18198678       0.01667193
S       13.07751577       8.34308281      13.49087025      -1.74993633      -1.96158819      -0.55702959
S       12.53866001       9.51476944      10.05087367      -3.67208695      -0.96035596      -0.50663026
S       12.20223982      12.47786313      12.22509258       2.31872946      -1.73404082      -0.20548575
S        9.58632412      11.35199137       9.58357281       0.92479266       2.33002405      -2.50497842
S       10.05119984       9.33553797      13.06645521       3.38941720      -0.97308334       0.54359607
Sb       0.22333016      -0.02376517      14.51684231      -3.95894420       1.93260341      -0.16145266
Sb       3.72808282       3.74309621       3.54703603       1.54313309      -0.44387166      -2.45747994
Sb       0.13027948      14.32529925       7.34253920       0.37765010       0.87842146      -2.10894875
Sb       3.63971517       3.50872624      10.74927071      -0.31887789      -3.80554053       3.24810146
Sb      -0.15641931       7.08599091       0.54966472      -4.73904074       1.69925578      -0.79231778
Sb       3.63549275      10.79880684       3.64025577      -0.36591565       2.71002294       7.35136017
Sb       0.01973749       7.00383542       7.21829457       0.50795029       4.18966174      -3.80221261
Sb       3.50821869      10.49044688      10.75716097       3.60483827      -4.09964545       2.81793628
Sb       6.98599007      14.35904736      -0.25530946       0.10974394       0.61732948       8.46025145
Sb      10.63886886       3.76894319       3.52712744      -3.17978906      -0.51182408       0.77947056
Sb       7.00849849      -0.10319003       7.16049218      -1.66391724      -1.11276332       0.44055901
Sb      10.80901839       3.68986166      10.89549813      -1.43510470      -2.70036302       2.45867764
Sb       6.60779470       7.23568223       0.24823527      -3.12834608       4.87467292      -4.10007236
Sb      10.83047281      11.03800118       3.68460691      -0.41321926       2.27038221      -1.03048324
Sb       7.14956358       7.17225361       7.33785354      -1.34797884       2.52456478       1.31441216
Sb      10.95763280      10.72119890      11.21533915      -0.25493714       4.06261820       2.00857456
128
Lattice="14.3306 0.0 0.0 0.0 14.3306 0.0 0.0 0.0 14.5792" Properties=species:S:1:pos:R:3:momenta:R:3 config_type=highT_NSS128_900K pbc="T T T"
Na      14.22489179       3.65785660       0.32763466      -0.52198942       1.52206227       0.64211969
Na       3.77167479      14.16719720       7.09528936      -2.48626024       0.46190715       0.95997014
Na       2.95912028      -0.37120238       4.05552558       0.89906014      -0.52697489       1.47993806
Na       0.25618529       3.74258302       4.13663835      -0.07225574       0.06704751      -0.31792406
Na      14.00480657      14.37569693       3.48139598      -3.10869427      -0.10304642      -1.34135462
Na       3.93149340       3.15994337      -0.36224651      -1.92544693      -2.86394951      -0.25046882
Na       0.03227352       4.01279525       7.56603093      -0.19291034       1.08015594       0.75201794
Na       3.43488081      -0.04690257      15.41006353      -2.82805249      -2.37756760      -0.23384824
Na       3.69838954      -0.00072708      11.37760501       1.74075870      -2.09365306      -0.12830752
Na      -0.32134854       3.85541572      11.20951364       2.06690490       0.38784196      -0.00347227
Na       0.22687448       0.62866144      10.97145967      -0.60888251       2.78605264       0.19004151
Na       3.49962909       3.59307992       7.10924806      -0.74042555      -1.73247319      -0.37326733
Na      14.70460136      10.47446295       0.14850019       1.02433567       0.71302576       0.63493408
Na       3.25816761       7.67218153       7.84194641       0.77191883       0.84447966       0.74659231
Na       3.37115171       7.21374982       2.66500682       0.05278518       0.48760572      -0.97943243
Na      14.65242207      10.28555301       3.30764330       0.77686794       0.28592380       0.50738657
Na      14.12811972       7.18309676       3.68407771      -0.04280059       0.11871520      -3.17321605
Na       3.73995352      10.26896543      -0.16225007       0.75294052      -1.32826031      -1.48982861
Na      14.06949165      10.93326085       7.05973481      -0.75750125      -0.93344733      -2.02044587
Na       3.73182509       6.13412633      14.41902112      -0.88376232      -0.09794903      -0.10289008
Na       3.37941413       7.16944447      11.25713030       1.77302533       1.12380578       1.22468671
Na      14.68959395      11.35036927      10.64371878      -0.83803278       1.44488625       2.60835365
Na      14.60248708       7.57054081      11.12994242      -0.04878061      -0.02435976      -0.12060254
Na       3.52512887      10.28093265       7.30476096      -0.08873791      -1.24941177      -2.79189583
Na       6.67986355       3.57162590       0.39401066      -1.41418215      -1.04154956       1.42072415
Na      10.62165728      13.86783306       7.35315025       1.54660194       0.91021676       0.59015292
Na      10.83838118       0.05225873       3.79155827       0.29644179      -0.51357804       0.76246892
Na       7.23252884       3.54380860       4.11491899       0.42832554       0.26194259       0.05302912
Na       6.59977707      14.91275570       3.73964379       2.02992782       1.04774796      -1.99579412
Na      10.57938887       3.59795715      14.51169186      -0.80934786       0.60689319      -2.55860158
Na       6.69425649       3.87531461       8.59121872      -0.81564435      -0.50737423      -1.66154477
Na      10.71658169      -0.34486015      14.95986961      -1.04739337       0.91543225      -0.39406977
Na      10.63996090      13.93138300      11.07638391      -0.06750743      -0.50588759       1.15467937
Na       7.09738384       3.41124956      12.07093092       0.28550118       0.08099242      -0.03262831
Na       7.14516348      13.86783584      11.35734651      -0.15004043      -0.07960908       1.23897536
Na      11.09603474       3.67753407       6.95924034       1.27457409      -1.07807791      -0.48805562
Na       7.31555001      10.46563564       0.83945388      -1.87425255       2.13047889      -0.70074666
Na      10.62971769       6.72552883       6.72515012       2.47237993      -1.64981975       1.60646624
Na      10.78777551       7.04033401       2.82873466      -0.55986912      -0.13281466       0.05260075
Na       7.15631919      11.40430471       3.95332938       0.04587576       0.02201030      -1.50988313
Na       7.61376879       7.88692414       3.56961047      -1.02853671      -0.29098191      -2.06591359
Na      11.26595260      10.85625407       0.43799302       0.15190874      -0.75460324      -0.32505753
Na       6.75199897      10.83661326       7.41642001       0.35072493       1.56692657      -1.16101449
Na      10.71636156       7.54374101      13.85886053      -1.91166690       1.60149316      -1.13654738
Na      10.27922767       6.89095154      10.19109004       1.12314605       0.30297396       1.59279478
Na       7.45094519      10.68509292      11.43165289       3.23348233       0.16533380       1.53581765
Na       7.13168233       6.70764047      10.48828750       0.45447613      -1.95581007       1.69545413
Na      10.04189649      10.51159541       7.54801240       0.54498354       0.17685283      -0.87591193
S        1.28449945       1.49463663       1.41028861       0.68085233      -1.93419296       1.17120099
S        1.38871321       6.04177390       6.34268157      -0.75087795      -1.72295605       1.03405586
S        6.15296432       6.04250752       1.58888073       1.42369388       1.34092494      -0.40495837
S        5.77764895       1.54149843       6.08494692       2.02855311       2.77084294      -0.97304377
S        4.99660936       2.01490192       2.27382301       0.25941311       1.56554311       1.65454012
S        5.04693025       5.11295037       4.78670841       0.37462864      -1.06702306       1.61351909
S        2.51775232       4.77364138       1.91474068      -2.34167676       0.30431194       2.79551145
S        2.55860584       2.20186987       4.99242201      -2.29513731      -1.53165147       2.77135408
S        1.59087732       1.59490896       8.61003777      -0.38780917       1.19083082       0.13400075
S        1.18896910       5.61239241      13.22513958      -1.70603180       0.16091936      -1.08468688
S        5.26611190       5.69810672       8.24413136      -0.25032903       0.19524981       0.45787794
S        5.87414660       1.39780713      13.35282298      -1.62543284       0.77981184      -1.96817362
S        4.96438905       2.13124510       9.46685632      -1.57053219      -1.24551143      -0.30184172
S        4.89440576       5.02577114      12.13467380       1.25092635       0.32144257       1.12768873
S        2.02433727       5.04111829       9.49039576       0.06722956       1.12990900       0.01739039
S        2.20066879       2.29662631      12.10942809       1.66010561       0.06200452       0.61061943
S        1.36584029       8.49883763       1.43181609      -1.82046685       0.47046510      -3.40897531
S        1.25841602      12.89259478       6.08186095       0.49215356       1.50711997       1.52701595
S        5.75997479      12.94138964       1.61928342      -0.83230309       1.04377026       3.03643609
S        5.52379487       8.80486894       6.07455581       2.01543783       2.09444717       2.24753424
S        4.96604937       9.55088446       2.08486267      -1.67507418       1.69626825       0.06905867
S        4.66272687      12.30862788       5.07422644       2.83821721       2.20940853       0.79042121
S        2.14460772      12.12633681       2.50056035       0.36488791      -3.23522132      -1.02754067
S        2.35344495       8.74487698       4.66304059      -3.29832930      -0.49333157      -0.66082137
S        0.94302475       8.79658856       8.79727040       0.51593284      -0.23685947       2.91973436
S        1.60418468      13.23026518      12.87675637       1.23224323      -0.63836803      -0.71515275
S        5.54582709      13.28030193       8.66385285       1.64222724      -1.25447753      -1.26129466
S        5.95745290       8.54361294      13.45081642       0.36357038       0.24869288       3.18115092
S        5.04569863       9.57900253       9.49054325       0.85648239       0.64604355      -1.28980434
S        4.74374811      12.36381733      12.73911580      -1.96140571      -0.85094786       1.73670258
S        2.78602668      12.21691195       9.90092437       0.54389160      -0.64715570      -0.15471563
S        2.17762261       9.58440175      12.19185448      -2.49572665       1.57806708      -0.80860871
S        8.49330538       1.36404638       1.50168421       1.29483072      -0.24080180      -1.73075127
S        8.18237598       5.96471039       5.54556281      -0.59679480       0.26660313      -0.51362056
S       12.63160961       5.91465142       1.11460170       2.25760570       0.30468684      -1.28181538
S       12.99695019       1.79972331       5.65726599      -0.62910640      -0.02856123      -1.03980678
S       12.09222975       2.40717553       2.04478146      -0.15726511       0.92587223       3.69457229
S       11.97013827       5.12223426       4.78654587       0.39623891      -1.88692932      -2.61770462
S        9.10297055       4.71628945       2.14843601       1.05694334      -0.34619634       0.31825761
S        9.45745964       2.26973484       4.97677313       0.19196916      -0.13640666      -2.40263402
S        8.28661095       1.35820928       9.33785276       1.85134720      -0.01300566       0.40521386
S        8.56491703       5.42316096      13.42690175      -1.29514930       1.67570942      -1.37793593
S       12.54663630       5.81201707       8.35034959       1.47088836       2.39581614      -0.27074095
S       12.85184134       1.09142626      13.18952591       0.96729268       2.95170560      -1.45289318
S       12.02899670       2.17159141       9.62839804       1.94030840      -2.70661658      -0.52519268
S       11.80383470       4.95175601      12.36232993       3.08228177      -2.13860989       1.26643970
S        9.19190907       4.85504344       9.39751022      -1.66258115      -1.28990381       0.24856308
S        9.48222627       2.02631106      12.24556690      -1.63714181      -0.16121292      -0.20552644
S        9.02774370       8.24495117       1.43371208       1.67099384       0.72002630       0.38181031
S        8.48160493      12.92860505       6.37767575       1.47952815      -0.42232088       0.03989326
S       13.56314238      12.74099860       1.30451454      -0.18638419      -0.44721239      -0.14576091
S       12.95389922       8.45184831       5.71313562       3.11816014      -1.59535391      -1.46821032
S       12.18060774       9.26141478       2.16488867       0.94986721      -1.77324537       2.26160409
S       12.11540069      12.17149022       4.98511646      -3.22123332       0.19637320       0.57005883
S        9.40891519      11.91746041       2.28048915      -1.24921559      -1.86238380      -1.28298633
S        9.42356006       9.30828347       4.74042187       0.74056259      -2.10999020      -2.26681193
S        8.43768575       8.30593543       8.50707150       1.44899023      -2.15378480       0.93600454
S        8.32358302      12.84634919      13.63691604       0.40735032      -3.64325373       0.89818304
S       12.87552282      13.47497857       8.38718886      -0.26102680       0.33912053      -0.16925709
S       13.23727355       8.68955986      13.23548072      -2.35702240      -0.23332489      -0.54440437
S       12.40251610       9.49283411       9.04429441       0.74237590      -0.35058796      -1.06118504
S       12.06620736      11.73717310      12.35896715      -1.85537983      -0.31044019       1.82661271
S        9.53694916      12.10478617       9.82760782      -0.01207514       0.03413441       1.70397263
S        9.16711083       8.89189066      11.83700981      -1.14661333      -2.07132200      -2.53398747
Sb       0.21970125      -0.05942272      14.41602342       1.10632472      -4.94930977       2.11390446
Sb       3.88197198       3.62821509       3.53791220      -4.55870685      -1.56139172       2.12757764
Sb       0.13347439      14.74717100       7.05964831      -2.00414006      -1.30829055      -0.83575457
Sb       3.54886668       3.57078376      10.77295828       0.67824952       0.53183364      -4.40798030
Sb       0.06738045       7.08597721      -0.03787752      -2.24997322       0.79980339       2.19397322
Sb       3.49445752      10.73763013       3.70263064      -5.50209013      -4.89621906      -3.59028719
Sb      -0.22034956       7.45939220       7.33969805       1.03652193       2.04865229       2.20596698
Sb       3.95908070      10.68455735      11.17372874       3.31852512       2.65724703       4.94482340
Sb       7.16380591      14.30022382       0.17392444       8.40434539      -1.74058901       0.50717572
Sb      10.62380874       3.67869615       3.44122136      -4.62626571       5.96344834       1.82123358
Sb       7.12432217       0.19625980       7.53750695       0.88055157       1.13424531      -4.24821280
Sb      10.52782453       3.54783085      10.87021300       1.31994247       3.98103162      -0.46185967
Sb       7.43991709       7.11465006       0.05020804       3.69896807       3.50220933       2.74219315
Sb      10.90413689      10.61391234       3.58182180      -3.77506889       2.67885553       1.27710530
Sb       6.91245009       7.10855984       7.15581918      -0.46503912       3.87203098      -2.17944944
Sb      10.86281519      10.23360453      10.78043419      -0.93597739      -2.33212343      -3.92304616
128
Lattice="14.3306 0.0 0.0 0.0 14.3306 0.0 0.0 0.0 14.5792" Properties=species:S:1:pos:R:3:momenta:R:3 config_type=highT_NSS128_900K pbc="T T T"
Na      15.19159293       3.81262616      -0.87687795      -1.57373512      -0.20434894       0.49434392
Na       3.18141373      14.75290057       7.79125778       1.42498953      -0.40807814      -0.78939109
Na       4.03778042       0.13521336       3.13624755      -0.74140555      -0.46835498      -0.21100117
Na       0.41822555       3.61692634       3.45651091       0.17465480       2.14179201      -1.13755099
Na      14.22576369      14.79716497       3.95062604       2.54955329      -1.01802818      -1.06823088
Na       3.72994954       2.89985161       0.11817898      -1.76031908       1.85917844       3.08122090
Na       0.02995844       3.65594255       7.17034068       0.26563807      -1.00570890      -2.60268463
Na       4.10523584      -0.83295639      14.49111591      -1.50484345       1.09043261      -0.06807822
Na       3.13872915      -0.11259080      11.01363585       1.04045772       1.10471950      -1.53166326
Na      -0.39260326       4.05465643      10.65396498       0.19045258       0.70474134       0.48082913
Na      -0.36911513      -0.06396808      10.94964638      -0.46129796      -1.23524809       0.48639483
Na       3.93428856       2.92386419       7.17355145      -0.15155691      -0.77567902       0.46705380
Na      14.52764501      10.86499377       0.02257798      -1.13902133      -3.30898382      -0.17897813
Na       3.70130166       7.26918469       7.24947612      -2.86165332      -0.91686978      -1.30325165
Na       3.44876456       7.40100824       3.24418924      -2.17415174      -2.00272391       1.90181950
Na      14.04739407      11.46460879       3.13328575      -1.69770992      -0.07909960      -0.37042393
Na      14.18892956       7.11889385       3.76102667       0.27328234       0.28913292       0.22291338
Na       3.86033464       9.74016131      -0.00876502      -0.52950190       3.54214219       2.00774523
Na      14.49709789      11.01536682       6.65638893      -2.39112378       0.65734903       1.60407729
Na       4.10952374       6.17614271      14.39248577      -1.80059266      -0.13279896       1.32017159
Na       2.62784262       7.11725342      10.87036787      -0.32091251       1.10250964      -1.69405053
Na      14.38696705      10.77013462      10.68778256      -2.96949347      -0.59872953       1.23960727
Na      14.14840617       7.53176040      10.96917738      -1.33386315      -0.03719539       0.28182452
Na       3.96539979      11.01788458       7.14480647       2.13054760       1.64674402      -1.58487053
Na       7.25738199       3.73376392       0.57858169       0.12928090       1.02795597       0.88034683
Na      10.49290427      15.11635094       7.53450375      -0.15269352      -1.58455139       1.59501158
Na      10.16172498       0.08771827       4.39984749      -0.24983746      -1.47801411      -0.63327852
Na       7.13912846       4.17480471       4.16275985       1.18216543       0.88959539      -0.31275743
Na       7.53223975      14.19767173       3.85050660      -2.95842619      -1.96614151      -2.51923163
Na      11.75282130       3.67381321      14.27636821      -0.90247918       1.09543325       2.25904350
Na       7.59566988       3.56919421       7.97138332       0.94917727      -0.52092927       0.76596051
Na      10.98124724      -0.20962480      13.98969343      -1.83782678       1.44813577      -1.21751649
Na      10.76026070      14.41711035      10.40941397       2.09285828      -0.76584266      -2.41842375
Na       7.09049519       3.31844589      11.25559728      -0.46551237       0.29089234       1.24948675
Na       7.05226375      13.79877683      10.98036787       1.82650091      -0.91274680      -1.31615343
Na      11.20279663       3.83341433       7.30035477      -0.26123499      -0.67089710      -0.03572797
Na       6.57830823      10.59550337      -0.06531698      -1.20290969       1.25025709      -0.80126709
Na      10.56185983       8.23112025       7.30916555      -1.57144487      -0.70027804      -1.68129910
Na      10.73496546       6.92633147       4.24734847      -0.41582206       0.24674914      -1.28377330
Na       7.25699744      10.85734671       2.89937762       2.39643663      -0.61247099      -0.96634076
Na       6.79361832       7.69779290       3.79581243       1.59156977      -0.88789775       2.11373832
Na      11.00238121      10.30928937       0.07829088      -1.61994581      -1.12327937       0.50695685
Na       7.72022035      10.35641667       6.96558390       2.42372126       1.84622856       1.98840249
Na      10.87089797       6.50976115      14.76432085       0.31214083       1.28943273      -0.81535238
Na      10.24301982       7.40167095      11.10240724      -3.07660418       0.50590455       1.49219241
Na       6.65416876      10.30358998      10.77107596      -2.10583044      -0.38347456       0.77900695
Na       7.26977820       6.98684265      11.08542312      -2.38160721       0.39723496       1.77164954
Na      11.08972047      11.77372143       7.57312610      -2.16591259       1.69890849      -0.15212241
S        1.74429254       1.40606016       1.51104488       0.47929458      -1.99156156       0.40831170
S        1.34117300       6.16753185       6.07393266      -0.30191038      -1.26752204      -0.75718734
S        5.73307422       6.16955379       1.85176092      -1.65829396      -0.89112785       1.17098528
S        5.98251845       0.94365007       5.73811457       1.44311437       3.22512201       1.15180562
S        5.43583657       2.82031776       2.16472934       3.74330844       0.50828557       0.42460953
S        4.38352267       5.42125775       4.97120192       1.51582611      -6.05588456      -1.30018727
S        2.10333933       5.09337654       1.64715867       0.61002537      -0.52040567      -1.25780113
S        2.48150111       2.09766773       4.54366318       0.96573060       2.66324920      -0.79193303
S        0.86815687       1.53917894       9.01648078      -0.88649201      -1.79056722      -0.05934996
S        1.37509099       6.07189280      12.94099372      -1.08766812       0.96273918      -0.31677626
S        5.34041429       5.50677680       8.07758123       1.01565494      -1.06016141      -1.76174032
S        6.04420463       1.56649044      13.42402330       2.07709693      -0.42280248       1.43775551
S        4.89725647       2.05232706       9.33500361      -0.90933792      -0.87987165       0.96657933
S        4.81456421       4.99655277      11.89233524      -1.75460174      -1.54828572      -0.10877715
S        1.97466061       4.77513610       9.22415875       1.40059794       2.24862875       1.39843517
S        2.42428386       2.33468633      12.27217996      -2.37570074      -2.57341721       2.44926512
S        1.16503837       8.72996208       1.48832297       0.25312886      -4.96777260       1.20267905
S        1.45859667      13.25728812       5.79953831       2.99508524       0.27222680      -1.54653113
S        6.04920570      12.98384145       1.66419758       3.10311467       1.17487403      -0.88707371
S        5.95220569       8.75712094       5.98421565       2.30355171       2.40569714       0.85436787
S        5.11260770       9.21612901       2.50699783      -0.59904417      -1.87018687      -0.94698240
S        5.27449842      11.82777042       4.93586895      -0.19787626       0.56477679       0.56644600
S        2.30672959      11.87406618       1.87131655       1.73120659       1.52469104      -0.58253036
S        2.38281338       9.61356542       5.14175113       0.71873425       0.61715045      -1.78523230
S        1.09305999       8.59669226       8.85118529      -2.08962791       1.55242653      -0.47141272
S        1.34432583      13.12496879      13.25429931       0.40837226       0.36568185       1.41810670
S        5.51648466      12.72415078       8.67366622      -1.67355437      -1.83362234      -0.02316658
S        5.51697080       8.15487764      13.15965176       1.45179154      -0.20670612      -0.38095356
S        4.57088607       9.06128917       9.65777741       0.14551503       2.23829737      -2.82731238
S        4.81320832      11.93389292      12.35589342      -0.98112944      -3.62899077       2.45729893
S        2.12610644      12.02385876       9.69420719      -0.65795189      -1.97298680      -0.30934118
S        1.79686179       9.34399352      12.45978753       0.94617705      -1.23570577      -0.29526952
S        8.95946107       1.09056230       1.62568838       1.10278640      -0.84266552       0.48864549
S        8.63402136       5.63063338       5.81597178       0.60296985      -1.06062906      -0.40544013
S       13.25201108       5.37623628       1.29521856       0.26361126      -1.68301420      -0.62119360
S       12.44039521       1.14772127       5.83083163       0.37655626      -1.35838251      -0.40710324
S       12.33660412       1.71140568       2.37444902       0.72822021      -0.05907500       1.81609395
S       12.49562329       4.97964960       4.91763128       2.16574521       2.15507173       1.28679330
S        9.76362854       4.78341928       2.17563729      -0.17981424       0.46846012       0.00005679
S        9.66550722       2.62788201       5.24173457       0.15359781      -1.26728089      -0.18093463
S        8.06332229       1.15686768       9.08919156       1.24748929      -0.10291701      -1.39181280
S        8.58433326       5.60767266      13.41029129       0.30033111       0.42035968      -3.69319158
S       12.87113835       5.61909543       8.72969494      -0.54478770      -2.00781895       0.01831841
S       13.14466575       1.55225877      13.16990218       1.53112494       0.01334114       4.11754000
S       12.23024372       2.33777090       9.65363134       1.03110536       0.00644284      -2.00068236
S       11.84215296       5.33769074      12.09760597       1.41918134      -2.21905869      -0.30778017
S        9.00192713       4.92936529       9.76159651       1.86036401      -0.94635041      -0.58645533
S        9.70075537       1.84544942      12.04310999      -1.83851435       0.93024637      -2.79229507
S        8.71818936       8.81609896       0.84588087       2.33423200      -2.01723811       1.51536353
S        8.65534424      12.99429033       6.17914824       0.51251618      -0.73950038      -0.80590588
S       12.99905787      13.23374077       1.20487606       1.98695381      -1.46061360       1.28569080
S       12.85889496       8.74636740       6.16074217       1.71861564      -0.86483148      -0.24711944
S       12.04285595       9.15152922       2.49993167      -3.26115269       1.03549296      -1.70427164
S       12.09197889      11.97816525       4.98710488       1.31038266       1.46084832      -0.08674941
S        9.47331043      11.85882132       2.28415807       0.18390831      -3.18306103      -1.81102596
S        9.34522044       9.04047078       5.20654152      -0.35291488      -0.46685402      -1.67537710
S        8.16017149       8.32411317       8.84191438      -1.97179222      -1.12330309      -1.54474041
S        8.45405027      12.92466933      13.33516438       1.16869577       0.48942998      -1.64321867
S       13.17046322      12.87847811       8.73098441       0.63443868      -0.26742140       1.37695686
S       12.99236407       8.58997482      13.18907841      -0.94371180       0.47770430       2.41546037
S       11.99103142       9.14294738       9.96217318      -1.25250549       1.66911842      -0.69869002
S       12.20308708      12.44224788      11.76523437      -1.76964299       0.52420820       2.13093670
S        9.34826817      11.91985086       9.45889032       1.43739597      -0.85079991       5.50340537
S        8.88914595       9.70388651      12.09316731       0.21574173      -1.27596948       0.38480367
Sb       0.29295887       0.30156260      14.58635173       3.36492206       0.05549200      -5.76867264
Sb       3.64321739       3.86615564       3.31904889      -2.95027579       4.91235930      -3.50839280
Sb      -0.21512663      14.47272734       7.22581067       1.28695544       5.70087673       1.09010286
Sb       3.44875119       3.62271573      10.55467824       2.15443684      -0.04033711       3.45515281
Sb       0.20759089       7.13920064       0.07787298      -3.06466949       3.00380872      -6.16539142
Sb       3.70674079      10.73171133       3.62976723       1.04326812       1.74220527       3.30388752
Sb      -0.23650258       7.26372726       7.58093188       0.72253229       1.75425964       1.93038345
Sb       3.39050875      10.54693777      10.96013364      -2.07241927       5.55723466      -2.61090104
Sb       7.42706201      14.51689228       0.19903155       2.60352389      -4.05265668      -0.19216582
Sb      11.08968046       3.46542584       3.54210415       5.88817700       1.39688767       1.83040152
Sb       6.98506924      -0.26793118       7.44453236      -4.81092095      -1.19721188       4.18568981
Sb      10.65980819       3.62623917      10.89992235       1.68996106       1.23150778       2.93739795
Sb       7.03322017       7.20606189       0.22615016      -0.18754234       0.20476417      -1.53201773
Sb      10.73359366      10.53575255       3.89069443       0.05836596       4.76587426       0.84968407
Sb       7.02097505       6.95006183       7.20234507      -2.33108696       0.89087040      -2.60811331
Sb      10.62667866      10.73582109      11.01155382      -3.87465087       0.28675852       1.27341164
128
Lattice="14.3306 0.0 0.0 0.0 14.3306 0.0 0.0 0.0 14.5792" Properties=species:S:1:pos:R:3:momenta:R:3 config_type=highT_NSS128_900K pbc="T T T"
Na      14.42451118       3.87884786      -0.08235023      -0.41186217      -3.02307192       0.48133031
Na       3.94519263      13.94619151       7.94472940      -0.76122860       0.26414618       1.54278360
Na       3.51830033       0.25725307       4.28561040       2.91131512       0.54195007       0.78826641
Na      -0.54880605       3.27536683       3.81056948       0.21814487       3.79660695      -2.14480366
Na      14.07293243      13.52802649       3.64583924      -0.40875965      -0.71571855       0.46955942
Na       3.93170547       3.52025701       0.20180897       1.05501868       0.98974288      -1.60781731
Na      -0.36278312       3.63343218       7.41598779      -0.14794195       1.05828522      -2.38895201
Na       3.01537069       0.47668344      15.82779483      -1.08109347      -0.76432065      -2.81270113
Na       3.87447022       0.35932739      11.52076627      -2.54125882       1.19696723      -0.90634496
Na       0.07816793       3.21964694      11.27628089      -2.23732908       1.30459127      -1.94017624
Na       0.20305295       0.01185754      10.96121585       0.49951703      -1.66139429       0.99272449
Na       3.33231125       3.67520947       7.54715021      -0.58352751       0.09976570       1.88732495
Na      13.73090383      10.46555617      -0.33512618       1.47983630      -2.53257036      -0.78294438
Na       4.03107754       6.87259513       6.54731364       1.51078524       2.16478333       0.47178833
Na       3.17123672       7.19280501       2.74762704       3.17646593       1.47441816       0.95353488
Na      14.56831425      10.04163061       4.12314759      -1.49299845       1.54245336      -0.57462123
Na      13.51035887       6.55136929       4.11082768       1.62151335       0.15779404      -1.10339974
Na       2.87253168      10.88254670       0.13645812       0.39080373      -1.27605360      -1.55011733
Na      14.68020201      10.54497591       7.51482710      -0.28389780      -0.14974745       1.25865545
Na       3.83923771       7.30928542      13.41451444      -0.11639830       0.52573140      -0.29705419
Na       3.92250060       7.18840542       9.88768323       0.23174985      -0.29360739       0.23991887
Na      14.48580800      10.72290341      10.49234201       0.75522670      -2.07194487      -0.06793552
Na      15.07339664       7.32486651      11.09686789      -1.68136894      -0.43567133      -2.42370815
Na       4.15624968      10.20804966       7.32869921      -2.34562638       1.04675383       1.47314936
Na       7.49531068       3.50271669      -0.49025600       0.11949724      -0.62789752      -0.25331857
Na      10.72714681      14.88262430       7.78627784      -0.77358963       0.98001226      -1.69641204
Na      10.09091773      -0.10917744       4.10557878      -1.11494013      -0.45795100       0.16106526
Na       6.49082820       4.02110907       3.62003343       1.20231987       0.50755486       0.00665131
Na       7.01719558      14.34567512       3.80711064      -0.82875426      -0.37071373      -0.89627491
Na      11.14851943       3.45748993      14.90509374      -0.04034939      -0.01470738      -0.51666509
Na       6.62849238       3.74835759       6.92927147      -0.92358158       1.66133976      -0.14103558
Na      10.38435804      -0.00395387      15.25599781       0.83284787      -2.74646750      -0.04325175
Na      11.53769239      14.31448210      10.92427964       0.84969459       1.62871039       1.91007422
Na       7.48178693       4.00309458      10.73139306       0.94422830      -1.65983603      -2.79420990
Na       7.48330983      14.59791011      11.51628515       0.36771789      -2.76419338      -0.17446769
Na      10.17351065       3.90716677       7.22005040       1.31192837       0.51999346       0.67326588
Na       6.68200767      10.97957264       0.55884146      -1.20734892      -2.31103907       1.11182776
Na      10.62840030       6.91316561       6.51393526      -0.66716858      -0.63066201       0.81478735
Na       9.52397845       6.80613708       3.51667076       0.79573057       0.67682344       1.69753100
Na       7.24011383      10.77885585       3.81987050      -0.42669716       0.07913453       0.72149128
Na       6.55099663       7.71656804       2.98296325      -0.05312268       0.54463104       0.27453887
Na      10.91068686      11.37730861      -0.22903726      -1.39478765      -1.61653638       0.83848644
Na       7.54847021      10.59090670       7.83419557       0.17115752      -0.14440086      -1.32414713
Na      10.97423377       7.27492987      14.20862694       1.83380050      -1.08133272       0.53266635
Na      11.35301335       7.23035302      10.66315276      -2.05572195      -0.58951317      -2.06301973
Na       7.19218217      11.22610407      11.36137419       2.62968406      -0.08596784       2.15757625
Na       7.56169629       7.57868577      10.84071839       0.99778474       1.10123138       1.93750548
Na      11.24065309      11.24659043       7.46961174      -1.12016696       0.71151472       2.62121211
S        0.71527572       1.47000481       1.26452810      -1.01334709       0.55273856       4.49340884
S        1.51755121       6.22320894       5.75563915       0.92953544       1.58161824      -2.30946117
S        5.85423635       5.52078069       0.75884890      -1.43296914       0.58816622       0.08263548
S        5.73376083       1.25721024       5.99488302      -1.41312850       1.00517251      -0.24962997
S        4.59400934       2.05197126       2.47414533       1.72668677      -0.02787067       0.31676427
S        4.48953559       5.31396809       4.70390429      -0.95669683       0.15816458       1.76243672
S        1.71598373       4.93403047       2.18040445      -0.53775014      -2.00870129      -1.35791370
S        2.04373180       2.61240600       5.14931080       0.73646607      -1.92347144       0.84929681
S        1.39651716       1.14695111       8.40792447       1.38553242       1.40929981       3.07485188
S        1.50637106       5.80965856      13.49936979       1.48565876      -1.05678648      -1.40304300
S        6.21659792       5.93244652       8.61330614       2.56106847       0.37572780       3.05434969
S        5.80652626       1.25037101      13.37033979       0.11218864      -0.42389589       2.52095396
S        4.91908874       2.11730792       9.63524723       1.70278582       0.28784251       0.78916805
S        5.27562425       4.74591739      12.26081360       1.17626188      -0.25479998      -0.48900270
S        2.34033056       4.91519499       9.78555127      -1.46293438      -0.04389234       0.33764087
S        2.22408273       2.26673129      12.37634439      -0.32665147       0.67872526      -0.04076160
S        1.14528145       8.54690382       1.61202330       0.09089642       2.84607981      -0.46283881
S        1.64825306      12.79998481       6.14111531      -0.70770807       0.86577059       1.32086467
S        5.64142092      13.21970814       1.76314305      -1.66852171       3.70687723      -2.94283235
S        6.12461506       8.86163583       5.82327813       1.28171122      -1.49171780      -0.62010642
S        5.02344337       9.29517218       2.12861996       1.72312738      -0.68026167      -1.89685020
S        5.06534684      12.10742916       5.08639521      -1.37852310       2.07824405       0.53616172
S        2.14371472      12.26805952       2.77397967      -2.94812957       1.13698800       0.93173318
S        2.59826126       9.26468376       4.88344241       2.43655827      -2.97182996      -2.53939319
S        1.84841418       8.38240203       8.83876696      -1.19089067      -0.52083829      -0.84615097
S        1.39191425      12.58697200      13.47598329       1.01091002       0.11054862       1.21221517
S        6.18975035      12.96472547       8.89981368      -0.56178902      -0.82531390      -1.28488386
S        6.08745998       8.94848522      13.01711511      -1.85893706       0.88304875       2.54851442
S        5.28513684       9.58705747      10.00251561      -0.64453374      -1.28278202      -4.52363195
S        4.99934198      12.35827247      12.58779096       0.10170430       5.27863123      -0.67544223
S        2.63041323      11.69300277       9.57308195       0.44034782       0.72870447      -1.72785875
S        2.52223963       9.17898019      12.60558974       0.80226345       0.65694435      -1.55706611
S        8.42400555       1.63091009       1.36363575       0.80866936      -2.00068988       2.61919037
S        8.05625238       5.75472273       5.47437194       1.06215166       1.49773131       0.70750840
S       12.68425357       5.75670380       1.41912870      -1.21755837      -0.70388623      -0.74825535
S       13.10350788       1.05420499       5.60335139       1.47777905       3.36041957       2.53622085
S       11.92938177       1.82708266       2.41234382      -2.47127893       1.20039306       1.58354763
S       11.66222579       4.68378255       4.98640612      -3.63071634       0.79840101       2.40511190
S        9.00220694       4.67752822       1.82098597      -1.74585235      -1.17072150      -1.66140284
S        8.98072730       2.15047103       5.22657822       1.03402901       1.82267790       3.03282310
S        8.36386229       1.91567964       8.77566752      -1.04778353      -1.36223599      -0.33907053
S        8.82119291       6.18051694      12.87567381      -0.13989802      -2.68256817       1.07588134
S       13.18441542       5.79136508       8.55182702       0.29239696      -0.25827922       1.34217588
S       12.67406867       1.12875227      12.89977191       2.59391927       0.29649555       0.23775846
S       12.15277025       2.12582970       9.24479002      -3.23538704       0.73903633      -2.03579563
S       12.21793846       4.83855994      12.14784544      -0.21009938      -0.51287359       0.76423665
S        9.56232327       5.06811990       9.41655497       1.73285500       1.15333750      -1.01966519
S        9.42465669       2.35265927      12.32502265      -0.39192110       1.23223192       0.51213029
S        8.40567838       8.43895792       1.07531532       1.06589396       2.02117743      -1.73537083
S        8.62205369      13.00398422       6.38889496       1.69623958      -0.15403272       0.07073019
S       12.80887302      12.57237649       1.31588138      -0.62755886       1.11664342       1.20611480
S       13.03628280       8.81475749       6.48241922       0.68003859       1.46543047       0.21483364
S       12.13539726       9.14084811       1.83962745       0.74856919       1.39491454      -2.93243615
S       12.16885081      11.86045066       4.77803506      -0.40360704      -0.71606146       0.59253121
S        9.22406105      11.91565104       2.44162173      -0.13632543       2.11219461      -1.56938927
S        9.42473129       9.24874002       4.75814711       1.76317483       2.19526701       1.61369719
S        9.01456165       8.37753929       8.41705418       0.65259115       1.22129607      -0.13700453
S        8.70302278      13.11209902      13.31991749       1.65662195      -0.08812467      -1.65881958
S       13.14734024      12.66638404       8.86175369      -1.53105024      -2.36516867      -0.42516202
S       12.86020730       8.06440606      12.98885632       1.48046567       0.81874528      -1.24882064
S       11.66931698       9.34368416       9.08365885      -2.01977995       0.24691636       0.06838875
S       12.58612331      11.94472989      12.01448963      -3.03845654       0.03046635      -0.97534761
S        9.52371203      12.73383509       9.99294625       0.13282244       1.11497994       0.46784852
S        9.30181727       9.82689163      12.20088024      -0.39146531      -0.35220265      -1.34088231
Sb      -0.27307160      -0.28403799      14.41052908      -2.79495441      -2.23269632       0.42638436
Sb       3.07748404       3.82934165       3.56092148       1.51007763      -1.98024299      -2.66536866
Sb      -0.14183588      14.16088005       7.24360186       2.84379486      -1.94567467      -1.57050927
Sb       3.66473040       3.67893134      10.99776945      -1.62767276      -2.15489633      -1.87851244
Sb      -0.08477921       7.15798392       0.23020281       4.21097130      -3.63327613      -3.97514456
Sb       3.72276762      10.83875196       3.63311230      -3.66363771      -1.30587177      -3.23920904
Sb       0.30677468       7.19389890       7.41550476      -0.69748069       0.10960418       2.88104716
Sb       3.75980490      10.79278090      11.25149844      -4.94380678      -4.87893190       0.94891148
Sb       7.06247246      14.20523980       0.13946355       4.63382104      -4.44500105       3.41350374
Sb      10.26570680       3.24733200       3.48673879       2.04717895       3.54718466      -5.26014049
Sb       7.25813289       0.33956738       7.60799249       1.08487692       1.42013894       4.63545741
Sb      10.91343529       3.62911445      10.90914876       1.04614377       1.31458141       1.92542318
Sb       7.23973973       7.29824442      -0.29173612       2.62394367      -2.16241483       4.12644580
Sb      10.85585917      10.38773321       3.38534661      -2.04629652      -2.31951206       3.85811002
Sb       7.45552366       7.20634852       7.17503203      -5.57302499       0.42437365      -2.71249355
Sb      10.82424456      10.90777102      10.69176960       1.89814547      -1.19602303      -0.55567800
128
Lattice="14.3306 0.0 0.0 0.0 14.3306 0.0 0.0 0.0 14.5792" Properties=species:S:1:pos:R:3:momenta:R:3 config_type=highT_NSS128_900K pbc="T T T"
Na      14.17158188       4.07983456       0.62230900       0.05864023       0.81832775       0.81468700
Na       3.66528930      14.66288250       6.42674804      -1.05212751      -1.14804991      -0.93535094
Na       4.17497805       0.30295015       3.30861039      -1.48995953       1.83183660      -0.56818279
Na      -0.07647748       4.08734746       3.90218923      -0.54187024      -0.01875428       0.25699316
Na      15.17455784      14.66280154       3.89908463      -0.15635573       0.14521288      -0.27120453
Na       3.21976737       3.97581955      -0.66583867       0.09249962       1.25259248       1.70769263
Na       0.17429449       3.56310326       7.76037532       0.33292612      -0.72964334       1.36616995
Na       3.71169970       0.19269952      14.38848533       0.97011860      -2.80826581      -0.32127217
Na       3.43203585      -0.15256885      10.47686293       0.71966052       0.78818303       0.05606001
Na       0.23282950       3.79680876      11.75263838      -0.33242404       0.07881644      -1.57392057
Na       0.20167570       0.72459402      10.88734351       0.25413641      -0.92547142       1.48077061
Na       4.09587070       3.65248961       7.08590602      -1.98385020      -1.45100757       1.74357578
Na      13.48679879      11.14192315       0.34438969      -2.12462024      -0.63728739      -0.43615286
Na       3.41499047       7.24145640       6.28414144      -2.81849592      -0.60763626      -0.14753011
Na       4.98286838       7.20675607       3.52429559      -0.92845949      -1.91795299       0.39765350
Na      13.86542902      10.71466624       4.75169498       0.30756552       1.31242980      -0.36277055
Na      15.07693961       7.48351921       3.22649113       0.19659762      -1.86125041      -0.01499530
Na       3.14585988      11.41474771      -0.22603857      -2.56455158       0.11188129      -1.59032522
Na      13.96028283      10.65199490       7.79668436       0.08850565       0.32327119      -1.57542000
Na       3.25396923       7.49261083      14.54497156      -0.00760492      -0.16819135       0.08289529
Na       3.44811772       6.61545261      10.30803356      -0.08940867       0.59792153      -1.65206537
Na      14.25873019      11.98634122      11.30269485      -0.86109763      -0.30277142       0.91260914
Na      14.54552032       8.08304441      10.72154706       1.72870154      -1.52766989       0.86234762
Na       3.76270456      10.83463805       7.01202965       1.60911691       0.47359801      -0.35487809
Na       7.13930877       3.57456297      -1.37882461       1.50004203      -1.23755191      -0.22770157
Na      10.73466997      14.20785123       7.54708331       1.06625739       0.88157640      -1.11163427
Na      11.62396591       0.24134583       3.88781755      -0.33664434      -2.52227862       0.38343077
Na       7.05592403       2.78705919       3.09891851       0.82593347       2.82715387      -0.79692064
Na       8.02975515      14.05039535       3.82464198      -0.17431662      -1.66413229       1.60230375
Na      10.64050383       2.89480898      14.92031297      -1.55579628       0.11473956      -0.42492766
Na       7.13898521       3.83644600       6.86386661       0.33223466       0.65115507       1.42979685
Na      11.08682538      -0.50803704      14.71022891       0.61838048       1.45507295      -2.19695569
Na      11.00985147      13.67215209      10.71289742       1.33950624       2.11054261       0.16994349
Na       6.57722877       4.04287104      10.07419197       1.94233253      -1.06509974       0.93095601
Na       7.28643242      14.63558779      10.69844494       1.32096965      -0.04660087      -0.88828082
Na      10.60549689       3.28550121       7.14678206      -1.92853947      -2.08528090       0.51433222
Na       6.57295131      10.83669030       0.49316538      -1.55671196      -0.32663141      -1.34057323
Na      10.50880627       7.03663715       7.71043869      -1.49956415       1.06647517       1.57930735
Na      11.13970404       7.55363127       4.41123509      -0.74788298      -0.49561554       1.92839597
Na       7.02313883      10.32367003       4.52223346       0.60312507      -0.15314594       1.09482717
Na       8.03309593       6.68404861       3.56726158       1.32889898       1.00319158      -2.05998241
Na      10.03416134       9.76095358       0.16863383      -1.04653147       0.96738774      -1.10537652
Na       7.02155191      10.76464237       8.05084707       2.25490105      -0.49270840      -0.67888753
Na      10.26402259       6.60568271      15.13080794       1.86882507       0.91095165       1.12231068
Na      11.36276058       7.00066170      10.86640390      -0.00456319      -1.83510435      -0.21162719
Na       7.27609057      10.56968645      11.54485134      -1.76040633      -0.34863187       0.83366973
Na       7.21912445       7.26831884      10.98912499       1.83378161      -0.75237233       1.80084509
Na      10.05496051      10.70708803       7.31791793       0.96848939       0.67640290       2.45863731
S        1.81239329       1.77290194       1.22736703       3.45742215       1.70741743       1.38695026
S        1.32430239       5.55222656       5.86646503       2.33932315       3.60998775       0.94524347
S        5.81033766       5.68458868       1.08407030      -0.16178244      -0.09660130      -0.50812588
S        5.95199926       1.55496680       5.86091389       0.74457613      -3.53064235       0.43502187
S        4.66020244       2.43403255       1.51624722      -0.12797906       3.69617567       2.32314216
S        5.36256792       4.75224893       4.68779757       1.20548968      -1.60906670       0.73703664
S        2.16331610       5.12336880       2.24035085       1.04870787       0.87666981       1.49376838
S        2.69938567       2.40857429       4.94977764      -0.17168767       1.89000535      -1.26203717
S        1.65511187       1.14100104       8.52332136      -0.49209020      -0.32786033      -0.26170205
S        1.22877906       5.72746698      13.21326359      -1.15715827      -1.17843144       0.21954069
S        5.56265921       5.60477446       8.01853957       2.41992552       0.88514856       1.66691167
S        6.04388176       0.92530022      12.84135452       0.14159738      -0.33485285       0.27483929
S        4.70743179       2.11987524       9.12034820      -1.55916128       0.36442263       1.04128737
S        4.81692739       5.02861435      11.83462223       0.62841245      -0.10669034       0.67833393
S        1.84985498       4.65780077       9.50731655       2.54332713      -0.17710225      -0.96399848
S        2.37808048       1.75492128      12.01554249      -0.75718482      -1.99113403       0.99310907
S        1.58075582       9.07324062       0.95726341       0.51403783      -0.16653595       0.43244770
S        1.06359975      12.56082522       6.28350493       0.60183615      -1.45790095      -2.27097336
S        5.50550768      13.41085211       1.28664324      -0.47393415      -3.08914810       2.55140834
S        5.75294917       8.60216167       6.19819945       3.90799166       0.78609174      -0.93952171
S        4.61484904       9.39902329       2.13739903       1.62621891      -1.15474400      -0.32414934
S        5.04677734      12.17453773       5.18435392      -3.85570470      -1.42860720       0.59658344
S        2.17337974      12.52763427       2.71174086      -2.29241716       0.68351055       1.73382704
S        2.07781246       9.66919363       4.93726647      -0.52964552       2.49685113       1.32765305
S        1.47445744       8.39521235       8.63083307       0.23349984       2.78258130      -0.01935116
S        1.22494224      13.20984433      13.31037817      -2.88892420       0.72215235       1.96425639
S        5.94341280      13.36371932       8.55202401       0.86021002       0.37277603      -0.99767468
S        6.00888683       8.60201908      13.12677229      -0.06547212      -0.12359494      -0.97474339
S        5.22840462       9.64438970       9.59342170      -0.76215480      -0.88295977       1.78570618
S        4.54905277      12.15283744      12.32519697       1.78290845      -0.15197256      -0.77703111
S        1.93610450      12.07475093       9.86109111       1.77523541       0.92627036       2.55538407
S        2.21185383       9.51617542      12.40283592      -1.13356162       0.18794289      -0.15844766
S        8.59307439       0.96295669       1.33150087       0.54021872       1.67213607      -1.11521840
S        8.77023672       5.81828484       6.06559721      -0.13154391      -0.25305074      -1.20145980
S       13.27531596       6.41459477       1.89901825      -0.38132220       0.55553782      -2.04230134
S       13.39324772       1.64209337       5.75407065       0.68845959       0.48249166      -2.30818126
S       12.18617984       2.21595023       2.33412774      -0.25222188      -0.73674657       1.32471716
S       11.95778051       4.65575106       5.28004521       1.69497606      -2.23354440       0.65752004
S        9.30242924       4.58636861       2.00667324       0.30734405       4.63038009       1.09872776
S        9.39817850       1.84938786       4.52068352       0.20712254      -0.49448922      -0.79343857
S        8.74687291       1.62642572       8.20489448       3.12940377       2.21239092       0.42840299
S        8.36574609       6.03820044      12.95109030      -0.50539219       2.61819609      -0.62237358
S       12.91898995       5.51254341       8.78485582      -2.22878440       1.94206169       2.85318020
S       13.00615525       1.02039870      13.22239010      -2.49595469      -0.35772015      -2.73704819
S       11.94911308       1.78040759      10.06321354       0.80556898      -1.43281160       0.69332206
S       11.65521340       4.97976333      12.47124167       1.63447156      -0.45629974      -1.40461130
S        9.46035693       4.61471056       9.67922520       1.40934572       1.10422719       0.57132880
S        9.30540549       2.30555482      12.49504056       0.62319112      -2.11590077       0.62694404
S        8.19559560       8.44536837       1.41125658      -1.04740500      -0.74240670       1.93239121
S        8.60305316      12.41795218       5.86378376       0.33432437       0.79715128       0.44117042
S       13.40227298      13.38003104       1.87412629      -1.09397202      -0.76960519      -1.83823184
S       12.74505454       8.28064140       6.47489531      -1.39953799      -2.32286442      -1.25395994
S       12.30253298       9.66723941       2.72495487       0.48275737      -0.03007705      -0.88380410
S       11.88964797      12.16022438       5.37544316      -0.92331117      -0.54786695       0.67021201
S        9.00284804      12.09910308       2.32539561      -0.92062220       3.28383517       2.40364335
S        9.38566500       8.95524476       5.25650755       0.21051883      -2.52347287      -0.31711275
S        8.12855437       8.37029878       8.96874442      -1.02875640       0.52565798       2.98966953
S        8.15071527      12.16121379      13.54002923       1.35631747      -0.96645433      -3.67615550
S       12.74891681      13.07342510       8.87359470       4.25160534      -0.87284331      -0.31301944
S       13.02375731       8.48829171      13.06714902      -0.67962857      -1.98526488       1.05761127
S       11.93811495       9.79492949       9.20976014       1.63749482       1.00490235      -2.19275193
S       11.63527084      12.09354654      12.65120131      -1.76899459      -0.30127027      -0.52820144
S        8.99996264      12.01913019       9.72129806      -0.39884530       1.57025063      -1.36352316
S        9.38006146       9.27714876      12.17873872       0.21402086      -1.20535371      -0.64580162
Sb       0.15441027       0.21201619      14.72097820      -4.86587432      -1.55887553       1.48258928
Sb       3.81170201       3.63621920       3.35366940      -3.02595319      -3.79953699      -0.31436441
Sb       0.07408945      14.32565158       7.28354010      -0.19103230       0.41446020      -2.10820733
Sb       3.53413652       3.36356429      10.56446552       1.70594485      -0.29606422       0.60846705
Sb       0.09724223       7.49865446       0.01936943       1.78907635       0.93145527      -3.41884937
Sb       3.54797605      10.93398883       3.59721247      -0.44786176       2.16075455      -2.03546129
Sb       0.05845196       6.87810149       7.38017012      -4.43980876       6.70157139      -6.85454126
Sb       3.52306961      10.67717121      10.98640122       0.83446910      -0.24897391       3.57272302
Sb       7.30245688      14.00176696      -0.03119547       2.59141587       1.80297267      -0.48295150
Sb      10.65101384       3.49934776       3.65935779       0.79893503      -3.62042535       2.15512400
Sb       7.42198380       0.14680024       7.09906742       2.44731609      -0.54225205      -0.95731938
Sb      10.79420580       3.49161273      11.02797848       0.54021527      -2.64319580      -4.72323550
Sb       7.10694829       7.11290261      -0.11534854      -4.04312794      -3.28520812      -1.35721525
Sb      10.42718717      10.94365647       4.00719160      -2.16236744       3.05317469       0.62692676
Sb       7.11817365       7.13609749       7.43470803      -2.27733091      -1.04282470      -1.54762502
Sb      10.55211219      10.66411326      10.87335135      -1.52709012       2.47201901       2.47432340
128
Lattice="14.3306 0.0 0.0 0.0 14.3306 0.0 0.0 0.0 14.5792" Properties=species:S:1:pos:R:3:momenta:R:3 config_type=highT_NSS128_900K pbc="T T T"
Na      14.37040900       3.33393892      -0.14492926       0.23721574      -0.04196742       2.23978680
Na       3.51696880      14.22304194       7.75970677      -0.38278232       0.80078444       0.09514058
Na       3.50679837       0.21562103       4.32142936      -0.22878506      -0.59430632       0.38682076
Na       0.16640192       4.07159088       3.23391928      -1.14521887      -0.15555161      -3.01838342
Na      14.06119472      14.97729480       3.88619108       3.34372736      -0.13548955      -0.80871394
Na       3.70675100       3.13811556       0.22048809       0.50392492       2.40741879      -2.49118951
Na      -0.09552433       3.48952236       6.71487893       0.35309920      -0.68851590      -2.11089733
Na       3.49633404      -0.55346222      14.97160525      -1.12993688       1.40581374      -0.24809029
Na       3.03704111      -0.01890052      11.48585616      -0.48031509      -0.84177505      -2.51249628
Na       0.02639268       4.15577238       9.64018650       0.10094775      -0.61009357      -0.94717803
Na      -0.24065442       0.07637402      11.06156394       2.93258436      -0.47445147      -0.35890390
Na       3.58390782       3.28189885       7.14931052       0.97086065      -0.11549911       2.19680104
Na      15.18555472      10.70722147      -0.64363212      -2.61284740       0.31793388      -0.12208563
Na       3.53042135       6.71323374       6.75913787      -0.35217395      -2.39979041       0.23925500
Na       3.88744088       7.20365857       3.76719176      -0.99253761      -0.71925507      -1.97546280
Na      14.74948595      11.40266334       3.67486930       0.04632695       0.66700581      -1.64845905
Na      14.58543913       7.05732469       3.12551632       1.17741174      -0.51029351      -0.73757806
Na       4.40885792      10.88769143      -0.21099696      -1.27031643      -0.06480861      -0.15510716
Na      14.19743879      10.60785181       7.15295530       1.71760407      -0.18372136       2.09478494
Na       3.46414010       6.94115196      14.53511162       0.39647763       1.83530556       0.05070000
Na       3.51808159       7.57267433       9.80258896      -0.42654282      -1.24945480      -1.49557307
Na      14.30292204      11.34935116      10.59655047       0.05979113      -0.81352060       0.87478969
Na      14.13114267       7.46536521      10.85932895      -1.11230524       0.33947229      -2.65211266
Na       3.56549274      10.02699604       7.38554937       1.25376974       1.97835943      -1.33592512
Na       8.16497136       3.57400981       0.35006405       1.77766129       1.27250477      -0.93772094
Na      10.70831993      14.31628897       7.90049178       0.09865618       1.96959328      -1.39540844
Na      10.73417209      -0.43087936       4.31380061       1.42899217      -0.35524989       0.21007676
Na       6.81176772       3.44051946       3.57191955       1.09912172       0.76539082       1.08011038
Na       7.31945586      13.60543844       3.43600869       0.18764000       0.97771942       0.09562438
Na      11.29343830       4.09743158      15.10139448       2.19002462       3.73141458      -1.95274304
Na       6.88138178       3.35382410       7.95194670       1.76356523      -0.11145398       0.88756352
Na      10.63845986      -0.35414753      15.84705247       0.38830249      -1.15342445       0.62448623
Na      10.30231699      14.48329815      11.57717985      -1.12827463      -0.71339092      -4.23488724
Na       7.48196971       3.69919723      11.46542699      -0.36699480      -0.12191797      -1.23620819
Na       6.80665059      14.88669798      10.85845730      -2.07956816      -1.35055175       0.26145582
Na      10.45101396       3.29675360       7.32271288       1.86176261      -1.52468922      -2.11498918
Na       7.65484471      10.68019903      -0.61684901       1.46717125       0.67281843       0.93257347
Na      11.08056635       7.59304333       7.13308090       0.55588434       0.10304078      -2.75677301
Na      11.01032535       6.79437538       3.52646045       1.67347135      -0.99224545      -0.48172551
Na       7.26050859       9.87652451       3.40656549      -1.64076474      -1.40640471      -0.13490575
Na       7.60738597       6.63637910       3.94279946       0.34390453      -0.40250656       1.71381868
Na      10.72004090      11.46443594      -0.43253224       0.61598075       0.31728427       3.14517330
Na       7.05993213      10.82401229       7.21106445      -1.65027695      -1.94756267       1.56281149
Na      10.39225816       7.14761812      14.47925339      -0.52829094      -1.86082587       0.49819342
Na      10.17090417       7.02435700      11.25187142      -0.37610801       1.02770120       1.40842709
Na       7.32518876      11.53634042      10.95724786      -0.08703297       0.59064095      -0.96037073
Na       6.71243359       6.66478999      11.07637315       1.13018272       1.43887027       0.98276004
Na      10.75945461      11.03681247       7.23171068       2.34488504       1.41052272      -1.11135302
S        1.31083455       1.26894523       0.99653155       1.57574314       0.12656496      -2.64531487
S        1.17054802       5.42608212       6.05136139      -0.59802333      -1.57810414       1.84270158
S        5.70957281       5.44244356       1.39900563      -0.87934362       0.29068698       0.98927335
S        5.54566029       1.05299646       6.10754182      -2.46039920      -0.05432195      -1.41691260
S        4.67673672       2.00692002       2.64179964       4.42997149       1.02509645       0.07175292
S        4.86611918       4.82435694       5.09174707       1.74254953       0.23739625       0.17036012
S        2.44483647       5.02403118       2.15333478       0.09995422       1.20360504       2.73397903
S        1.83002578       2.31762621       4.68733542       2.24315310       1.18407981       0.33512857
S        1.36203302       1.55126174       8.37540806       0.08010231       1.68931564       0.02515693
S        0.93072101       6.02795978      13.09671033      -2.28947855       0.45296028      -0.22953704
S        5.48785754       5.91158758       8.56675732      -3.51527357      -0.10258591      -0.57158423
S        5.54363782       0.84853650      13.22154663      -1.44812786       1.24275447       0.68491720
S        4.50246524       1.94593796       9.70368914      -1.03092172       0.53945858      -2.42771033
S        4.94287825       4.50391653      12.60557416      -1.53050557      -1.49608837      -1.39026903
S        2.44529601       4.88496262       9.29801815       0.66287049       0.07684770      -3.13437888
S        1.76356502       2.48794542      12.21697905       2.64940540       2.51562195       3.07454248
S        1.57563018       8.43273141       0.89540202      -2.99448573       0.58589244       1.69248657
S        0.98779497      13.15068352       5.60215261      -0.12371385      -1.29159928      -0.86365528
S        5.93433882      12.72945822       1.08415341      -0.29883947      -1.78732067       1.32889689
S        5.69289496       8.46212488       5.75077817      -1.65385609       0.72467299      -0.53202102
S        4.69740605       9.22805517       2.39240577       0.02291919       2.28737244      -0.51490293
S        5.33122519      11.85513819       5.04511912       0.41610094       1.39760446       0.68457823
S        2.43133606      12.53171398       2.48200851      -2.08375717       1.65235845       3.44086643
S        2.19056952       9.70750632       5.38536085      -2.01563648       0.27457689      -1.54058866
S        1.42581357       8.29537260       8.44799501      -1.69425512      -1.69884342      -1.45814856
S        1.41606861      13.26921718      13.25412597      -1.44584113       1.39338097      -1.55954094
S        5.82310620      13.37144463       9.06088680      -0.72974785       0.32009742      -0.11021716
S        5.48860087       8.37944056      13.14905682       0.47313858      -2.04276597      -2.14112549
S        5.48322245       9.65781104       9.60808985       0.85834147       2.27414180      -0.26289930
S        5.18709082      12.29679489      12.24428050       2.26059358      -0.03067902       1.73175283
S        2.46453901      12.18541848       9.33945353      -0.98383151      -0.32117764       0.78710189
S        2.39968796       9.27740472      11.47964978      -1.10989747      -1.20925371       2.88175924
S        8.53437973       1.33574461       1.55262714       1.22262910      -1.45845428      -0.75302601
S        8.44999710       5.52577333       6.24132910      -1.27148580      -0.82839340      -0.46584081
S       13.08853330       5.67923997       1.49463295       1.41138869      -1.22035976      -0.45026721
S       12.65344660       1.25725332       6.12473528       2.11404140       1.40714617      -0.99045810
S       12.36057446       2.16495117       2.49052224       0.44397786      -0.09360413       0.78783501
S       11.92612260       4.90796240       5.43967098      -2.24972224       1.24471512      -0.99624105
S        9.40324579       4.86768412       2.56396976       0.57975784      -0.44232195      -0.98241729
S        9.18519145       2.16093202       4.74874882       2.35528519       2.11082914      -0.79215386
S        8.67873805       1.71096275       8.68655407      -0.72625103      -0.50626692       0.01338084
S        8.50300492       5.85180691      13.36312902       1.75576163      -1.90203421       1.25814373
S       12.62854750       5.86933905       8.64475548      -0.76226891      -0.60208733      -0.60869250
S       12.66522779       1.55578575      13.42019494      -0.36784838       0.76224788       0.76881904
S       11.88205954       1.98981515       9.96335479      -1.80514307       0.43811250       1.48226453
S       12.29966027       5.29618850      12.41128699       1.94035743      -0.11879817      -1.22139963
S        9.55037344       4.86931214       9.51639936      -1.26310187       2.69762751       0.48288453
S        9.41723155       2.55959814      12.73571662      -2.24001097       0.92670159       0.18799747
S        8.39612709       8.47146137       1.49074000      -2.33592846      -0.05041172       2.65619184
S        8.68859683      13.00872348       6.08707429      -1.80137197      -1.28266380       2.63186335
S       12.90954876      12.41496560       1.09958555       2.42974832      -2.02139833       3.44506953
S       13.20849228       8.70041040       5.77871871      -0.69139832      -0.35878153       0.64914650
S       12.15333337       9.11936027       1.76425961       1.59154213       0.26820495      -1.65910849
S       12.34019637      11.45386476       4.89587998      -0.00272395      -1.66266427      -0.74844833
S        9.24878536      11.64277522       2.38577318       3.19286011      -1.58294434       3.36031748
S        9.57897969       9.21062184       4.71733219      -1.08518994      -1.85656727      -1.75313251
S        8.57573939       8.83440707       8.38019954      -2.22693151       1.93838437      -1.90884352
S        8.78346320      13.07836905      13.30927935      -2.95164971       2.81450623      -0.75023616
S       13.25380894      12.75424497       8.69296661      -1.21262549      -1.72779943      -2.48492168
S       12.53952939       8.75459301      13.55739794      -0.18870170      -0.65810767      -0.63912666
S       12.09495634       9.55482387       9.24373052      -1.44019958       1.41873217       1.21280089
S       12.30908114      12.30584348      11.99449722       1.69680092       2.19442699       2.27032038
S        9.53601973      12.42004992       9.47426360       0.44310796      -0.06150996       1.42229374
S        9.61509502       9.63412426      12.01392798       0.61443526      -1.11317966      -0.76789107
Sb      -0.36053282      -0.14677570      14.53304423       1.79907254       2.44967860       0.97464185
Sb       3.51072576       3.65874886       3.61595827       3.27900290      -0.02691473      -2.10262551
Sb       0.00228235      14.41608428       7.28695896      -0.01339885       7.56249756       2.42137667
Sb       3.32515066       3.66556949      11.09628480      -1.77277903       5.83321518       3.50716501
Sb      -0.35489740       7.23480176      -0.04160456       3.87414095       7.38874382       1.20137606
Sb       3.69424531      10.96261501       3.81331277       0.24084348      -1.91828502      -2.20630216
Sb      -0.06784208       7.00996843       7.15976201       0.55275949      -7.42050939       2.34621061
Sb       3.91279836      11.00741104      10.76189274      -0.05654197      -2.88511231       0.68473016
Sb       7.28519538      14.36832974      -0.00320230      -5.51521807      -0.36768344       0.40495104
Sb      10.84929751       3.43230614       3.87880324      -3.19498755       0.77162854       1.38255899
Sb       7.35221456       0.07617685       7.42893196      -0.13189756      -1.53824971       1.72869079
Sb      10.86971318       3.68114693      11.08003637       3.44819177      -2.58736371      -3.12666813
Sb       6.96304010       7.04404969       0.08737317       0.32383564      -5.49967067       0.46633116
Sb      11.01404883      10.37961943       3.26308365      -0.27402005      -5.18188894       4.80932435
Sb       7.04798586       7.26288669       7.40492401      -2.52598906      -3.18343289       2.48438998
Sb      10.95451667      10.98674563      10.79216682       0.13906167      -4.44256288      -2.95563487
128
Lattice="14.3306 0.0 0.0 0.0 14.3306 0.0 0.0 0.0 14.5792" Properties=species:S:1:pos:R:3:momenta:R:3 config_type=highT_NSS128_900K pbc="T T T"
Na      14.04079653       3.54613965       0.47946250      -0.32898015      -0.53391406       1.33269130
Na       3.42538571      14.52729615       6.60820717      -1.18022320      -0.91323906      -0.53019146
Na       3.07788132      -0.17467231       2.72980636       0.41606826      -2.27134736      -0.97638313
Na       0.37194417       3.58870207       3.84359640       0.66752123      -0.64659193      -0.34311321
Na      14.44443274      14.43085591       4.18883341      -0.58085872       0.83509257      -0.17498546
Na       3.58055943       3.73073853      -0.20195072       0.40552888       2.83366943      -1.46014580
Na       1.35398548       3.42630453       7.76826518      -0.97299572       0.11289112      -1.13089593
Na       3.76507912      -0.08814568      14.10858293      -0.41852735      -0.57881064      -1.13600753
Na       4.26314583      -0.14454041      10.63189811      -2.68520800      -3.51381909       2.49934877
Na       0.30093730       2.87115510      10.81050307       2.00049260       0.66746318       0.35007071
Na       0.50374897      -0.62471137      10.82744102      -0.27154073      -0.72626805      -2.97148440
Na       4.48080212       3.77118106       7.35386134      -2.59311089       2.19331182      -0.08814025
Na      14.28997649      10.84330013       0.30171243       1.28014646      -0.37441924       2.40217450
Na       3.73536228       7.36961049       7.62143105       1.99981760       0.64503443      -0.71595784
Na       2.62857077       7.27185316       3.85091099      -1.41309608      -1.50928586       0.84485901
Na      13.89546651      10.70860035       4.35015995      -2.39677801      -0.69744186      -0.32656257
Na      14.40964570       7.70508149       3.38500698      -1.24812306       0.51607523      -0.18479334
Na       3.20812484      10.78781149       0.01013881       0.04758534      -0.52043410       0.78817495
Na      14.14900204      11.10379556       7.97571360       1.01913907       1.34469561      -1.62339257
Na       3.85996084       7.63541824      14.22234035      -0.82054915       0.00635677      -0.45566979
Na       3.95418076       6.83049597      11.11701598       0.82014903      -0.99370232      -0.26906041
Na      14.59451678       9.00698592      10.80438199      -1.30173826       0.05218686      -1.47405056
Na      14.60417664       6.14232491      10.71105968       0.52287675      -0.15014440       0.62973354
Na       4.52497396      10.62018096       7.19948575      -0.95361613      -1.13652823       1.44398317
Na       6.79348184       3.44739749       0.50024818       0.07662455       0.48273611       1.17851209
Na      10.19886888      14.51884581       6.82554866      -0.57208526      -1.41406152       1.30121949
Na      10.17845507      -0.26482723       3.19322784       0.29408442       5.47211236      -1.07981513
Na       7.75448812       3.80208538       4.56246248      -1.46401010      -0.51066439      -1.48830874
Na       7.02268558      14.05244620       3.57227382       0.18589831       2.95590205      -3.01131289
Na      10.42315336       3.78090736      14.24603251      -0.61595562       1.01745610      -0.72659820
Na       7.92993963       3.64011443       8.03117950       0.14592978       1.44351711       0.59385036
Na      10.96512710       0.42959797      14.23433678      -2.01103185      -0.60991503      -1.13364497
Na      11.13332813      14.30515652      10.65728664       0.65136166      -0.94860903      -0.38435222
Na       7.05013435       3.21783289      10.93901594      -1.63201294       1.41336010       0.09701579
Na       7.59543752      14.49720430      11.08598527       1.15330965       2.11513242       0.37382223
Na      12.07999333       4.17642474       6.61509709      -0.19947294      -0.48558239       1.26527600
Na       7.24912741      10.40700909       0.41028866      -0.39982056      -1.57569792      -0.81779108
Na      10.69193549       7.36510038       6.91406142      -1.99261937      -0.43585861      -0.50690383
Na      10.17147375       7.14583703       3.96775497      -2.59793686       1.35747233       1.55726786
Na       6.65164434      10.40602068       3.79707332       0.81105099       1.12392573       0.01579431
Na       6.35400454       7.25589014       3.88448639       1.10678000       2.08714699      -1.52542086
Na      11.00304670      11.29386945      -0.36582449      -0.83189857      -0.89816126       1.56148563
Na       7.46442276      10.96065898       7.55596783       0.49595310       0.34013905       0.84719805
Na      10.68209495       7.28631324      14.99070109       0.55439270       0.95326094      -0.57849061
Na      11.31217745       7.11139785      11.90296268       0.89543350       2.20684599       1.34199855
Na       7.30813372      10.56097998      11.65407045       1.50423071      -2.19829267      -1.19727616
Na       7.32656637       6.60281361      11.31904360       0.73139643       0.08748365       0.65967168
Na      11.08197848      10.75852563       7.25439315      -1.54224182      -1.96563535       1.21417808
S        1.27390513       0.97755781       1.45039486       0.20549979       0.15418183      -0.79220361
S        0.88604276       5.90425648       5.52998372       2.41617937       0.19359074      -1.03818289
S        5.61559051       5.64154130       1.25594655       0.46968047       1.79483424      -0.72804713
S        5.50833001       1.77813348       5.68552641       1.23104255      -0.84718413      -0.86232835
S        5.24235505       1.86714077       2.36902407       1.90743399      -0.23451782      -0.77553696
S        5.15877176       4.72691656       5.12210903       0.75966497       0.74705191       0.40562340
S        2.24267008       4.74449646       2.29501300      -1.52602491       1.85679370       1.50147661
S        2.11599019       2.08214575       5.03946517      -1.26195748       2.44639016       0.11350590
S        1.49424083       1.18114051       8.99344610       0.62409038      -0.78287313      -1.14769033
S        1.54508123       5.86714701      12.94589792       3.11060292      -4.46328844       1.89138387
S        5.74123552       5.78172025       8.45727115       0.89304352      -0.38387883       0.08717387
S        5.90450795       1.54760460      13.13617215       0.78442031      -0.97681421      -0.54452865
S        5.11137010       2.21682485       9.85313314       1.03784019       3.72552097       0.11551260
S        5.36151548       4.73935386      12.70888506      -1.52186820       0.91659856       2.38753089
S        2.67053556       5.07389174       9.64366548       3.03966384       0.50190294      -1.17623772
S        2.01737455       2.33538593      12.37822831      -1.26527096       2.26649957      -1.51147046
S        1.30237791       8.54825951       1.02132521      -2.09487075      -0.78848822      -1.33224976
S        1.15585633      12.97226927       6.19152531       2.56015892       2.31808320      -2.23745833
S        5.50778088      12.81853955       0.98304849       0.63688649      -3.72998783       0.70061503
S        5.58828384       8.63431136       5.83907481       0.93149119      -1.17246850      -0.73867186
S        4.72327203       9.41260873       2.46174655       0.07561553      -0.54973194      -3.19206412
S        4.94253955      12.31223235       4.96200298      -0.05031281       0.50314424      -0.76006516
S        1.57831952      11.72561298       2.35870216      -2.80422899      -2.65418806      -1.63971870
S        2.29160739       9.45452064       5.32438834       0.51316421       2.99225350       0.13802149
S        1.37865136       8.36625311       8.59602274      -1.62515643       2.08110364      -0.27673239
S        1.39258594      12.73583065      13.26000495      -0.36422553      -1.94768921       0.40049458
S        5.38644631      13.14819789       8.44204351       3.69439607       2.07122743      -0.77245917
S        6.10092826       8.39203967      13.14369775      -0.67984391       0.45586600      -0.44759108
S        5.06855952       9.39956885       9.64047296       0.11666291       0.40021037       1.87644012
S        4.79472731      12.21918065      12.12682472      -1.54444873       1.48813274       1.38639150
S        2.11220904      11.94966953       9.34589625       1.44626511      -1.79723259      -2.77061263
S        2.25350514       9.47209240      12.43190915      -1.37172383      -0.14661860      -0.61198549
S        7.98282643       1.15750311       1.61651288       1.00462807       2.82458037       2.51924056
S        8.51018308       6.05651551       6.03076753      -2.33556289      -0.11110294       3.04825331
S       13.29878201       6.02618677       1.45799977      -0.62212236       1.92946501       0.32708438
S       13.65562467       2.14392159       6.28899209       1.22105111      -1.04831584       1.45361131
S       11.86251869       1.67869329       1.97224673      -0.16693883       0.64191698       1.94105935
S       11.92008965       5.34620523       4.28899579      -0.78500423      -0.82348690      -2.71938374
S        9.16247200       4.79047217       2.49240206      -2.55774367      -1.84313202       1.85260067
S        9.74966367       2.34039708       5.39518628      -1.71447371       1.62993599       2.63732611
S        8.25616630       1.21788176       8.76557691       0.70832810      -3.20519144      -0.62443972
S        8.91532516       6.09791185      13.46779021       1.91504389       1.05531448      -0.20265119
S       13.11694468       5.71359003       8.47775976       2.37703007      -2.28423031       0.64682742
S       13.23840267       1.73135747      12.98788847      -0.23362214      -1.03865629       1.49582424
S       12.32307905       2.83913723       9.57689195      -0.65905806      -0.08986072       0.01140433
S       12.41319942       4.72374666      12.56516274      -1.03952613       3.74618028      -2.34053293
S        9.07971175       5.11589284       9.80594186      -0.38745879      -0.20909282      -1.80568267
S        9.66534511       1.97441765      12.39577864      -0.30557300       2.24901654      -1.98030363
S        8.38605095       8.09406513       2.18838371       4.16293523       2.16501405      -0.35163839
S        8.04803706      13.36978623       5.76113727       1.52068204      -2.23289498      -0.35892601
S       12.65406350      13.13463142       0.87068324      -2.25331663       1.11783186       1.95230388
S       12.78043019       8.69191072       5.94677171       1.20109827      -1.88785177      -0.32863414
S       12.12036541       9.37275690       2.47987882      -3.16603257       2.19050001       0.40450055
S       11.65529600      12.52992445       4.51236425      -0.39210325       0.63015324       1.85085288
S        9.10493194      11.76905846       2.13880816      -1.50936404      -1.22425697       3.07970546
S        9.05295415       9.47444823       5.30167877      -1.62771991      -0.36355609       1.97885172
S        8.61008391       8.60325732       8.55581582       0.63196756       2.52466923      -2.75735813
S        8.89794071      12.98614268      13.50273600       2.07488507      -2.03076059      -0.63275996
S       12.57656984      13.33771706       8.49129464       2.53761156      -1.11917382      -1.84778694
S       12.92495721       8.84391774      13.31308397       3.20010034      -1.64034587      -4.35427324
S       12.21135575       9.44233668       9.48138244       0.19932709       0.68028529       2.62130646
S       12.47533467      11.80744590      12.13402487      -0.27855000      -0.75978282      -0.27715921
S        9.78422455      12.21071242       9.55535502       1.02937507       4.61137010       0.38883739
S        9.53518989       9.31308891      12.09896757       0.50066882      -1.90839122       3.12736682
Sb       0.13752696      -0.07459149      14.42677796       3.23929827       3.10098217       2.33416874
Sb       3.82307737       3.43829249       3.53852380       3.75010419      -2.61258087       4.42949230
Sb      -0.00279085      14.48968532       7.46230865       1.27877201      -2.72031913       2.62936750
Sb       3.75819968       3.38665064      11.22479512       1.66853436      -3.10785255       1.85565693
Sb       0.01766597       7.21965200      -0.32445450       3.02473616       0.30746211      -1.36224225
Sb       3.42896753      10.88819195       3.69077267       0.77466008      -0.43585026      -0.35501514
Sb      -0.08722318       7.27786710       7.26747885      -3.38125444      -1.30080873      -2.56070714
Sb       3.56051008      10.69709886      10.73591973      -6.35722217      -0.78217902       2.80006502
Sb       7.07925850      14.12996592      -0.17872196       0.64858737      -4.75563893      -4.24344199
Sb      10.80912812       3.41523343       3.44597511       2.64623268      -1.41575404       1.44867757
Sb       6.60752922       0.22923391       7.00653309      -3.65932655      -1.90698519      -0.05050971
Sb      10.64524716       3.69015663      11.01632797      -3.38788497       1.91518138      -1.52316032
Sb       7.22791350       7.13737182       0.38853116       2.76923349      -3.19068222       0.79799122
Sb      10.40344661      10.58999527       3.60685227      -1.46511195       1.51278175       0.19704034
Sb       7.05761380       7.48900556       7.27252441       2.82683266      -2.00962315      -2.31717938
Sb      10.81395931      10.69720212      10.79613381      -5.73196312       0.13244889       1.52845715
128
Lattice="14.3306 0.0 0.0 0.0 14.3306 0.0 0.0 0.0 14.5792" Properties=species:S:1:pos:R:3:momenta:R:3 config_type=highT_NSS128_900K pbc="T T T"
Na      14.34938172       3.85489256      -0.10206193       1.87915062       2.67469475      -0.28813585
Na       3.29630649      14.69455907       8.05318599       1.23171827      -0.12150562      -0.26784908
Na       3.67517977      -0.05050022       4.17195793       0.56104047      -1.49886230      -0.94184775
Na      -0.27543199       3.45512814       2.98295080      -2.34108527       1.32212769      -1.50021552
Na      14.81445182      14.39818630       3.41776975      -0.85821147       1.48640386      -0.00203806
Na       3.81276616       3.74989570       0.05837835       0.21503383       1.33732120       0.45889299
Na       0.53667339       3.66114981       7.20445552      -0.73108274       0.37989609       0.72061896
Na       3.21340394      -0.11928559      14.85720701       1.85057609       1.68191160      -2.17888051
Na       3.43751439      -0.50502456      11.29158169       0.72446123       0.52436408      -0.54820392
Na       0.15801245       3.90634866      10.27124091       2.56709926       0.78325537       1.00502391
Na       0.17789036      -0.60784777      11.20229880       0.58908492       0.83178230       0.27101869
Na       4.08277666       3.45299815       7.61830569      -1.87690710      -1.62548746       0.52975899
Na      14.78666566      10.82816585      -0.22859672       0.02359712      -1.63966725       0.62376894
Na       3.65500676       6.64248690       6.98750786       1.03023692      -0.88129403      -1.42220351
Na       3.53320978       7.06820708       3.64812748      -0.25442098      -1.45507066      -0.27918535
Na      14.60086305      10.63307881       3.61351256       0.09984685      -0.24797981       0.27078163
Na      14.34519429       7.24986080       3.66037730      -0.66292482      -0.21968531       2.50245139
Na       3.37800281      10.90532279       0.02708515      -1.32778257      -2.31395386       0.74022074
Na      14.27780132      10.79038895       7.58674673      -0.05574927       1.22010168      -0.47664608
Na       3.88652718       6.98286383      14.50734150      -0.69701023      -0.57340011      -1.07344880
Na       3.82805700       7.54597446      10.99317129       0.26807808      -1.18096593      -1.20353688
Na      14.35915264      10.25235650      10.89724525      -0.36792570      -2.34473864       2.53532383
Na      14.57215181       6.93560483      11.03677900       1.92174577       0.55532339       2.92226129
Na       3.93636536      11.31465903       7.19654898      -1.18757656      -1.78600721      -1.66090388
Na       6.99959997       3.64998088      -0.88282302      -1.20860709      -0.68898857       1.23730656
Na      11.32854391      14.17050128       7.31769996       5.53919694       2.79642424      -1.26705675
Na      11.32535345      -0.31120650       3.85277601      -0.90425273       0.04350645      -1.45190943
Na       7.18287194       3.39555051       2.67084589       0.87323873      -1.52992651       2.51074481
Na       7.90836631      14.15598319       3.69709461      -2.42941186      -1.55043835      -2.18857566
Na      10.20174126       3.33222184      14.51470366      -0.43968204       1.81358427      -1.06648494
Na       7.67214805       3.49656651       6.37802672       0.55975373      -2.01871016      -0.21370267
Na      10.61315735      -0.24422249      15.04095092       1.51465424      -3.40834449       0.80791201
Na      10.93207282      14.73683367      11.33617984      -0.91714319       2.09423496      -0.94858947
Na       6.89261009       3.09019991      10.17023859      -2.22734725      -1.03791901      -1.56829841
Na       6.76974249      13.92721163      10.92106396      -1.99484156      -0.74791949      -2.17327976
Na      10.94867965       3.13663173       6.94573463       2.24978160       0.39619710      -1.52279522
Na       7.43748184      10.52655480      -0.24585535      -0.76406047       0.05621827       1.07340262
Na      10.68712136       7.31699903       7.47077917       1.12551578       0.82261587       1.91894259
Na      10.68086013       7.32190617       4.21995205      -0.89717066      -0.21358433      -1.60257951
Na       7.30805751      10.11878570       3.31391548      -1.66598856       1.42133252       1.04984715
Na       6.58135095       6.54513943       3.83944056      -0.13280699       1.29325922       0.83831342
Na      10.65223572      10.54466874       0.73186375      -1.61310327       0.41175255      -0.60560353
Na       7.25394232      10.69156948       6.96138637      -0.51807195      -1.78719330      -0.71232392
Na      11.07496754       7.11848607      14.84579699      -0.66416142       0.44058378       2.76098453
Na      10.57227893       7.37073466      11.02351393       0.02900576       2.50513361      -1.72221239
Na       7.40018486      10.46800760      10.14412720      -3.26643763      -0.15147190       1.60246229
Na       7.38125561       7.00267856      11.13505234       0.50183604       1.10370411       0.57912341
Na      10.62518518      10.64103944       7.67409828       1.21456332       1.02693059       2.47925141
S        1.07843593       1.65588014       1.27740277      -2.35768713       2.06485838       0.03362408
S        1.37861646       6.01225996       5.55500658      -2.83055463       0.90860332      -1.19786043
S        5.69984736       5.90211878       1.44971486       4.52723887      -1.08050740       2.07820833
S        5.56225297       1.28427467       6.32956482      -3.09011357      -1.14196661      -1.91566058
S        4.71517912       2.11115618       2.14093377       1.72190698       0.53820002       0.57531698
S        4.94232352       4.60896830       4.70972019      -1.98448765       2.16263809       1.89321538
S        2.01260259       4.97516535       2.11338647       1.06163338       0.65112788       0.87242124
S        2.06547370       2.24652062       4.94414110      -0.82420523       1.51032736      -1.45514144
S        1.22772134       1.39041220       9.08871805       0.84194098       0.04057208      -0.07663364
S        1.80120609       6.31258974      13.30477704       0.86224037       0.30410563       2.01231761
S        5.69535007       5.49545021       8.46843617      -1.00698718      -0.08760391       0.82164341
S        5.28254256       1.06255051      13.18451254      -2.53308299      -1.38428876      -1.77693610
S        4.57088074       1.89013586       9.76452144       2.19182044      -1.76977066      -2.38197291
S        5.28324937       4.98220164      12.21316423      -1.69639676      -0.09481186       0.13809829
S        2.51872363       5.10054036       9.66379462      -0.94895658       0.08887941       1.03900185
S        1.87087079       2.70260272      12.45006784      -1.13964565       2.17142955      -0.80970113
S        1.45997284       8.70775316       1.51450095       0.13934281       0.41827957      -1.51519495
S        1.50229956      13.34968467       5.99635862      -0.54537833      -1.65912463      -1.40547982
S        5.98470522      12.93838901       1.52721295       1.68288879       0.55231152       1.79866743
S        6.19571989       8.38396583       5.67314729       2.22948290       1.25114007       0.39936317
S        5.10868824       9.36863033       2.19338360      -1.06428404      -2.90393667      -1.46256221
S        4.94275780      12.05809303       4.72191501      -1.15107839       2.49314147      -1.10390572
S        2.44009132      12.03454629       2.37717834       1.14902140      -0.24124030       1.39229309
S        2.39781207       9.41738395       5.17134945      -2.93128577       1.48067131       2.05294213
S        1.50520401       8.16343380       8.86370417       0.92655019      -1.49585184      -0.36943835
S        1.47300882      13.04644644      13.33891966       1.16913415       0.82948504       2.12895678
S        5.89243593      12.53263165       8.60469488      -0.60159337      -1.96096706       0.73683391
S        5.81140109       8.75269661      13.31553005      -2.29257242       0.69192103      -0.04342414
S        4.65943806       9.22948388       9.02648947       1.82360801      -2.16743446       0.73509480
S        5.35867203      11.70642359      11.82086851       2.48659023       1.00387864      -1.74046507
S        2.07988246      12.21803440       9.54993676       1.34518911      -0.64313382       0.94577228
S        2.32221648       9.45975683      12.02717629       1.95121057      -0.41477025      -2.10977562
S        8.08788892       1.52411822       1.15876396       0.54794106       0.73508535       1.02895471
S        8.87798206       5.84641302       5.83277354      -1.71429027       1.32165378       0.84575810
S       13.10943548       5.90060967       1.23624194       0.48775679       1.21403355       3.35775744
S       13.15615327       1.60650353       5.99120199      -0.04973294      -0.89897083      -2.32519790
S       12.00366444       2.37661864       1.76165457      -1.66297706       0.25035369       1.26313215
S       12.39448860       4.67718493       4.63417654       3.10481616       0.53588857      -2.28886532
S        9.62431218       5.21964025       1.90132855      -1.24303709       1.34538288       0.51780998
S        9.63909246       1.85157019       4.81287150      -3.51074433       0.21867767      -1.52893364
S        8.16714112       1.18053718       8.92994877      -0.90419648       2.02587047      -1.62034216
S        8.58485087       5.97869546      13.42477030       1.70647102      -1.56082714      -0.40005797
S       12.97571202       5.57651335       8.43166443      -4.24681281      -2.69325668       1.01767650
S       12.76583534       1.27019316      13.17451919       1.53284994      -2.98634225       0.32378023
S       11.73019437       2.51598301       9.54598660       0.26362226      -2.60308236       0.75008306
S       11.76664560       5.00639121      12.07116342       1.95174766       1.68500778      -0.95165623
S        8.56871821       5.24235391       9.60535444      -0.94902178      -1.05752483       0.30613126
S        8.91157493       2.25310222      12.07507211      -0.01281371       1.34048508       1.87930038
S        8.34558300       8.55276965       1.51515013      -1.12721353       0.35435287       1.45371503
S        8.82797614      12.98559168       6.18590813       0.69167060       3.22163020      -1.88114164
S       12.78438705      13.08180268       1.68679061      -1.27131400       3.50434307      -2.21142654
S       13.19450009       8.80637717       6.11762391       2.60806329       0.98772281       0.02466520
S       12.14985043       9.49699282       2.49241275       0.48990730       2.46977811      -2.20902284
S       12.08897284      11.96721090       5.66967870       1.81721773       0.07433244      -0.90989225
S        9.63769546      12.15561593       2.43351394      -0.44444508      -1.20394242      -1.47555794
S        9.37307426       9.61966970       5.36919891       2.18529776      -0.10131961      -0.24635126
S        8.30384456       8.58429684       8.52394895       2.24150609       3.46140351      -0.72157195
S        8.49189007      13.06264905      13.31741185      -1.20065705       1.10509925      -0.80447195
S       13.12703044      13.09695269       8.96988752      -2.21614836       0.36336952      -2.67487160
S       13.02752152       8.58227599      13.46745891       1.19488890      -1.19731103       0.53420694
S       12.20208952       9.55328705       9.83505032       0.09128490       0.51469562      -1.48793768
S       11.97494125      12.45844449      12.62068660       0.22657007      -1.66925476      -0.05494746
S        9.60744523      12.61447053       9.60056611      -1.42407634      -1.09857105       0.60738031
S        9.45763018       9.46131070      12.23186498       1.94552034      -3.43623729       1.04332862
Sb      -0.09139643      -0.03335060      14.75162553      -4.47750720       0.79909675      -0.22412474
Sb       3.33364086       3.44370483       3.53835434       0.50249971      -3.80127756      -0.06784351
Sb       0.03167649      14.49907315       7.47353401      -1.30681892       0.76706909      -0.02094896
Sb       3.52828101       3.60759523      11.21155527       2.79197764       0.15188270       2.17591601
Sb       0.25457462       7.25171126       0.02328484      -3.06566983      -2.95218688       1.55385986
Sb       3.67855326      10.58348678       3.62770909       1.40161508       2.76072897       1.40287646
Sb       0.02818318       7.18359058       7.39900282       2.21231360      -1.11449174       2.34505302
Sb       3.54397781      10.73922816      10.57384982       3.55929714      -3.41998002      -0.75000171
Sb       6.94547269      14.22311177      -0.18458770      -1.14345698       1.15881351       1.54520239
Sb      10.78786033       3.59904480       3.34199545       2.40638905       3.44218175      -1.06895440
Sb       7.06007779      -0.06433879       7.32682880       0.77024484      -0.65455640      -1.35295311
Sb      10.25957292       3.87041014      10.87613749      -0.84678178       3.96612346      -0.42648848
Sb       7.05540097       7.18442167       0.10369525       2.90844950      -3.73280145       1.15952596
Sb      10.88329632      10.71037280       3.95988360      -5.00572117       0.75548679       1.11340057
Sb       7.31118467       6.92345660       7.14016843      -1.02726626      -5.02638382      -0.31980288
Sb      10.76177651      11.09601068      11.02943879       3.53384288      -1.43793849       0.93232599
128
Lattice="14.3306 0.0 0.0 0.0 14.3306 0.0 0.0 0.0 14.5792" Properties=species:S:1:pos:R:3:momenta:R:3 config_type=highT_NSS128_900K pbc="T T T"
Na      13.76724714       3.70700373      -0.29709295      -0.78999049       0.11032136      -0.69954233
Na       3.44415237      15.29515431       7.04564206      -0.54720896       0.89325806      -0.61802040
Na       3.00374205      -0.03286597       2.89081394      -0.99214453       1.23712722       0.38913601
Na       0.39855013       3.81638245       3.00434653       1.64566085       1.20378708      -0.12724037
Na      14.06237781      14.84678638       3.76577907      -2.99682172      -1.65522871       0.62582220
Na       3.55673060       3.93361137       0.04930156       0.39732107       1.69934107       0.90527014
Na       0.29773925       3.66634014       7.03909056       0.46887393       0.88572200       0.62053047
Na       3.74983726       0.53561718      13.82179915      -1.95380243      -0.74035243      -0.51580696
Na       3.50500645      -0.46982749      10.82619168      -1.86494802       0.78821196       0.65554533
Na       0.01871008       2.88887771      11.24204680       1.30990139       1.17777466      -0.57026057
Na      -0.25073406      -0.46165411      10.86414785      -3.10490250      -0.14660812       0.23050561
Na       3.65611672       4.23322803       7.41828013      -1.63217387      -0.26265465       1.50421435
Na      14.21539287      10.94060075      -0.38274985       1.33408533       1.55160297      -0.70552488
Na       3.15220301       7.73702410       7.51023986       1.55422108      -2.56348102       1.59932922
Na       3.51274213       6.86412677       4.45218886      -1.19180613       0.81401812       2.07948323
Na      14.08926417      10.23456889       4.01302196       0.16225571      -0.69491181       1.85328335
Na      13.86510710       7.16788706       3.36627425      -0.22017827       0.36718897       1.10171241
Na       3.73238065      11.16627792      -0.47525894       0.96183137       1.62198274      -0.51275436
Na      14.32323999      10.66208431       7.45231206       3.49250287       0.79290528       0.06426327
Na       3.53475861       7.35574373      15.07515196       0.14559113       0.14537523      -1.59273093
Na       3.71377183       7.12109634      11.19777980       2.70620140      -2.30287210       3.23789098
Na      14.56489422      10.39594898      11.00653630      -0.55828200       0.69546044       0.94337403
Na      14.56515829       6.38164268      10.87641878       1.20559122      -0.49231613       0.64671063
Na       3.71578968      11.88344062       7.19801517      -2.65512305       0.35778555      -1.21705930
Na       7.52648585       4.11834617      -1.00654238       0.30486583       0.50424259      -0.73552214
Na      10.45646809      14.21820705       5.96488498       1.29272157       1.87072815       0.55019560
Na      10.67158531      -0.09258400       2.84135703       3.75279752      -1.31008539       1.29513602
Na       7.32714827       3.94685180       3.91158596      -0.39381976       1.83437962       1.80142003
Na       7.35731789      14.41604216       3.85924894       2.09975493       1.20848723       1.48016219
Na      10.74989123       3.07343642      14.73300788       2.89818856       2.30228314       1.32074246
Na       7.13357589       3.29410166       7.43029059      -2.21694238       0.27355942      -2.45096212
Na      10.84803174      -0.15159348      14.00924096      -0.00830892       1.35192603       2.07609577
Na      10.59913683      14.42414393      10.27370303      -0.54026925       0.72605814      -2.49117443
Na       7.87486734       2.69143232      10.49194428      -0.93285087      -1.82741952       1.94355357
Na       7.37863995      13.74260071      11.35703055       0.87388877       2.96969962      -0.97048164
Na      11.11505316       2.87374954       7.42404483      -2.09269711       0.78050639      -0.01501890
Na       6.61419978      10.94305940       0.62701079       0.47288349       0.49835145      -1.27675556
Na      10.71535097       6.87564133       7.91084498      -1.24221795       0.67664711       0.16138525
Na      10.81112051       6.86133950       3.96932274       2.05416337       0.41041134       0.31136967
Na       6.74742521      11.27593642       3.84721268      -1.28284833      -1.56881377      -0.00705319
Na       7.46802704       7.44888873       3.70481532      -0.06000390      -1.19922037      -0.41932877
Na      11.03188347      10.32568581       0.39138395       1.29066650      -2.32430668       1.20876581
Na       6.89631538      10.67026262       7.67811693       1.75922073       1.83269647      -0.26248964
Na      10.97915667       7.31953252      14.51474979       1.47603069       0.35495246      -2.14230009
Na      10.90149329       7.24578295      10.75623730       0.33204618      -0.94712551      -2.23388565
Na       7.39064903      10.43748062      12.20436106       2.50949795       1.18616334      -0.53504269
Na       6.91074199       7.24544556      11.08398070      -0.37516585       0.51265371       1.80865771
Na      10.59555703      11.17234103       7.46992284      -1.61491835      -0.04218884       0.74836127
S        1.28143249       1.68630128       1.36745045      -0.52428493      -1.40902590      -0.06599265
S        1.25342794       6.09364309       6.18712049      -1.28860829       1.06677165       0.53857389
S        5.82415989       5.68363236       1.46068572      -1.71410264       0.05824125      -0.33239054
S        6.04565650       1.12065572       5.80197431      -2.45501531      -0.97630403       1.14152566
S        5.08342274       2.30885477       2.05654331      -2.34716796      -1.05892733       0.34022295
S        4.89476019       4.71889458       5.18205083       1.34091002       0.21307841      -0.12503590
S        2.47325659       5.11654518       2.29682672      -3.69195933      -1.37196898       2.65926298
S        2.37029076       2.26485963       5.09107460      -0.42559950       0.00332865      -2.23911499
S        1.10324335       1.37875543       9.02995293       0.54355375      -1.69305814      -0.18933827
S        1.33360973       5.73457546      13.23205721       3.31027138      -0.21325949      -1.20319743
S        6.09643770       5.82184831       8.53774601      -0.22223689       1.96624987      -1.96225192
S        6.07503796       1.16353592      12.81499335       1.11885937       0.83953475      -0.95615454
S        5.13247073       2.06799186       8.75398568      -0.40073394       1.96457676       1.49955796
S        5.20775006       4.78735524      12.11135589       0.29487873      -0.60940873      -2.97107438
S        2.39795431       4.95861126       9.71333680       3.11928238      -0.71973858      -2.08767428
S        2.59513792       2.38066012      12.43673817      -0.47201018      -2.50541828      -0.55752087
S        1.16688408       8.90787814       1.28923533       0.37886445      -1.41384331      -2.23697302
S        1.32144064      13.09679103       6.02806128      -2.26989114       1.50900182       1.39090256
S        5.59500191      13.31264780       0.92818455      -1.16482310      -0.88711107       1.31634475
S        5.47597797       8.27535709       5.84942007      -1.59871448       1.11138302      -3.79513545
S        4.94037739       9.60639519       2.33132062       0.68223424      -0.10762256      -0.68596486
S        4.11710912      12.54605729       4.56012020      -1.41624553       3.42392501       1.08995277
S        1.34610189      11.42206126       2.20416086       2.58256040       2.46174844       0.72742103
S        1.97262030       9.47512825       5.52656920       1.32263234       2.39839426      -0.50656863
S        0.96000807       8.28255179       9.03996720      -2.94052969       3.15560368      -1.62994773
S        1.57579994      13.35270437      13.16040308       0.20179812      -0.51179162      -1.19950145
S        5.67126125      12.87587168       8.94837082       1.69039381      -2.35885051       0.11493105
S        5.56612469       8.54901953      13.40995988       0.89943139      -0.72562792      -1.04540495
S        4.84789292       9.24115604       9.60059042       0.05978518      -4.23430096      -0.96116400
S        4.86654438      12.19887253      12.15021816       1.97394676       1.17249492      -1.90824377
S        1.95981387      12.00478576       9.82656437      -1.07548478      -0.09501631       2.49667987
S        2.33383207       9.33530604      12.57111067       0.92854423       0.48117018       2.68248937
S        8.54709764       1.57414332       1.64426846       2.17993856      -1.83400264       0.48496730
S        8.73070154       6.25502489       5.62652571      -0.07131317       0.54821802      -1.96602433
S       13.20969188       5.86089949       1.25106954      -1.00700306      -2.11692240      -1.48838840
S       12.70736455       1.43973424       6.04426330      -1.21252128       0.75477175      -0.85018039
S       12.29663260       2.05404255       2.24378510       4.45276395      -2.41647794       0.51262196
S       12.44265069       4.65498347       4.84634973       0.05568796      -0.78998310       0.17947255
S        9.79759504       4.94103880       2.03103612      -0.07968830       0.20163368      -3.46202258
S        9.31168829       2.26055883       4.88055444       4.11948893       0.16102740      -2.37061848
S        8.56941402       1.44748994       8.38513558      -0.55595447      -0.61652875       0.87247386
S        8.74745705       6.29921235      13.55972372      -1.41828115      -0.57820288       0.53104813
S       12.79759021       5.60385801       8.90904611       0.21690780      -0.73734988       3.97037429
S       13.01818767       1.49891406      13.27906516       0.45654894      -1.50070027       0.76997732
S       12.38868418       2.10251083       9.91944992      -1.09036926      -1.18088512       0.97118713
S       11.75203626       4.87016876      12.96721861       1.56415609      -0.75848290       2.86854119
S        9.49481885       4.92247980       9.80684619      -2.34021490       1.17467258      -0.66380432
S        9.55654571       2.10728742      12.37289225       2.29105620       1.44821600      -0.89191176
S        8.48502035       8.41282912       1.43695368       1.33797158      -0.41454568       0.88486108
S        8.49632531      12.62398352       6.28387583       1.17449712       2.37631390       0.43098089
S       12.98325812      12.79155960       0.84032677       0.80410154       2.60486732       1.20113566
S       12.68845909       8.16414748       5.94204470       1.30211257      -0.90498237       4.22024166
S       11.99850620       9.28522627       2.57585914       0.20001562       0.69320439       0.20780273
S       11.91777199      12.44220534       4.68443362       1.44661908      -1.56920156       1.34365152
S        9.65729713      12.22885930       1.91730593       0.83403745      -2.10443470       0.25584007
S        9.00314249       9.84551693       5.12674441       0.61368025      -1.35430896       0.28209477
S        8.53488576       8.55131667       8.81305023      -1.40020954      -3.93952902      -0.81904275
S        8.77143626      12.80792237      13.45587895      -0.06887796      -0.06895477       4.68056102
S       12.63981628      12.79272927       8.45015128      -1.49343028      -1.83911690       3.42771101
S       12.80639832       8.27244111      12.78193125      -0.58070663       3.91240817       0.87618544
S       12.15698333       9.44163810       9.14964942      -0.78735212      -1.04285729      -0.98146552
S       12.08853790      11.95431232      12.22579814      -2.43589980      -0.77538419       1.35895971
S        9.30306830      11.89218998       9.85207137       0.83233307      -1.01935736      -0.02814067
S        9.65595151       9.19951646      12.24979844       0.60269926       1.90364190       0.78684913
Sb       0.03395757       0.06806356      14.53205530      -6.31802543      -3.88348305      -5.36735836
Sb       3.61235059       3.54916288       3.49386191       3.91172768      -1.57951991       4.39075063
Sb      -0.15280836      14.44604175       7.47015985      -2.43302011      -2.04602245       0.28279788
Sb       4.14284391       3.45589983      10.78143042       1.38566603      -3.85707427       0.26296024
Sb       0.07684949       7.32987032      -0.20207649      -0.57342966       2.13530260       0.28857192
Sb       3.20400851      10.62055766       3.54850525      -1.57822964      -0.16596969      -6.13088786
Sb      -0.28943496       7.06840920       7.42679587       5.61663907       0.33446669      -6.47277505
Sb       3.55300682      10.71029794      10.86722006      -3.24459690      -2.13763202      -1.39163348
Sb       7.43145429      14.44050949       0.09388036      -6.08614741       3.99556679       0.10432443
Sb      10.84829426       3.42064301       3.48355309       1.19123334      -1.09349970      -8.25463308
Sb       7.29785016      -0.19900736       7.59220727       1.05748318      -1.29596527       5.88419541
Sb      10.98340358       3.57541791      11.11400235       0.00882786       5.48797192      -5.23270978
Sb       6.94765147       7.30642520       0.12095891      -6.79126936       0.26259333      -2.66289046
Sb      10.53146586      10.89573009       3.64141011      -0.68931482      -2.45480849       1.73738754
Sb       7.21966098       7.37019972       7.24139669       0.54389744       3.45117070      -0.70277545
Sb      10.88089185      10.56443991      10.89506905       0.38188703      -1.86211640       5.26555941
128
Lattice="14.3306 0.0 0.0 0.0 14.3306 0.0 0.0 0.0 14.5792" Properties=species:S:1:pos:R:3:momenta:R:3 config_type=highT_NSS128_900K pbc="T T T"
Na      14.06742610       3.47726560      -0.03671612      -0.30440332      -0.41995669       1.26764150
Na       3.64852585      14.39981980       7.68257399       1.25298439      -2.99004595       0.09185356
Na       3.51549992       0.20259623       4.00084244      -0.22637565       0.49648847      -0.90816409
Na      -0.06870118       3.30156407       3.54889361       0.08152133       0.43777664       0.06838342
Na      14.31724771      14.16070781       3.76144273      -2.21619316       0.55168840       1.46490251
Na       2.98639490       3.70667167       0.06239533      -0.14524842      -0.03934782       0.46616239
Na      -0.04896559       3.84180264       6.73007657       0.63512713       0.18706555       1.36328992
Na       3.47108197       0.15160355      14.87241548      -2.47653939       1.44047002       0.93558587
Na       3.86605573       0.18011108      11.81761445       0.93006049       0.77086329       2.73778086
Na      -0.55488545       4.11101232      10.36976646      -1.90672387       1.16658842       2.09596363
Na       0.54940295       0.43519793      11.02074830       1.86887677       1.57152201      -0.83073828
Na       3.82712175       3.78041126       7.01651069      -1.29513822       1.63655924      -0.01953245
Na      14.59983675      10.30601169      -0.50655537       1.68563128      -0.84504972       0.42722898
Na       3.49452176       7.57946219       7.77300267      -0.72000627       0.24894357       0.28319701
Na       3.46161147       7.38925036       3.55810414       0.90081675      -1.51146976      -0.04516152
Na      14.36340478      10.34707255       3.51006772      -1.87495157       2.35069578      -2.07830625
Na      14.81965890       7.05157380       3.35325133       0.44776142       0.89519978       1.23105071
Na       3.44266205      10.51218577       0.00147796      -0.41903607       1.78255106      -0.18079618
Na      14.15027329      11.14584711       7.11532323      -0.22208630       1.07461253      -2.10982588
Na       3.43291834       7.19960625      14.64201996      -1.18159164      -1.02650026       0.02628176
Na       3.77789456       7.16693544      10.40792592       2.09018157      -1.07502532      -0.86785864
Na      13.71889633      11.31629074      10.58225333       0.94764018      -3.10649283       0.77302654
Na      15.27479570       6.97080541      10.27424260      -0.48593871       1.21967539       0.52942032
Na       3.55489664      10.85482064       7.07000522      -0.64261130       1.52659410      -1.46617538
Na       7.49904109       3.75955051       0.22588703      -1.61420273       2.50033592       0.05383504
Na      11.03827292      13.96135802       7.38499913       0.61801908       1.33877604       1.41625443
Na      10.78939166      -0.37153587       3.63489521      -0.92698298      -0.76847206      -0.06221223
Na       7.26001321       3.26099001       3.21028376      -0.60308176      -1.06837787       1.20144925
Na       6.79228104      13.95974392       3.61761074      -2.24866948       1.35798199       0.60510257
Na      10.60420500       3.63830055      15.19176505      -1.27390569      -0.88435518      -0.55834899
Na       7.10922821       3.39987392       6.75691139       1.34580530      -1.31032181       2.96681499
Na      11.15121495      -0.77766912      14.35276095       1.37185622       0.10840150      -1.76917275
Na      10.88135155      14.27273552      11.54076253      -2.18637935      -0.18061604       0.87309323
Na       7.34465693       4.08838846      11.05947546      -0.53623860       0.35672964      -1.36578584
Na       7.43437298      14.36141887      10.96451933      -0.57724651       0.59305257       0.10893453
Na      10.65727268       2.77631638       7.55257508      -1.11481002      -0.00819380       1.87442426
Na       6.93705627      10.50037168      -0.31559538      -1.39736538      -2.35518688      -3.11588409
Na      10.64468228       6.96495508       7.44615281      -1.50859996      -0.31755756       0.82824896
Na      11.52535551       7.55166998       4.07285049       2.47710006      -1.13620168      -0.64980787
Na       7.45013617      10.28718264       3.68220310       2.16596189      -2.82705764       0.39455262
Na       6.92533769       6.83884014       3.20956073      -0.54490281       1.82982769      -0.55095507
Na      10.57558677      10.27526248       0.22164196      -1.49136485       0.16444291       0.80045531
Na       7.32626307      10.65342255       6.85044860       1.25772011      -0.47043235       0.45401984
Na      10.32485774       6.99117395      15.16487571       2.05298377      -0.20743924       1.24099930
Na      11.29495641       6.91666636      10.83257961      -0.68891573      -1.00276725      -2.51255643
Na       7.23781262      11.55094621      10.43852302       0.60047061      -1.34627999      -1.15729142
Na       7.86747369       7.65380972      10.92532227       0.74125440       0.07168898       0.33145077
Na      10.62735171      10.84023969       6.94259090       2.51660766      -1.21321703       1.23741373
S        1.12713526       1.68437005       1.57397992       1.51590361      -0.20829026      -0.55664147
S        1.42145323       6.07340252       6.06054077      -0.91845044       1.32245415       1.73362848
S        5.42752792       5.71945066       1.00164297      -1.52875430       0.19961025      -0.17693825
S        5.64595666       1.17348796       5.86866301       1.17536159      -1.45718665      -2.55152252
S        4.91690736       2.35657707       2.25251917       2.39551597       1.22402748       1.65079713
S        5.16206973       4.98288228       4.92246028      -0.51568930      -4.67032519       2.69116654
S        2.10730299       4.98732313       2.54362360       1.41931751      -0.78687612      -0.24350046
S        2.40968784       2.46136339       5.36161801       0.69101471       0.26453353      -0.29156235
S        1.27420171       1.60932388       8.69145461       1.27011169      -1.49972737      -1.80239124
S        1.02145512       5.23520542      13.25713717      -0.21176252      -1.03417002       0.32722274
S        5.89363496       5.80155200       8.81559525       2.03289210      -1.82741677       0.84136635
S        5.87719031       1.73731167      13.00765197      -2.12817271       2.39885259      -1.68483360
S        4.90385708       2.28237725       9.33901727      -0.47081084       4.88756320      -1.41553866
S        4.75729715       4.84712227      12.29513250       1.74750627      -0.84762308       1.68374046
S        2.18210755       4.86088067       8.98425292      -0.17953547       1.79674529       0.62739346
S        2.22059529       2.27682191      12.12186136      -0.17910120      -0.26685075      -0.99296260
S        1.34103316       8.47150039       1.22414587      -0.18125932       2.37616790       0.69625387
S        1.63967174      12.95468067       6.44645330       2.98793250      -2.03365939       1.78305973
S        5.82002848      13.02748814       1.18093530       1.34665353      -0.50061681      -3.42584198
S        5.97007813       8.51544127       5.84438837       1.47197016      -1.70250688      -0.05737903
S        4.55873928       9.62212507       2.09163505       4.22115144       0.28623612       1.91652446
S        5.11319644      11.98051851       4.84015124      -0.93985393      -2.50832004       0.27946084
S        2.50015416      12.56162029       2.13183715       1.33623135       1.18954678       0.23606829
S        1.94276442       9.46233389       4.71697286       0.49367420       0.39545440       1.23850297
S        1.26777710       9.09562240       8.51964668      -1.16076525       1.47775649      -3.32037400
S        1.62456591      13.14188522      13.46506754       2.10459085       0.23539955      -1.10010825
S        6.02772233      12.94331360       8.38814434      -1.09660353      -0.42733473      -0.98683244
S        5.70778105       8.28616803      12.53173167      -4.53051822      -0.36010017      -0.16766465
S        4.68849054       9.54488710       9.29636335      -1.86200536      -1.03219580      -0.75469859
S        5.10628191      11.97489793      12.47903793       0.63410097      -2.30416998      -2.57504641
S        2.49626018      12.24459733       9.84052771       3.16429174      -2.02101604       1.18887557
S        2.14221867       9.34850478      12.14684095       0.66859989      -0.24556363      -0.10337771
S        8.12103706       1.60367219       1.57789960       0.13114105      -1.57310700       1.15690734
S        8.65295625       5.34399073       6.14745412      -0.03009285      -0.04395111      -0.91773240
S       12.83731860       5.74901080       1.42524367       0.38476729       0.38159252      -0.81172720
S       13.07315442       1.21232027       5.98914457       2.35303977       0.42559662       1.73570597
S       12.06032021       2.27151103       2.32003374       1.04441756       1.51644816       2.76562298
S       12.35789635       5.26006609       4.97390838      -2.18732799       1.48820558      -1.54886738
S        9.34322254       4.99519233       2.38229451       0.46137206      -0.62537083       1.71739780
S        9.53044447       2.51609123       4.93239417      -2.30830559      -2.07529431       0.38492782
S        8.55291290       1.32831416       8.46670670       0.86242061       4.71679107       0.76774900
S        8.34127410       5.72058642      13.26189209      -2.34145091       2.27623726       1.21148764
S       13.08567174       6.06739754       8.66982630       0.15763236       0.09553796       2.52318287
S       12.77936058       1.03530876      13.38548509       1.00418375       2.35433472      -0.29519625
S       12.35136480       1.74062199      10.05171300      -0.13370003       3.15563672      -0.57951473
S       12.09060946       4.42111396      12.70717499       1.13547763       1.52356171      -0.54021753
S        9.87071718       4.63454239       9.61228687      -0.66230250       2.40639142       2.02081503
S        9.00435434       2.06418254      12.00243263       0.25084915       1.49098889       0.68574466
S        8.23823937       8.32092455       1.31922996       0.59460067       0.19580612       1.57280496
S        8.71568881      12.89613652       5.80245644       1.34773754      -2.24059147      -2.92543759
S       13.14948250      12.81500212       1.34285795       0.44722511      -2.40317456      -0.72441572
S       12.63732617       8.68063657       6.00447145      -2.35950906       1.37656686       1.01984295
S       12.13364487       9.33157724       2.27621933       0.22262821      -0.49823167      -1.33653395
S       12.23102054      12.04506545       4.91445012      -1.98481762      -0.66240113       3.11116534
S        9.33900479      11.90122532       2.35601506      -3.19440604       2.13600136      -0.46688201
S        9.46228642       9.06710060       5.01882524      -0.01839740       1.69801893       1.40564578
S        8.56685859       8.72954784       8.34138289       1.11578036       1.55431985      -0.70830496
S        8.46606799      13.04222880      13.39847903      -0.79377993      -0.53376196      -0.54829648
S       12.89001064      12.98746897       8.78944022       4.84775318      -1.29185890       2.36625756
S       12.99535751       8.04601838      12.96534662      -0.33952197       0.62142663       1.14619908
S       11.42663873       9.06178422       9.61664531      -1.71335369       2.68885566       3.80819761
S       12.33419853      11.56140520      12.61989582      -1.33728615      -1.01917129       0.43599708
S        9.87436559      12.08108283       9.67002908      -1.08154729       1.56799979       0.89387585
S        9.24436516       9.27648302      12.75223888      -1.12246574      -2.00813800       3.29076918
Sb       0.00039151       0.01759934      14.78668013      -0.53004465       1.75899718      -3.60131814
Sb       3.70092360       3.71735087       3.69333555      -2.51235010       3.27932227       1.60009667
Sb       0.08472195      14.39972782       7.48522025      -3.27404362      -7.15807144      -4.03957303
Sb       3.50098101       3.70526580      10.60481772      -4.70285211      -0.90906633      -3.46065813
Sb      -0.06848864       6.90599634       0.01293088       1.24381781      -2.82478148       2.02800219
Sb       3.32102206      11.14308366       3.57353147      -0.09951150      -2.89895803      -8.01291640
Sb      -0.10574018       7.57920394       7.11434020       8.55564756       1.44341875      -5.51942084
Sb       3.64806739      10.70831990      11.06116785       2.24818432      -0.86166815      -5.33184736
Sb       6.99405525      14.61437649      -0.06448033       3.29356168       2.81726969       0.50690892
Sb      10.93449311       3.93661962       3.68036283       3.25616661      -6.60210631       1.79863747
Sb       7.28694629      -0.01029452       7.07896070      -3.49620154      -3.28633247       0.27037822
Sb      10.94526878       3.21075603      11.33257355      -7.93982526       0.04044739      -4.86601169
Sb       6.78293295       7.17847861      -0.24558093      -1.53045835      -2.45952922      -0.05677019
Sb      10.76245753      10.65293757       3.70273668      -2.17351650       3.50717562      -0.17433966
Sb       7.21041923       6.94955608       7.23868514       1.85757062       1.81066968       1.98521375
Sb      10.64900587      10.50089898      11.38492672       1.11868518       1.75938241       1.66935675
128
Lattice="14.3306 0.0 0.0 0.0 14.3306 0.0 0.0 0.0 14.5792" Properties=species:S:1:pos:R:3:momenta:R:3 config_type=highT_NSS128_900K pbc="T T T"
Na      14.46772309       3.35823726      -0.43282514      -1.52115797      -1.30124619      -2.92276895
Na       3.92339928      14.55989563       7.89931691       3.03094304      -0.47246608       0.02220693
Na       4.32737853      -0.14638747       4.28463948       0.43605187       1.59401801      -1.48985082
Na      -0.07810622       3.39495485       3.34356979      -1.70256413       0.69309921       1.40065494
Na      14.54755706      14.54077664       3.73292547       0.12996252       0.06373098       1.67910104
Na       3.62127837       2.96285027      -0.48616852      -1.17056369       0.25888321       1.12884536
Na       0.29009787       3.30207161       6.83873251       3.12616584       1.10970156       0.36154421
Na       3.37324755      -0.34143468      15.06467088      -0.09302607      -1.85780209      -1.45451077
Na       4.45542742       0.38569791      10.93322227      -1.69980365      -0.34329298       0.69233694
Na      -0.25351828       3.10845859      10.87316542       0.08334627      -0.32476532      -2.70669013
Na       0.66814761       0.06217879      10.52734092      -0.29469572       2.40432076       1.70584715
Na       3.25762571       4.20386641       7.00602782       1.63353679      -1.67626909      -0.67745173
Na      14.29205879      10.76891161       0.02616486      -1.61783095      -0.19446263       0.35629533
Na       3.96534174       7.64435937       7.72800025      -2.25080184       0.15157195      -1.29124467
Na       3.69628914       6.67458061       4.43916288      -1.80847469      -0.63132115       2.16959840
Na      14.28360648      10.68818655       3.34472109      -0.30896766       0.95180686       1.01704289
Na      14.67775273       7.02490799       3.35979238      -0.87295436      -0.56103279       1.11322537
Na       3.83335288      10.43349411      -0.02859361      -0.37871192       0.07528922       0.59314847
Na      13.90697351      10.58638783       7.17977674      -0.25719516       0.33009710      -1.72061982
Na       3.56677424       6.64398264      14.47068252      -2.41180321      -0.49845373       0.17978169
Na       3.55910702       7.59134499      11.01164292      -0.28959498      -0.12796226      -0.10286484
Na      13.98926038      10.38861599      11.34481653      -1.12477641       0.78489332       1.59333213
Na      14.76491627       6.99787397      10.60431216      -2.62716581      -0.92857999      -0.62795698
Na       2.62312463      10.68268352       7.69273597       1.20628841       2.05026381       0.57173305
Na       6.80263779       3.79091381      -0.08324557       1.99377910       0.97178137      -0.25607739
Na      10.98866017      13.88872204       7.72080408      -0.73603513      -1.54810387       0.87908061
Na      11.10366030       0.15824849       3.79524373       0.87307659      -1.11373640       0.96395367
Na       7.47114888       4.10133781       3.41467964       1.06514207      -1.70314041      -0.58832312
Na       7.64124226      15.05777285       3.94836317       0.91875867       0.79237785      -0.43677407
Na      10.54253110       3.21554718      14.50961026       0.29436036      -2.44603247      -0.69931447
Na       8.06704878       3.04927995       7.07197824       2.26711624       0.80976695       0.91468647
Na      10.79764415      -0.63560276      14.55815056      -0.52745760      -1.38491565      -0.13927931
Na      11.55129331      13.97727731      11.24825084       0.21165277      -0.36058462      -0.69936738
Na       7.12223310       4.57193817      10.48244655      -3.07599171      -0.98863064       0.62217344
Na       7.29373823      15.10004075      11.06349920       0.91233532      -1.93286942      -1.05054603
Na      11.21045821       3.19071552       7.17361227       1.03620857      -0.84684412      -0.77239577
Na       7.28454195      11.00185699       0.68596956       1.96273571      -1.55212372       3.16567937
Na      10.57675050       6.49308323       7.07370570       2.00470003      -1.94984825       2.89211790
Na      10.69630881       7.35255964       3.74432026      -0.42886057       0.10119858       1.12553550
Na       7.23037358      11.58463219       3.89386962      -0.01025111       0.48489431       1.78506112
Na       7.13544161       7.67321344       3.33982915      -1.35730337       0.05742750       1.14060024
Na      10.77974683      10.18045331      -0.48294838      -0.87016739      -1.03391087      -0.51323932
Na       7.22020800      10.46299708       7.52761134       0.43628516       1.45607403      -0.41741759
Na      10.40118080       7.06951929      14.61802724      -2.42159551      -1.83243388       2.11690431
Na      11.00819645       6.78566527      10.62922279      -1.61848154       2.37159341      -1.28205523
Na       7.21699650      11.55753538      11.46029948       1.11194148       0.06077597      -1.51049870
Na       7.31738012       7.63886386      10.72893098       0.49250989      -0.83257926       0.15439188
Na      10.57932414      10.83748250       6.99593906      -0.67605483       3.39732653       1.37835381
S        1.07369327       1.29840029       1.55426226      -1.24758354       0.66188970      -2.69314497
S        1.24665273       5.71055134       5.87241392       2.72649512      -0.88713802      -0.34912292
S        5.67167982       6.27137396       1.58748899       1.76215999      -3.28218532       1.46610578
S        6.06805053       1.11823610       5.79478437       3.99105342      -0.05942556      -1.32050049
S        4.94018493       2.13879589       2.21144591      -0.66083419      -2.30610251       3.49115578
S        5.18145160       4.59868552       5.19174756       0.39430763       0.36433504      -0.88891519
S        2.58420807       5.06534567       2.13026864       0.24442276       1.14738810       0.38043906
S        2.09913750       2.37472773       4.97596828      -0.45334051       1.21460471      -0.53957459
S        1.61092289       1.48962395       8.56938011      -0.53681588      -1.03630406      -2.34911058
S        1.35512215       5.76905704      12.85105165       2.94087650       1.60362769      -2.16952433
S        6.05179575       6.25008852       8.69252854       2.07473847      -1.27456509       2.48539168
S        5.65169183       1.36440959      13.20675589      -1.14497702      -0.04040714       1.34974197
S        5.36108701       2.69920712       9.09619281       0.83334104       1.17822591       0.15533965
S        4.46104763       4.72624910      12.34413380       2.08549486       0.56071931      -1.80338121
S        2.06362103       4.90045687       9.64184688      -2.41512534      -0.23368004      -1.38249680
S        2.69124796       1.79564417      12.07038976       2.57838232      -2.16767625      -0.21695045
S        1.25886442       8.53149345       1.01469214      -0.65367544       1.01700147      -1.77475675
S        1.22018794      13.02029827       5.84248510      -2.65305247      -0.59811118      -0.59432991
S        6.02349016      13.09412642       1.96167335       0.53909292       0.09788354       1.06357393
S        5.90365737       8.50880443       5.95710636      -2.50134142      -0.80743835       0.42726377
S        4.65296524       9.45756625       2.36380393      -1.20132295       2.40958475      -2.36356502
S        4.60146779      11.77384431       5.92909323      -2.28434222      -0.67272700      -1.83260091
S        2.34046612      12.42159891       2.90727207      -1.27775225       1.83526933       1.71305462
S        2.04667199       9.21258621       5.43995760       2.45950503      -0.58619249      -3.73169572
S        0.97752114       8.41472049       8.56658133      -0.78578213       0.20337336       0.73377495
S        1.37953033      12.65882628      13.57559702      -0.50783074      -3.16366565      -1.06756752
S        6.07592396      13.14066799       9.16463532       1.27824358      -2.04023834      -1.13544613
S        5.35913385       8.33870350      13.11487818       2.20641028      -0.43230675      -2.32369973
S        5.07357414       9.87779977       9.62464609       1.87261564      -1.53054797      -1.68053177
S        4.67361829      12.42747646      12.56510795      -1.89290855       3.78265397       0.74206837
S        2.08632418      12.32228680       9.76463896      -0.29941495       1.96883228       0.17871803
S        2.25033385       9.38301468      12.34855034      -0.93495586      -1.24613967       1.28785256
S        8.55471906       1.77724028       1.48236844       2.08851603       1.09980035       0.00225819
S        8.33447948       5.43833127       5.64470693       0.45525114       1.18419770      -2.35939307
S       12.99983048       5.31777422       0.99776245      -0.36430659      -0.96835002      -1.11921515
S       12.90361212       1.26952484       5.95259181      -2.13282852      -2.39494324       0.54624789
S       11.89258141       2.04986171       2.21429920       1.37516274       0.16877124      -0.11187551
S       12.35822049       5.17140897       4.46981894       1.09681307      -2.77853032       0.39399076
S        9.32964444       5.44199541       2.07642470       0.83780926      -0.05850108       1.21294870
S        9.85988200       2.41232521       4.98959553      -0.87681681       1.69029756      -0.44783108
S        8.74273648       1.03791738       8.65684568       0.70096906       0.26093239       0.70893879
S        8.34465805       6.01048240      12.91095229      -0.04199614       2.07242487       1.47497149
S       12.91738672       5.33103721       8.33907970      -0.67222313      -0.63329486       2.12303648
S       12.93348593       1.02772740      13.35624196      -0.53780954       0.62963761      -0.22631371
S       12.06898463       1.69531896       9.53543173      -0.60440565      -2.24829109       2.21268265
S       12.34829050       4.89367679      11.68590002       1.35847603       1.88051921      -0.67506612
S        9.47838347       4.49602811       9.02315794      -0.10562259      -3.15268453      -0.82198982
S        8.99793387       2.66990562      12.22573807       2.00908041       1.65786184       1.74157807
S        8.68881868       8.62314555       0.92679563      -0.97702280       3.05539860      -1.34405149
S        8.29646139      12.70204772       5.78647941      -1.71633568       2.02505945       2.76140131
S       13.01849061      12.39870691       1.60080504       0.66741407       0.65150826       0.42626349
S       13.07911808       8.35163527       5.45410123       1.38108822      -2.93714675       0.81018799
S       11.43895057       9.61392543       2.27507768       1.13936663      -1.21061224       2.06785019
S       12.21447886      12.13748390       5.21042871      -0.59644897       1.75423833      -1.13615181
S        9.60276521      12.88473431       2.55119859      -0.61409349      -2.40623525       0.46673196
S        8.96922765       9.73512083       4.89779808      -0.97471613      -0.37998431       2.32009075
S        8.95806482       8.19169986       8.53186050       2.01490087      -1.09670096       0.00793882
S        8.36997309      13.18123972      13.43686650      -0.34362406       0.97166805      -0.21106892
S       13.43275256      12.90278050       8.97769672      -0.87328998       1.56848698       1.79001462
S       12.63300796       7.98443769      12.90781768       1.29726979       1.83634420      -2.10630684
S       12.06500270       9.98941455       9.43573566       1.40307913       0.81211398      -1.61139292
S       12.09078889      11.61167198      12.61065400       0.03635878       1.81980831      -1.02072775
S        9.39938070      12.50103270       9.86530527      -1.89310942       0.14112649       0.39709660
S        9.55349396       8.82501537      12.05547169      -0.91672310       1.20237616      -2.38155816
Sb      -0.05058141      -0.29484487      14.93755998      -2.56667803      -1.53097632       1.79857094
Sb       3.64763186       3.51174024       3.65383355       5.45936345       0.39012135       6.22583352
Sb       0.04315118      14.44751951       7.32673523      -4.77010554      -0.59089525      -2.60199423
Sb       3.58624489       3.42166930      10.63703248       3.21406753       3.46699234       3.30176951
Sb      -0.14495120       7.03548203      -0.29314181      -9.31600084       2.28442632      -3.24015021
Sb       3.64893146      10.61482759       4.25563096      -2.61542000      -0.01413451      -0.07125134
Sb      -0.31892437       7.02893131       7.16450201       1.10182356       1.87404375      -4.60849371
Sb       3.50311017      10.99896255      10.99734263      -0.81938428      -0.67479157       3.99198023
Sb       7.12817109      14.61168467       0.23589517      -0.57791249      -0.22085474      -4.02971359
Sb      10.67458782       3.83410390       3.37628108       1.44036076      -1.46667365      -0.67302484
Sb       7.22239215      -0.12205929       7.39471602       2.79575027       1.71412725      -1.21425182
Sb      10.77015307       3.46455029      10.75315018       2.34930029       2.25444573       0.74879724
Sb       6.96493645       7.30862639      -0.09188859       0.02955343      -1.02308067       0.52875694
Sb      10.61570543      11.15628320       3.77582793      -3.17179423      -3.61146880      -0.26206549
Sb       7.32079559       7.15909474       7.07157372       3.35292078       2.85288854      -1.25245022
Sb      10.53138836      10.72088222      10.89760884       0.86327894      -0.12948903      -0.15514960
128
Lattice="14.3306 0.0 0.0 0.0 14.3306 0.0 0.0 0.0 14.5792" Properties=species:S:1:pos:R:3:momenta:R:3 config_type=highT_NSS128_900K pbc="T T T"
Na      13.85419131       4.06391650       0.21047351       0.22516113      -1.20982764      -1.38643706
Na       3.53726104      14.38512238       6.95654057      -1.85086427       0.15140860      -0.15710023
Na       3.17011528      -0.19684619       3.11579491       0.52358866       1.11284307       1.25561786
Na      -0.25195612       4.12746320       4.11971655       1.40538699      -2.00021275      -0.55909980
Na      14.48453198      15.51560472       3.40759886      -0.76530915       0.94236106      -1.43225019
Na       2.89146393       3.81953069      -0.08783385       1.29538444       1.55286654       0.07758584
Na      -0.19789216       2.94425875       7.53698118      -1.61635295      -2.28767305      -2.61754518
Na       3.85399478      -0.49747557      14.41897632       0.52821275       1.06863591       0.72352653
Na       3.76014860      -0.28121617      10.56879068      -1.41140161       0.32385946       1.11872612
Na      -0.13377845       3.98502122      11.18811295      -1.08041148      -1.37423909      -1.54403237
Na       0.40162772       1.07641485      10.82265310       0.32845336      -1.97683092       1.12242807
Na       2.87601710       3.19175919       7.07777905      -1.58241323      -0.45357882       0.66778034
Na      15.05149612      10.74351704      -0.14343521      -0.18977016       1.10725254      -0.76195002
Na       4.04412612       6.94975167       6.64921573       0.59975161      -1.40140398       1.37937583
Na       3.66126517       7.04310738       3.73247281      -0.55755756       1.52272145       0.88353837
Na      14.53255399      11.35097140       3.68443555       0.34107045      -0.19772384       1.25527889
Na      14.33802997       8.05294889       3.79235912       1.30067457      -2.35238735       0.35993690
Na       4.36669167      10.70727757       0.05221546       0.26434043       1.90500412      -0.33644253
Na      14.93808045      10.87023982       7.48832374       0.28114633      -1.91101087      -0.78482139
Na       3.65765581       6.97546512      14.55125637      -3.53777341      -0.67807084       0.63316068
Na       2.87440479       6.85725939      10.72114661      -2.57525316       1.44994349      -2.53017700
Na      14.10166710      11.11660255      10.39235639      -1.34180906      -0.17141214       0.90249707
Na      14.33339485       7.94050618      10.94543220       1.38665370       2.08754003      -1.36143703
Na       3.60318046      11.29613147       6.64823734       0.16804560      -0.18081565       1.51869646
Na       6.41563057       3.28013627       0.19502595       0.76458339       0.94946965      -1.15454263
Na      10.82286750      13.96869817       7.14554524       2.02468751      -0.10465222       0.09075497
Na      10.20137295       0.10127898       3.61930268      -1.05922264       1.33462506       0.24649325
Na       6.84677262       3.49115709       3.51761018       0.10920832      -1.22517257       1.86822524
Na       6.51593194      13.86266523       3.24576666       0.31520251      -0.55293711      -1.52169999
Na      10.98746257       4.19245776      14.99182061      -0.35645485      -0.20725893       1.91076482
Na       7.15907369       2.89553961       7.57483562       2.11367841      -1.25551907      -1.36397046
Na      10.79651553       0.96109440      14.79410667      -1.97117106       1.09829970       1.48399665
Na      10.80990861      14.17856929      10.65896515      -0.36634463       1.00703578       0.66246909
Na       7.03766774       3.33628833      11.02705077       2.45828859      -1.11925980       1.41108375
Na       6.96174260      13.88084435      10.57064415       1.23741631      -1.00889895       1.50008105
Na      11.16201848       2.53822949       7.44161656      -1.06821525      -1.35105489      -0.70633296
Na       7.76210962      10.83994120       0.29317182       0.10894840      -0.81569250       2.38633691
Na      10.60478141       6.69950437       8.03230827       0.32369281       2.53147118       1.48542001
Na      10.95429153       7.31018822       3.12023251       2.27472850      -1.27999142      -1.26021466
Na       7.12061895      10.87233940       3.40420211       0.27306824      -1.46833317      -0.34024239
Na       7.30404099       6.87502087       3.95947489       0.71518655       0.14112835      -0.09337223
Na      11.11577229      11.37279920       0.28481826       1.83748361      -0.89333802      -0.64060426
Na       7.47602327      10.40945366       7.13446002       1.41085672      -0.11377790       0.07315825
Na      10.48768186       7.48554902      14.72743046       1.53532973       0.46112765       0.16798260
Na       9.86743197       7.51516646      11.69553692      -1.33647671      -1.00435095      -2.03590380
Na       7.16589226      10.21757891      10.78783440       1.67717651       0.77783662       2.77889603
Na       5.76757726       6.99980600      11.23472160      -1.94201189      -1.44963662       0.75281558
Na      10.77576845      10.47590201       7.27688449       0.09188949      -0.53152404       0.81991319
S        1.81050096       1.07802251       1.18562898       1.18722168       0.15652016       2.61419537
S        1.31135070       6.12877588       5.68454376       1.03296796       2.19446193      -0.72207847
S        5.63706047       5.66242962       1.33961912      -0.91582581       4.14840846      -1.18613972
S        5.99856942       1.00237883       5.88693907      -1.50193289       0.68492930      -2.48841848
S        4.76424983       1.99439281       2.27588760      -1.67314726       1.86357151       1.49636116
S        4.65219116       4.81407019       5.01349695       0.59277384       1.23299952       2.09103120
S        2.07782319       5.03569363       2.07508601      -0.20273179       0.84308817       0.40596673
S        1.63277316       2.40599574       4.99416761       0.38346470      -0.37206301      -0.25150958
S        1.35743756       0.81610783       8.22229606       3.72463383       3.41217071      -0.35600534
S        1.00388369       5.79049562      13.10694382      -1.34781610       2.58656681       1.70889158
S        5.28979823       5.52017443       8.91163138       1.00830366       0.47168502       1.70625655
S        5.87663339       1.07750998      13.00369619      -1.15109784      -1.84793255      -0.30158646
S        4.97314868       1.78027080       9.22458205      -3.12633185      -1.19536881       1.38706418
S        4.95314799       4.89248559      12.41067993      -0.68947996      -0.41346586       4.08822736
S        1.69741857       4.71126753       9.38711289      -2.06527634      -2.61571106       1.23103694
S        2.66390465       1.71782780      12.25970920       2.45439009       1.93469452       1.87133672
S        1.64570256       8.50209144       1.36770002      -1.21519661      -1.59049335       2.33153358
S        1.47999275      12.92762071       5.26968367       2.67226825       0.89805066       3.25918460
S        5.90720542      12.78318178       1.24085835       0.78378518       1.70207366      -0.58769989
S        6.19100668       8.16015270       5.90121112      -0.11984278      -0.33359686      -2.43579829
S        5.11704390       9.22199638       2.52696266      -1.46635740      -0.29910708      -2.54296449
S        4.82822883      12.13208244       4.64607120       1.45301093      -0.89184739      -0.12524364
S        2.27140511      11.79031289       1.73139799      -1.09624077       0.90507917      -0.65490928
S        2.00874214       9.55685512       4.68027752      -2.33928115      -0.11657511       2.94380010
S        1.52480194       8.83170265       8.78797859       0.73060827       0.78000915      -0.46864061
S        1.23403742      13.30561581      12.91787791      -1.62386349      -2.00339408      -1.79665517
S        5.97402749      12.57265887       8.23572493      -0.65728269      -0.46242233      -0.31096698
S        5.94422538       8.72965819      13.52260798      -1.49698561       0.45519906      -2.57153840
S        4.94537055       9.21058943       9.29515441      -1.63270443      -0.87780066       1.54331946
S        5.14799038      12.11127175      11.71005936      -1.36900131       2.51689548       0.08988486
S        2.18119220      12.05333007       9.54221230       1.31576970      -1.47905708       0.11216793
S        2.54919403       9.64684560      12.74477090       0.11295635       1.49347234      -1.82693460
S        8.39663009       1.33708303       1.35532108      -1.79514895      -2.65736531      -0.51422263
S        8.15590043       5.59707776       6.49277494       1.47381305      -2.58536478       0.93068336
S       13.15888001       6.47026096       1.67452988      -0.30400141       1.02095779      -2.28562110
S       12.76838019       1.46034638       5.58297736       1.04831383      -1.41726071       0.38050460
S       12.19041698       2.69442928       2.31949076      -2.81691798      -0.11090221       0.78967015
S       11.84668119       5.54008683       5.42105607       1.17376610      -1.93058283      -0.81848795
S        9.28568229       5.38298406       2.56783411       1.82932466       0.37290571      -2.22558199
S        9.46372675       2.61867859       4.92592076      -0.54816934       0.51481948       3.11014618
S        9.01268072       0.97541018       8.61392148       2.22902378      -1.10656340       0.48117523
S        8.39435188       5.79329983      13.47845962      -2.17897505      -3.29887874      -0.26215857
S       13.34673470       6.09173131       8.88752823       1.66919989       0.35374062      -2.44414443
S       13.22125167       1.96524601      13.40434912      -1.32469059      -0.76277193      -1.04638231
S       12.23788305       2.10237173       9.96764701       1.79792337       0.85762045      -1.07716750
S       12.07392150       5.54980131      12.21328815      -1.36580679       0.64256315      -0.74451900
S        9.63359043       4.76805583       9.74860836       0.72429718       1.08279360      -1.01409182
S        9.63927231       2.37200623      12.65023125      -2.00596638      -3.20672141      -0.60106394
S        8.57937243       8.56063478       1.85164227       1.75796465       0.66431566      -0.04439001
S        8.73869876      12.52322530       5.57943362       1.23064161      -2.27726683       0.19017019
S       12.65284821      13.37919350       1.29496655       1.31687607      -0.66668099      -3.08851532
S       12.84936221       8.74766063       6.41120537       0.05763980      -0.24948798      -0.67018213
S       12.08405566       9.60261644       2.44748782       0.09766724       0.34066871       0.55269492
S       12.12286243      12.46052469       4.91979799      -3.98792847      -1.22759380      -2.43366388
S        9.36515612      12.23913858       2.36169559       2.02055997       0.79573521      -3.06223443
S        9.46721331       9.17434340       5.09661097       0.18389236      -4.03436803      -2.47153534
S        8.46530431       8.07303379       9.13348395       1.06897945      -0.48362189      -0.57292508
S        8.59626426      12.95645743      13.02280815       1.11681490       0.27370201      -0.52215014
S       13.33350536      12.92485141       8.42129972      -1.36216093      -1.69215391      -1.21403083
S       12.99494958       8.72495475      13.40224666      -0.99454288      -0.69229293      -0.11454260
S       11.96609195       9.33682079       9.50353642       2.16066436       0.55568051       0.29658762
S       12.27481024      12.12275653      12.18377172      -0.41868603       3.16148750      -2.70341565
S        9.30750278      11.70534012       9.61271392      -2.78483370       0.43915942       2.32969454
S        9.14630777       9.84503613      12.46640836      -0.36311202      -1.93236007      -1.72960392
Sb      -0.08430274       0.18167871      14.47579407       4.51844895       2.08917974      -0.71651497
Sb       3.27236442       3.47207296       3.60111604      -2.19603426      -3.67620563       1.27654719
Sb       0.00294720      14.15314477       6.68073641       4.98571324       0.92797132      -1.15942201
Sb       3.60966210       3.40750757      10.63040409      -1.89228669      -0.96145367      -0.70379557
Sb       0.15781231       7.36097088       0.12007823      -2.75117722       1.27868335       5.14721959
Sb       3.52304944      10.63163004       3.38661165      -3.62838520      -4.16700707      -1.60176901
Sb       0.15709768       7.35489512       7.35558600       4.33077949       3.11765510      -0.87896370
Sb       3.54001173      10.47713477      10.74311056      -1.93988431       3.61286539       5.29334120
Sb       7.23967580      14.22913570      -0.16980760      -3.47107044       4.68615397       4.80754256
Sb      10.85038146       4.20685355       3.83528635      -1.55752423      -0.97086947      -0.99065920
Sb       7.44622321      -0.41770158       7.11058110       4.19042002       4.57639091      -2.81607682
Sb      11.03955926       3.62009893      11.39334294       4.10230258       4.81987060      -4.64323120
Sb       7.11919185       7.20533549       0.30334933      -0.26736367       1.82385750      -0.57478798
Sb      10.67031199      10.76014376       3.94140598       1.21178552       0.51524727       0.16963880
Sb       6.95500956       6.82455228       7.78773723       1.77105501      -2.06100449      -1.69420155
Sb      10.75544658      10.69221530      11.12030539      -3.18544144      -1.08513248       4.48290341
128
Lattice="14.3306 0.0 0.0 0.0 14.3306 0.0 0.0 0.0 14.5792" Properties=species:S:1:pos:R:3:momenta:R:3 config_type=highT_NSS128_900K pbc="T T T"
Na      14.84605019       3.42539888      -0.53445607       0.55610761       0.66261381      -0.68757535
Na       3.75954632      15.46337704       7.36946063       0.80753539       0.35314827       0.87674084
Na       3.41810912      -0.42768937       3.26686674      -0.74717232      -2.81790117      -1.98663982
Na       0.30209573       4.61829251       3.23704997      -1.89203276       0.64256681       0.02348966
Na      14.15830024      15.53419631       3.26737774       1.18635234       1.15086602      -1.37391901
Na       3.73132625       3.41844305       0.59381525       0.16457798      -1.18295315      -0.21525136
Na      -0.53364707       4.13788642       6.65993287      -0.34688379      -1.21341480       2.40259418
Na       3.48147792      -0.24592602      14.23809777       0.87714218      -0.03155079      -0.60086226
Na       3.33976775       0.13533857      10.93881922       0.31277756       0.88686502      -1.78346837
Na      -0.04659822       3.74445973      10.97739118       0.87043120       0.30905522      -0.97485785
Na      -0.13321787      -0.15997977      10.59847831       0.13079056       1.56997855      -1.77276932
Na       2.98837432       4.40544117       7.42517012      -1.77235284      -0.01324059      -0.02599425
Na      13.99911384      10.81447331       0.15408015       1.61884934       1.15109358       0.76320360
Na       3.90874229       8.00933949       7.34893030       0.25724092       0.58630713       1.56330705
Na       4.10974739       7.21019580       3.56907492       0.74112378       0.52991596       1.76809760
Na      14.22083327      10.88343156       4.33838810      -0.19378619      -1.19346848      -0.20972493
Na      14.46713345       7.83450255       3.36723894      -2.29874882       0.03219702      -0.28882920
Na       3.73928425      10.46179549      -0.09565209      -0.12880633      -1.34492927      -1.70009863
Na      13.66992454      10.96951057       7.28864262       0.76580554      -0.24015634      -0.24279117
Na       3.54451021       7.08004323      14.70909229       0.19158686       0.06699960      -0.80777222
Na       3.28538371       6.95400053      11.10631222       0.88889237      -0.97433659      -1.96401066
Na      14.19812710      10.59757464      11.17466945      -0.11890518       1.72514683       1.51288738
Na      14.41525565       7.53586862      10.78252667      -0.28079552      -0.30124154      -1.18059306
Na       2.83856557      10.98841242       7.38969567      -0.25565143       1.93576604      -0.65759123
Na       7.70732031       3.69646617       0.10798798      -0.89181364       0.45762924       0.18172142
Na      10.94208025      14.64581741       7.20423809      -2.28704662      -0.61388177       1.10901486
Na      10.44357474       0.26739504       3.85538654      -1.20744046       1.78490227       1.75009952
Na       7.25254697       3.48176988       3.93217631      -1.20612966       0.38175365       2.05778128
Na       6.86448881      14.27201979       3.94959484      -1.21760966      -0.45354017       1.56621908
Na      10.99658283       3.69770907      14.55934143       0.77505689       1.32890521      -1.28727456
Na       6.94047097       3.91166419       6.97661444      -1.33596598      -0.30584579       1.50931162
Na      10.43948588      -0.22876531      14.95107482      -0.43139883       1.19349320       1.02165300
Na      10.85182403      14.05311913      11.26898178       1.89834076       1.13148636      -1.01165971
Na       7.30916160       3.27573513      10.51145703      -2.39243156       2.51499182      -1.46099079
Na       6.94396528      14.28523233      11.00796825       3.13863195       0.56130074       1.13528195
Na      11.13389082       3.68505961       7.24881044       2.23872392       0.08285984       1.45183931
Na       7.48493415      10.60742170      -0.18202397       0.22238544      -0.55630597      -0.49340297
Na      10.68694252       7.68541451       7.40696381      -0.60708057      -1.33604240       1.94943571
Na      10.93440334       7.65258224       3.94713484       0.30429235      -1.15889989      -0.03373963
Na       7.23411445      11.26121465       3.50750284      -0.41008938      -0.99110157       1.15320335
Na       7.24625008       7.28254319       3.54716367      -1.06854245      -0.23347065      -0.15805576
Na      10.61299083      10.03901370       0.28255414       0.11396142       0.04728489       2.05208619
Na       6.51592941      10.84221355       7.05218524       1.32439931       0.24913003      -0.19879726
Na      10.96881170       6.79338857      15.21829880      -0.60674517       1.78647518       1.61844260
Na      11.33566399       6.36034003      10.77531756       0.55690701       3.18964116      -4.11919037
Na       6.98340592       9.68548293      11.00946325       2.10721843      -2.24387762      -1.02073599
Na       7.76415614       6.95585096      10.88331035      -2.57817010       0.71908007       0.75338440
Na      10.57201951      11.58079428       7.01554238      -0.67817443      -0.52865961      -0.19283804
S        1.21250622       1.40722248       0.99640317      -2.03462099      -0.72515270      -0.45333471
S        1.69992647       6.44712265       5.81319210       0.48021555       4.01386171      -0.66569052
S        5.81246984       5.61984035       1.13930608      -2.34414364      -2.43124043       2.52153558
S        6.03347839       1.50888030       6.06277093       0.45680241       1.01016542      -0.73413328
S        5.00634613       2.04130025       2.63713182       2.62186508       0.27201430       1.77312060
S        5.08631885       5.04172730       5.13149475      -0.06336457       0.43966974      -2.86632206
S        2.73141819       4.88794132       2.40505579      -2.48489555      -1.68577872      -1.16184419
S        1.85520059       2.38398797       4.86842041      -0.72920396       1.09337098       2.56403972
S        1.49695878       1.47409959       8.79610011      -1.64708299       1.60651303       1.71494044
S        1.48756203       5.72158505      12.74419309       2.04550452       0.12565141       0.49101901
S        5.79090532       5.88692494       8.54251455       1.03769419       1.03785338      -0.58986153
S        5.88934993       1.54586840      13.65829601       0.40705343       2.31163473      -2.34269017
S        4.97724977       1.79955355       9.86305113      -1.77024884      -1.11831188       0.08276894
S        5.18232451       4.70543858      12.34946268       0.68614275       1.82507572      -0.60162854
S        2.04130416       4.58061411       9.83050955      -1.95340599      -0.49986888       0.79431659
S        2.15998416       1.83470429      12.43815176       0.88522896       2.65967489      -2.31431362
S        1.28449054       8.42274105       1.09137114      -0.09509335      -0.84275174      -1.34600444
S        0.94293476      12.81909807       5.66498965      -2.61531944       0.64304725       2.00260798
S        5.62941673      12.58654418       1.46181316       1.69865943       2.30426161       2.68679868
S        5.88249427       8.65656906       5.71489712      -0.40834414      -1.65499320      -0.24838677
S        4.42720530       9.00672691       2.04053467       0.69026197       3.32864750      -0.04643212
S        4.66185591      11.96954257       4.97509311      -0.18413368       1.66038203      -1.52242766
S        2.17273907      11.91702939       1.93473153      -0.14439986      -1.66578141      -1.14805389
S        1.91624799       9.35635027       4.93528467      -2.41266901      -1.17748091       0.37609652
S        1.34252689       8.77117792       8.71511013      -1.60042235      -1.22857799       0.63341106
S        1.15073115      12.50592911      13.38006255      -0.83282911       3.06004485       1.66305732
S        5.98875975      12.86235472       8.88697497       1.06402498       0.90673828      -0.99257624
S        5.90709927       8.19936693      13.00242285      -0.00331949      -3.85498224       1.65244366
S        4.60117785       9.87644448       9.11405815      -0.58231678      -0.32580531      -0.80571226
S        4.84177675      12.15217814      12.33350510       0.71248374      -0.45257813       0.09695041
S        1.68708756      12.32104775       9.83287745      -0.68500899       0.52074842      -0.78490735
S        2.42783177       9.34172172      11.92753918      -0.23270806      -2.31038471       1.72295350
S        8.52453091       1.44112553       1.87567492      -0.10917567      -0.73971017      -2.82709882
S        8.71700593       6.00673157       5.94953981       2.69298114      -2.44152112       3.20807988
S       13.28566233       5.38014354       1.07663172       0.74309843      -1.76395336       3.79376263
S       13.13429727       1.61349054       5.82093029       2.94857903      -0.13728590       0.22484466
S       11.79736888       2.35932382       2.29603760      -2.47472194      -1.26784406       0.49668754
S       12.12096889       5.42807472       5.02764714       3.34597296      -2.92976719       0.99053087
S        9.28469395       5.22378884       2.42474750       1.69169244      -0.48124539       0.10669659
S        9.56398281       2.88139965       5.52984924      -1.82816687       1.24524908      -1.03651194
S        8.72738822       1.37012221       8.85885643       0.35297995      -0.84813053       0.70698823
S        8.98811796       5.80431488      13.40529455      -0.09817193      -0.01994320      -1.17116924
S       12.96604939       5.94225829       8.54405614       2.77787999       2.05390192       1.04599015
S       12.92779452       1.16202421      13.07148872      -1.28297975       0.95545560      -4.49816219
S       12.22134731       1.85880928       9.95293567       0.47584138       1.11276179      -0.21640363
S       12.27853256       4.67501033      12.37847494      -0.19405427      -3.07868469      -2.27223479
S        9.74356948       4.72234921       9.61023997       5.69368293       0.33648795      -1.06032335
S        9.44448513       2.22936539      12.58281179      -2.19421749      -0.62386828      -1.27190617
S        8.58968633       8.39473360       1.65927190      -0.65978990      -3.31416273       0.99716398
S        8.36913365      13.07229423       5.73322131       0.18667902       3.23215703       0.18009353
S       13.00829108      13.09558304       1.46714139      -3.17463679       1.07365328       0.57694122
S       12.77282862       8.51261207       5.60441586       1.66383661      -3.36765146       1.64417240
S       12.24219770       9.32057412       2.26339397      -1.35539547       0.77564044       0.44862813
S       11.98920883      12.73341229       4.58504956       1.65500742       1.27842308      -1.82942970
S        9.39975002      11.79939481       1.79468737       0.32533497      -0.47177806       0.11703055
S        9.50064036      10.00303723       5.02438111      -2.17058406      -0.43038005      -1.27756791
S        8.34637495       8.36100371       8.76448183      -4.67113236       1.87040476       0.61144493
S        8.14859486      13.06842143      13.32956432      -1.08135417       0.20766593       1.11163575
S       12.72250122      13.22056285       8.57001467      -1.62847058       1.30574349      -1.71513353
S       12.45775932       7.72430692      13.03233278      -1.58202002       0.94448483       2.27235727
S       11.99507796       8.71243301       9.56944033      -2.56295656      -1.23940019      -1.51964996
S       12.08241784      11.85957182      11.90516319       0.86390638       0.96330404       0.01587798
S        9.42358809      11.80435379       9.57818093       1.62468590       0.69313042      -1.22793062
S        9.25816615       9.04210990      12.32942202      -1.63169243      -1.48583721      -0.91028130
Sb      -0.01288193      -0.12552043      14.39706827       1.16095844       0.83996968      -2.53241129
Sb       3.72979345       3.36185272       3.93408798       2.75745849       3.65106794      -1.70660109
Sb       0.03183157      14.44831133       7.22770119      -1.31751412       2.54036101      -3.44599170
Sb       3.52955804       3.30118311      11.12877206       0.03727308      -0.15375232       1.93060852
Sb       0.06413764       7.04527025      -0.34977480      -0.57486130       0.27324174       1.00549213
Sb       3.28441901      10.55159523       3.55981201       2.71807179      -0.73431405      -3.67927840
Sb      -0.01429432       7.45929203       7.18040565      -0.70538909      -7.11709016      -0.05529796
Sb       3.43926438      11.00923393      10.70441612       0.95074774      -1.88848484       0.88020283
Sb       7.12845025      14.36480862       0.56718891       3.18189612       3.25578767       3.35127321
Sb      10.88215270       3.96687332       3.84768869       3.59578900      -3.35185810       4.19041810
Sb       7.39264860      -0.07577850       7.41033587      -2.06584935      -0.22671996      -1.25424327
Sb      10.79136796       3.25694672      11.12158794       0.40272235      -4.92437796       2.24297574
Sb       7.38189325       7.06177687      -0.01602962       6.14996516      -1.98620407       1.79923674
Sb      10.89887531      11.13666728       3.50340487       2.70778997      -0.95812299       2.76338477
Sb       7.22852103       7.16065699       7.20304673      -1.79071818       2.50051099      -1.27338416
Sb      10.64632884      10.29045530      10.81965110      -2.60874205      -3.26961698      -3.85360885
128
Lattice="14.3306 0.0 0.0 0.0 14.3306 0.0 0.0 0.0 14.5792" Properties=species:S:1:pos:R:3:momenta:R:3 config_type=highT_NSS128_900K pbc="T T T"
Na      14.27764640       3.79062831       0.02905713      -1.44351400      -1.12361648      -2.26809443
Na       3.88921762      14.02888698       8.11066970      -1.71515169       0.83151736       0.50006516
Na       4.04695701      -0.07550819       3.87823563      -0.92246718      -0.32600489       2.73330508
Na      -0.70218229       3.56042943       3.59311858      -0.61033212      -1.14552950       1.42246189
Na      14.37970064      14.21241556       3.64734578       1.02195088       1.09296410       1.85597989
Na       3.42226859       3.72794378       0.52776713       0.51932716      -0.63939924      -0.23953476
Na      -0.59636507       3.30855863       7.38946042      -1.52884032      -2.26846945       4.98386979
Na       3.28453056       0.12327121      14.95322726       0.76168904       0.05099421       0.50860071
Na       4.54932770      -0.07461581      11.12815358      -2.22297961      -0.08586048      -2.40084922
Na      -0.17193373       4.30361650      10.80962735      -1.53866183      -0.92494643       1.28489038
Na       0.19411811       0.47938816      11.10545207       2.04958847       0.71901628      -2.94536485
Na       2.80415246       3.79095755       7.57623610      -1.69037396       0.36244884       0.94157643
Na      14.89330690      10.60077376      -1.03594236      -1.05101049       0.39286104       0.02027385
Na       3.48958998       6.66664400       7.96662174      -0.21320786       1.81651988      -0.94831379
Na       3.44249932       7.12148042       4.76155380      -2.58360754      -0.64413535      -0.69750995
Na      14.74971262      11.11415315       2.54605634       0.80890318       1.95317939       0.46067665
Na      14.66674946       7.69031165       3.56662864      -2.06491674       1.53442009      -0.01158599
Na       3.85435464      10.90610948       0.08459168      -0.94571812       0.73228633      -2.75834446
Na      14.02431973      10.55291885       5.98722577       3.10300217      -2.33488041       0.25849791
Na       3.67643962       7.22563683      14.81252198       0.15153376      -2.12714487       0.59314731
Na       3.56909289       7.02779209      11.49648785      -0.18466241      -1.58219418       0.49983183
Na      14.64027445      10.86041397       9.73379074      -1.53649070      -0.42007087       0.46229684
Na      13.81589696       7.08273951      11.20801094       0.41440968      -0.20749586      -4.53473299
Na       3.35316278      10.41935311       7.47341603       0.86868755      -0.74372961      -0.90519696
Na       7.08629206       3.51401548       0.13422198      -0.90359200      -2.30297675      -0.30565879
Na      11.20156364      15.06759494       7.83012873      -0.27614537      -0.16076975      -0.13409996
Na      10.38236696       0.26921835       4.60132264       1.39858291      -0.03150345       1.35677995
Na       6.97093626       4.41070182       3.98227284       0.91018759       1.20962802      -3.35540359
Na       6.95260951      15.27656698       3.40388507       1.84637907       1.80834339       0.86303431
Na      10.42948783       3.96014463      14.88387499       0.66395105       0.90490640      -0.93874785
Na       7.08893316       2.75354347       7.09457203       0.76201358       0.24931403       0.63526698
Na      11.04228737       0.24227354      14.82539296      -1.26424280      -0.13315286      -0.07445528
Na      11.00377105      14.07846169      10.96579149      -0.13566267       0.29790285      -1.01209376
Na       6.86957305       2.90519830      10.65859921      -0.76154411       0.03406775       2.42560999
Na       8.04830253      13.82744415      11.09730615       0.39168865      -0.34119847      -2.01170952
Na      10.92910595       4.48183658       7.28792122       1.57990332      -1.24578331       0.34527317
Na       7.21489818      10.49744686      -0.14710645       0.77413358       0.09033183       0.93747040
Na      10.93065798       7.66322379       7.18979156       0.13798920       2.02847689       1.76885512
Na      10.81458122       7.35824386       3.24994081       0.38421734      -1.22133154      -0.69615803
Na       7.50808528      11.81149082       3.13171942      -0.08964996      -1.80876391       0.89092713
Na       7.70800755       8.28806423       3.65287792       0.74408228      -2.34793633       0.49858423
Na      10.71348695      10.81721107       0.09334684       0.85231577       0.55341700      -0.16152830
Na       7.01861197      10.33378178       7.04271633      -1.43662604       0.08459182       0.62132385
Na      10.27069065       7.37984832      14.57171799       0.99992798       2.70606637      -1.25085902
Na      10.66458321       6.73482516      10.58130854      -1.14869198       1.84652400      -0.13916595
Na       7.25902223      10.67863649      11.17058417      -2.02381781       1.52089915       1.44343336
Na       6.95794390       7.38211008      10.34888098       0.29445465      -0.01578862      -2.64482952
Na      11.05813782      11.08865847       7.52129122      -0.99008812      -2.41971426      -1.46673562
S        1.08712879       1.85243546       1.36015660      -2.15224533       1.54818375       4.07592448
S        1.12371883       5.35334419       6.18086715      -0.10842233       2.28656383      -0.00941590
S        5.56488964       6.19848535       1.56924217       2.27556453      -1.37096211      -0.25195276
S        5.79780873       0.62891509       6.09118421      -1.03739236      -1.12501949       1.18140076
S        5.12102396       2.50661436       2.62916528       3.80379329       1.44794623      -2.83723548
S        4.48642437       4.58754971       5.59801765       1.62094472      -1.68656036      -0.44463945
S        1.96811021       5.54651038       2.86397702      -1.37265043       1.38165841      -3.91507391
S        1.65767416       2.09368373       4.58214462      -2.06595547       0.08637807       0.77971611
S        1.58482572       1.28178943       8.35740787      -0.75599368      -3.14868643      -0.76558138
S        1.13060245       5.98479385      13.47391220      -2.95490405       2.67246108      -0.27755613
S        6.10247458       5.36353199       8.46919279      -1.50737957      -2.12486704      -1.97676532
S        5.79117384       1.51322920      13.08365493       0.75585528       2.08949021       1.15155656
S        4.44032139       2.13049316       9.34715435       1.11728133      -0.92969228       0.95620490
S        5.18723093       4.90814861      11.92942455      -0.02677751      -0.74202147      -3.42960302
S        2.23668738       5.32518855       9.91843875       0.57541602       3.80841554       0.16852879
S        2.16289120       2.40171692      12.43393630       0.58721863       1.94241200       1.54636324
S        1.21776182       8.97652527       0.89953082       0.88396150      -1.02448789      -1.63947633
S        1.40645529      12.90299985       5.74684363       2.32268622       0.81366944      -2.04929471
S        5.53951031      13.24874329       1.63186022      -0.66272960      -1.03678006       2.76176335
S        5.19831207       8.48253344       6.21005982       1.73252536      -1.22387011       2.76304840
S        5.20932655       9.58110269       2.07856337       1.91258872      -0.81645401      -1.77422872
S        5.02738768      12.08414448       5.14978350       2.22351186       0.40733034      -1.10953581
S        2.74571494      12.28441385       1.97310009      -0.90713481      -0.34877466      -0.34732106
S        2.09602211       9.35323821       4.74317819       1.82788409      -1.98859077      -1.34980342
S        1.24280349       8.43024926       8.72292255      -0.24067146      -1.17363283       2.24285321
S        1.55584999      13.42364363      13.08486370      -0.15509201      -1.23105602       0.75563754
S        6.01995107      12.52064834       9.08195395      -1.37325687       1.31518427       1.59740385
S        5.65317997       8.23054769      12.95799915      -1.32841920      -1.32983575       0.80237836
S        5.12364742       9.31344546       9.70358866      -0.45794272      -2.48892076       1.52890012
S        5.44126919      11.92983406      12.71945672      -1.19498763      -2.33018435      -2.16905357
S        2.62009378      12.25560344       9.45905342      -0.05483766      -1.75687489      -0.49112083
S        2.45963455       9.53790405      12.04025629       0.90139813       0.70545860       0.10045115
S        8.52913064       1.25515446       1.27881751      -0.67700521       3.29000594      -0.56337061
S        8.36868837       6.02720807       5.32838845      -0.21422166       0.29642697       3.09817395
S       12.68204718       5.86356406       1.48288814      -0.31537672       0.43204823       1.33007569
S       13.01291307       1.29250210       5.73381898       0.84825397       1.25068283      -2.32779745
S       11.57429566       2.09238463       2.71389695      -0.36898482      -0.41658289       0.15120259
S       11.83503299       4.97695934       4.98840865       1.73527738       3.62209453       2.33101505
S        9.21616680       5.13036870       2.38369853       0.50441861      -0.42185094      -1.84212787
S        9.02389309       2.53426487       5.09359274      -1.05187402      -0.96074255       2.60151691
S        8.37860143       1.20443156       8.89338749      -2.26510830       1.62507913      -1.16518815
S        8.44208800       5.79112543      13.19867176       3.82153743      -1.31263754       1.01664069
S       12.70773849       5.67325935       8.74760337       0.67778015       2.03522619      -0.91116899
S       13.06046124       1.73797586      13.22804171      -2.05725318       1.11355552      -3.22004926
S       12.49749513       2.23615215       9.50032704      -0.71728834       1.37993966       2.12956362
S       11.71129453       5.04841176      12.18934268      -1.21619346       1.94676571      -2.55317199
S        9.06432388       4.47001794       9.35190816       0.45129191      -1.47669845       1.23279450
S        9.77173268       1.69760011      12.17208077      -1.24055427      -1.56836781       2.61666155
S        8.40764609       8.68735498       1.11323828       2.01820571       0.70988589       3.53804384
S        9.13461246      12.51472170       6.31596027      -1.24482882       1.20619648      -0.76759093
S       13.32682434      12.82440047       0.95209609       2.80436797      -0.70887417      -3.64409894
S       13.02870483       8.16800830       5.71126627       0.48284581      -1.72585774      -2.75599235
S       12.20494863       9.34349816       1.91911257      -0.35529264       0.68277595       0.94390249
S       12.36676667      12.35218625       4.66510491       1.28216029      -0.39127229       1.16537383
S        9.86132838      12.27905662       2.25394027      -3.26248417      -1.22864811      -0.39679444
S        9.39264600       9.44794828       5.26592287       4.11268059       0.81627033       0.74850610
S        8.47635851       8.30045043       8.31030030      -1.56290064      -0.96655664      -0.63360602
S        8.24228184      12.69910599      13.62544115       0.86860015      -2.12715159      -0.75940934
S       13.27458090      12.83480045       8.55129142       0.26850494      -0.79116389      -0.57305551
S       12.47536497       8.36171994      13.12328976       0.27878945      -0.07624625       2.06777842
S       12.16680634       9.36016739       9.16603474       2.85898118       5.45281937       1.03726477
S       12.31158408      11.85814020      11.96171056      -0.44263152       1.06350422      -3.37060635
S        9.58290438      11.85295906       9.74056639      -0.26345761       0.48771223       0.67645032
S        9.40072929       8.73340397      12.02349350       1.64048713      -0.61971078      -1.66045076
Sb       0.14671927       0.34570775      14.55326429      -3.25109397       1.14206662      -4.04918238
Sb       3.27421532       3.66929683       3.93742069       5.26209083       5.34159264       0.04164551
Sb       0.03278831      14.30391624       7.10158133      -1.93067198       0.37941946       3.93702048
Sb       3.59474316       3.64056633      10.88488773      -6.32720334       0.31094924       3.64466752
Sb      -0.29775174       7.40757429       0.09815237       7.86762349       0.19882744       0.16927393
Sb       3.92817989      10.72519877       3.52487102       3.90919570      -4.42148985       0.10633678
Sb      -0.00802449       6.95260805       7.37686218      -3.06775003      -1.77288987       2.55558962
Sb       4.00271574      10.97970480      10.94443226      -8.34532057       0.63318308       1.16738195
Sb       7.03632128      14.30413020       0.17331402       1.20802080      -4.71116793       1.88849505
Sb      10.49428152       3.75583100       3.89552101       1.37572233      -0.23821995      -0.57203918
Sb       7.38247322      -0.37942175       7.52361889       0.66931066      -2.91166381      -1.96692711
Sb      10.74529596       3.41071620      10.76353157       0.08432354       1.29869995      -0.85120960
Sb       7.01087408       7.22690186      -0.04029939      -3.49492982      -2.17522210       1.22372725
Sb      10.94396020      10.65298991       3.54340217       6.68932772       3.60368878      -3.48644044
Sb       6.90148630       6.89079384       7.07547719      -0.58207191       2.60961678       1.84045085
Sb      10.82083382      10.21394237      10.84784812      -3.80606112      -0.75217860       0.82519179
54
Lattice="12.582 0.0 0.0 0.0 12.582 0.0 0.0 0.0 12.582" Properties=species:S:1:pos:R:3:momenta:R:3 config_type=highT_Na54_600K pbc="T T T"
Na       0.13391680       0.10280798      -0.23133027       0.92592299       1.39971846      -0.14035473
Na       1.74732742       2.75948258       0.82762434      -0.39933838       0.23761580      -1.65282283
Na       0.33236273       0.86798738       3.43197163      -1.02485038       0.81026164       1.37499342
Na       2.66602044       2.08993262       6.01928217      -0.19959467       1.67005280      -0.78546354
Na      -0.77817030      -0.53425779       8.44442526       0.62083184       1.62308750       0.15969452
Na       1.67108438       1.86659251      10.22364322       1.21266089      -0.82391953       0.29255042
Na      -0.55059342       5.53590428       0.62135022       0.51244108      -1.90583678      -1.28948819
Na       2.05435578       5.96705113       2.72567379       0.38715870      -1.22601848       0.83416697
Na      -0.70193078       3.99538326       4.45584693       2.11089442       0.94225605       1.57410556
Na       1.85002347       6.39324129       6.83467578      -1.27372245       0.00788193      -0.30124726
Na       0.12934141       4.29370687       8.02297732       0.62342123      -0.39751571      -1.22437918
Na       1.72130380       5.66993575      10.58854541       0.57405684      -0.17538133       0.71703425
Na      -0.03617269       8.14811728      -0.56439748      -1.24565824      -0.82359904      -1.30097195
Na       2.77194509      10.96778104       2.29018855       0.36995855       0.06637226      -2.02573845
Na       0.35468550       8.68988958       2.88192387       1.54195464      -0.04104848       0.59577126
Na       1.73483802      11.22572488       6.19451710      -0.20850837      -0.43438171       0.26355580
Na       0.21919243       8.67039902       8.52800874       2.05964085      -0.28677497      -1.78014655
Na       2.19606811      10.81745490      10.64786555       0.76314563       1.33674999      -1.23084024
Na       4.56377420      -0.12566957       0.09666476      -0.44515504      -1.28966636       2.25344319
Na       6.55165019       2.83414655       2.26623758      -0.70321878       1.49165510      -0.87160781
Na       5.09341587       0.73424732       4.29901116      -0.56633033       0.18897866       0.58105066
Na       7.01647497       2.33892781       6.46024070      -1.08763049       2.21758394       1.49695369
Na       4.50942682       0.06476979       8.48088627      -1.34125735       0.14998343       1.40070704
Na       7.29736520       1.19082965       9.31573456       0.22109015       0.02130760       1.66115213
Na       4.39649387       3.34648186      -0.30494602       1.55397957       1.86427703       0.13887535
Na       5.44745858       5.98346184       2.49967597      -0.87635808      -0.84634024       0.95271982
Na       4.40243294       4.17647191       4.58312477      -1.69090750       0.26258527       0.84815844
Na       6.44455266       5.86754609       6.77133240       0.44512880      -0.42788854       0.65683068
Na       4.28898475       4.01192541       9.14952496      -0.78479727      -0.19836893      -0.12565840
Na       5.84447797       6.69817268      11.33582854      -0.77507053      -1.57494120       0.09332224
Na       3.36461440       8.31605743       1.00476923      -0.63050678       0.69590435      -0.73846940
Na       6.24521348       9.75898481       2.41702979       0.44525221       0.56002986      -1.55570424
Na       3.74381475       8.71673797       4.30561045      -0.38719932       0.61447617       0.37240241
Na       5.08004098      10.89941555       6.39538373      -0.34298570       0.81894897      -1.31854500
Na       4.11989836       8.40373977       8.40900345      -0.74371663      -1.44486731      -1.49419078
Na       6.28675139       9.99871497      10.91913145      -0.54503795       0.20912781      -0.21228359
Na       7.74003709      -0.27996982       0.01531179      -0.05329771       0.61206791      -0.50149346
Na      10.33156836       2.33198063       1.25006387      -1.41326896      -0.61112294       1.60563019
Na       8.73712169      -0.16340707       3.76894796       1.15995789       0.80025138       0.78433974
Na      10.76429007       1.66264190       6.62707125      -0.63885616      -1.85408979       1.02807838
Na       8.46762834      -0.79660000       7.56197794      -1.90868996       0.53008333      -0.85812168
Na      10.99171110       2.36966508      10.32007389       0.86726902      -0.55802684      -0.29693452
Na       7.89427945       3.65920950      -0.67371514      -0.31057790       0.28607264       1.32010719
Na       9.40467269       6.31356156       2.56698878      -0.67256021       0.94470443      -0.84042090
Na       8.82999143       4.04393912       4.73245625       1.66125313      -0.15691537       1.85495278
Na      10.61239689       6.34956621       6.16564390       0.16335744      -0.78029866      -1.02447456
Na       8.43713478       3.66321872       8.67557065       1.32657368      -0.17441646      -0.31976275
Na      10.47414243       6.35693692      10.15438194       0.03520903      -0.19168620      -0.48845651
Na       8.86604848       8.35270835       0.28918501      -0.30891558      -1.09515405       0.65408444
Na      10.80046142      10.79389083       2.01318397      -1.76043402      -0.47907136       0.81467483
Na       8.77188433       8.42218144       4.96343603       0.44753054       0.43649448       0.82736909
Na      11.01732565      10.66737735       5.22295572       1.17598364      -1.94102291      -2.01905496
Na       8.13820428       8.29153144       8.33071131       1.62225565      -0.64028634      -0.09239937
Na      10.60366198      10.31447144      10.76371897      -0.48848365      -0.41988925      -0.66769363
54
Lattice="12.582 0.0 0.0 0.0 12.582 0.0 0.0 0.0 12.582" Properties=species:S:1:pos:R:3:momenta:R:3 config_type=highT_Na54_600K pbc="T T T"
Na       0.59506619      -0.93412931       0.10355996      -1.03426430      -0.57255254       2.95800068
Na       1.53501314       2.31983808       2.40057250       0.12682191       0.00877418       0.08602662
Na      -0.09419014       0.34685473       4.15285765       2.42871435       0.15611752       0.16086519
Na       2.48231220       1.07795194       6.34091467       0.40108136      -2.43003942       0.57967400
Na      -1.73393339      -1.05329147      10.02618981      -0.68243605       0.46370793       0.57977344
Na       1.07048875       0.90511506       9.77150340      -0.40060508       0.15665981      -1.04718193
Na       1.19400541       3.79125831      -0.27022432      -0.92088329      -2.65761152      -0.36983560
Na       3.93783661       6.40947091       1.02294799      -0.61024015       2.48164469      -1.71975324
Na      -0.17893035       3.67517320       5.31799275       0.34622613       0.71165572      -1.41840858
Na       1.67837027       6.91997351       6.20730851      -1.52306851      -0.17556628       0.15863134
Na       0.06554650       4.65656527       8.24205167      -1.12427959       0.62693324       0.37697556
Na       2.52443192       6.60125615      10.17765784       0.25703117      -0.10030190       1.45657520
Na      -0.11475224       8.34226108      -0.28559624      -0.39118104       0.34935066       1.53447757
Na       2.29748332      10.74723541       2.95897600      -0.81617197      -1.17890640       1.31249078
Na       0.92395500       6.00833349       2.94203476      -0.07413140      -1.42821390      -0.24715181
Na       2.04501382      10.22364925       6.63785278      -0.21420094       0.83418167      -0.45840832
Na      -0.34861387       8.31675114       8.62608832       1.42390544       0.23659959      -0.26840239
Na       2.08738024       9.70353679       9.85038991       1.67524716      -0.66347874      -0.45261920
Na       3.15068616      -0.16314158      -0.89457500       1.24066004      -3.13767958      -1.78569762
Na       5.60623785       4.62538815       2.79719041       0.91134065       0.95804036       1.13595549
Na       4.27706382       1.20506001       3.57776648      -1.27392571       0.09447220       0.57294214
Na       6.67903738       2.53094905       6.32931193       0.42937416       0.74669521       0.64635509
Na       4.74008384      -0.28301339       8.88822914      -1.41835772       0.57465147      -0.07709208
Na       7.45787843       1.63506232       9.93699837       0.65869019       0.12266080       1.19517564
Na       5.25744436       3.88551242      -1.41365569       1.23113757       0.48276892      -0.73325509
Na       7.53673937       6.83060678       1.43616882      -0.15359476      -0.77273235      -2.76638966
Na       3.43397414       4.49299243       4.88171767      -0.06231689      -1.33433761      -0.85162547
Na       5.96007396       5.74974430       6.76294308      -0.67375888       1.11579149      -0.09169205
Na       3.55030007       3.43021364       8.46354605      -1.48533459       0.41509105       0.27158563
Na       6.01560050       7.02817122      10.70471189       0.15745068       1.48473154      -1.37026141
Na       3.30622542       9.42665601       0.40856292       0.15042054       1.01876154      -0.54078752
Na       6.96703773      10.32236718       1.96734293      -0.62352192      -0.72073732      -0.03606993
Na       4.78254511       7.51472210       4.15423169       1.93912257       1.26389894      -0.76190173
Na       5.31493014      10.83579184       5.05745640      -0.34271666       0.23858042      -0.79874102
Na       4.75712987       8.89497120       7.82518823      -1.49934297      -2.14903677      -2.34818963
Na       5.86242483      10.41943246      10.71574180      -1.22998371      -1.21207186      -0.58140054
Na       6.97774433       1.59499973       1.58818026      -0.28313079      -0.00659342       1.61473824
Na       9.99977836       1.96164652       1.98105068      -0.85902241       1.05431682      -0.88633492
Na       7.99308842      -0.09437262       4.69899904       0.47698884       0.98053519      -0.39329197
Na      10.20389589       1.65501351       6.98402933       0.57287581      -0.85506384      -0.62608250
Na       7.81246659      -1.18102961       8.14037110      -0.03439485       1.98598238       2.14672346
Na      10.88456480       2.21383974      10.59402093      -0.26078297      -0.48099167      -0.25338905
Na       8.76720918       4.10158589      -0.01838502      -0.30808645       1.73639261       1.33060197
Na      10.96910967       5.92135499       1.32066396       1.87091056      -0.24364858       0.79203779
Na       8.93227111       4.72999040       4.37363170       0.77070195       0.81769200      -1.73717349
Na      10.95429203       7.05403722       5.90220900       1.10909692       1.07865130       0.44446709
Na       8.83874263       4.24221031       8.30449885       0.57173713       0.23514851      -0.11565701
Na      10.36672014       6.40393394      10.68653510       1.46232825       0.39593592       0.15722032
Na       9.22308372       9.28479775      -1.35110990      -0.22270476       0.70591768      -0.24626368
Na      11.35412997       9.73534462       2.84619429      -0.70950942       0.11804041      -1.27327293
Na       8.04169197       8.60391153       4.89958952       0.05401772      -0.25201360       0.72295175
Na      10.26937725      10.37641306       6.41055805      -1.15765354      -0.21646641       1.30120263
Na       8.12607317       7.82140920       7.76395376       0.89409833      -1.36268021       0.79841591
Na       8.75886445      12.23062414      12.14805424      -0.77037811      -1.69965786       1.92246685
54
Lattice="12.582 0.0 0.0 0.0 12.582 0.0 0.0 0.0 12.582" Properties=species:S:1:pos:R:3:momenta:R:3 config_type=highT_Na54_600K pbc="T T T"
Na      -0.54163715      -0.45497145       1.15619310      -0.95191244      -0.11618553      -0.13966745
Na       1.54116660       2.35245240       1.42237394      -0.22713464       0.79706795      -0.73415646
Na      -0.38025082       0.23401461       4.08459496      -1.25097519      -0.30981889       1.79724067
Na       0.80371821       0.29872749       7.27830023      -0.54642356       0.52882976      -1.35644771
Na      -0.90126266      -1.21121034       9.62212274      -0.45130383       0.13481338      -1.81982550
Na       0.13246356       1.97826229      10.15804414       1.63172512       1.60582617       0.25064623
Na       1.48929865       5.51452580      -1.06941237       0.60140519      -0.34635794      -0.63536600
Na       4.10771960       7.44884760       0.06041856       0.91320955      -0.47388078      -0.30736658
Na      -0.96754703       3.88457662       5.21146751       0.38771233       0.84985942      -1.66809338
Na       2.77164452       5.77456274       5.67958392      -0.77770174       0.63438890      -2.25249245
Na      -0.37098429       4.66231780       8.53023240      -2.66037513       1.65626478      -0.63155360
Na       3.56228454       7.27474526       8.88926581      -1.61977350       0.97793970      -1.23414567
Na       0.06996939       8.17017520      -0.44919705      -0.55237050      -0.64672339       0.06116033
Na       1.59119468       9.27777343       2.59155701      -1.07066571      -1.94743676       1.33809589
Na       2.46874341       5.90471245       2.38533221       2.60014626       0.13887786       1.29212031
Na       2.08176004       9.58874500       6.16227815      -0.58663223      -0.54963288      -0.54264411
Na       0.24008422       7.99308430       8.79115436       0.03375733       0.34035262       0.97479143
Na       2.64778673      10.81814186       9.26252369       0.65814088       2.45887729       2.45687122
Na       2.94191303       1.07774512      -1.22142508       0.64856570       0.02390460       0.21646606
Na       5.79510044       4.71971723       3.56503133      -0.66176582      -0.68028126       0.03434705
Na       2.79321614      -0.00129651       3.56829164      -1.57475745       0.04389754       1.64129329
Na       7.69570877       1.92580736       5.04089485       0.31816628       1.21269561       0.49806399
Na       5.28319814       1.30764782       8.20220268       0.85160259       0.95708982      -1.19840921
Na       6.48561225       1.46471533      11.22179183      -0.99667630       1.11654372       2.47479559
Na       4.51097574       3.93383626      -0.14255688       1.10286420      -0.34135391       0.28282901
Na       7.51294411       8.07001616       1.50781220      -2.12670109       0.25021339       1.01168909
Na       3.67471208       2.79667311       5.66694873      -0.72924993      -0.13601510       1.30328751
Na       6.12958176       5.93627733       7.05134662      -0.59235630      -0.08966234       0.49001559
Na       3.29296843       3.87693278       8.74980160       0.84152350       0.47613792       1.78120440
Na       7.21754977       6.15227517      10.45539134      -0.72853018      -0.48083124      -0.41856545
Na       1.97562122      10.61960804       0.06650474       1.51849196       1.83392176      -0.83076806
Na       5.39385983      10.42825021       2.38039886       0.64042458      -3.19458032      -1.31058358
Na       4.65043031       7.99128612       4.38056365       1.30698236      -0.01708407      -0.67664289
Na       5.61305199      12.15607628       5.22484030       0.53035254       0.34045611      -1.52592012
Na       4.92549756       9.80154167       7.22554972       0.64781079       1.07543437      -1.35607775
Na       5.74355400       9.61697933      11.14794654       0.65225442      -1.49085468      -1.97037365
Na       6.44471124       1.20861737       2.01210256       0.98971789      -1.38090888      -1.94913901
Na      10.78092375       2.45366987       1.88732662       0.83091257       0.24523385      -1.29694894
Na       8.91952425      -0.79297862       3.50846005      -0.57430693       0.10357875       0.35955444
Na       9.57187982       0.50165792       7.19633312      -0.80733913       0.86285235       1.39781639
Na       8.05135240      -2.71801358       8.85292371      -0.73748162      -1.68105777      -0.09613557
Na       9.48690879       2.60242223      10.77592501      -0.60838476       0.10849096       0.39934290
Na       7.96628417       4.40331742       0.91055207       0.13294466      -1.31698248       0.50380763
Na      11.59163989       5.57980008       2.15064661       0.47209179      -0.66595976       0.17713557
Na       9.22337016       4.81818335       4.51565070       0.97470831      -0.00499835       0.06532966
Na      11.93947744       7.39847344       5.51975035       0.12157597       0.02764973       1.16825530
Na       8.38113898       3.43477003       8.01841131       0.97597785      -0.64582507       0.71923732
Na      10.44902440       5.90098513      11.73318292       0.30140401      -1.01205854      -1.19362947
Na       9.73108659       9.38268100      -1.15375072       0.12577030       1.13063131      -0.55812758
Na      10.68457452       9.27524790       2.46318953       0.00058102      -1.09241279       0.56742935
Na       8.42003592       8.84116074       5.00525205       0.16013415      -2.85055500       1.17174252
Na      11.41021471      10.23671700       5.60172208      -0.31879349       1.08061165       0.21479223
Na       9.35247451       6.78787024       7.75042555      -0.17640771      -0.61923140       0.98944826
Na       8.70873067      12.39684663      12.48872848       0.35706508       1.07824786       0.06427093
54
Lattice="12.582 0.0 0.0 0.0 12.582 0.0 0.0 0.0 12.582" Properties=species:S:1:pos:R:3:momenta:R:3 config_type=highT_Na54_600K pbc="T T T"
Na      -0.16808335      -1.41992617       1.94541417       0.40410486       0.54676154       0.77295379
Na       2.72451916       1.92020192       2.45226995      -0.70283172       0.19033392       2.19453086
Na      -0.55494769       0.69862137       5.43845358       0.68027252      -0.26382727       0.23686012
Na       1.43062378       2.33481634       8.13352804       0.14154429      -0.22626407      -0.27535094
Na      -1.09366168      -1.01325709      10.16474875      -1.03901639       2.44244974      -1.25710498
Na       1.10468484       0.79860294      12.00564024       1.37437287      -0.00637624       0.62721405
Na       0.69040445       4.78940352      -1.99006378       0.52401984       0.00270143       0.31711554
Na       3.82193526       7.80318347       0.47313938       0.88124940      -1.12406886       0.04543475
Na       1.26661713       3.79856429       4.70881340       1.49891976       0.78675308       0.96208930
Na       2.27921969       6.55616185       5.89529328      -2.12488116       0.45710553      -0.39710825
Na      -1.24998921       3.74311300       7.35300888       1.19387182       0.13984277       0.86665700
Na       2.67994107       7.64278229       9.84162199      -1.83442211       0.62025800      -0.40114554
Na       0.75963525       8.90276920      -0.31564172      -0.02121126       0.53976479       0.98466263
Na       1.41751778       8.52979103       3.56372121      -0.35112760      -1.74610266       1.43247284
Na       1.86003218       4.93706981       1.45279524      -0.25085497      -0.42731397      -2.25423950
Na       0.81348931      10.08533641       6.54538039       0.79169601      -0.93200263       0.71173951
Na      -0.25468737       7.87365664       9.30984562       0.49645318       0.70687915       0.24291675
Na       2.51714946      11.04558809       9.73180921      -0.06321137       0.35888778       0.95406912
Na       5.12543255       1.23671935      -1.39676565       0.59638350       0.28130819       1.56827562
Na       4.52155409       4.67037658       3.84434130       0.15882745      -0.57951040      -0.70649006
Na       2.60110597      -1.14349353       3.61707725       0.58926546      -0.15442022      -0.21061577
Na       9.28683069       2.45665851       4.79047033      -0.33443880       0.78307506      -0.20105431
Na       6.52532969       0.42511852       8.35482503      -0.10329191      -0.41100086       0.73296385
Na       8.33921138       3.05827356       9.33199731      -1.98833886       0.15649736      -0.42577711
Na       4.89833508       4.59230845       0.20238517       0.93492703       0.98847188       0.12591385
Na       6.91594689       6.62774343       1.37586067      -0.29239783      -2.73900592       0.86555624
Na       3.41722263       0.77329654       6.37737232       0.11167156      -2.48355205       0.26183561
Na       5.23777661       6.60917909       7.21100303      -0.85153876       0.72894731       0.59920311
Na       4.31755147       4.12251200       9.69397213       0.08732237      -0.67332209      -1.98622873
Na       5.86886879       6.48347411      10.72606962      -0.18339843      -0.98605130       1.87876245
Na       3.60701661      11.81235287       0.52676372      -1.00804382      -0.14432996      -1.32127611
Na       7.17825404      10.52562935       1.08232900       1.11948514       1.59297933      -0.49945746
Na       4.57296896       7.74492794       3.82728468       0.23840733       0.20805600      -0.81585123
Na       6.25207837      12.63999455       4.88022191      -0.75608503       0.84289555      -1.34023798
Na       4.37618255      10.35653828       6.59978373      -0.10149764      -1.50053217       0.75075648
Na       5.66996978       9.98523507      10.29483843      -1.12501603      -0.44355203      -1.59256774
Na       6.06294340       1.85518738       1.98618757      -0.67365091       0.59671755       2.16985428
Na      11.38032973       2.19133950       1.85107668       2.22340669      -1.07823955       2.86973255
Na       9.09830480       0.06280285       2.24693612       1.55658133       1.05142708       0.89614140
Na       9.37762079       0.37413234       7.51876744      -2.12137963      -0.17485574      -0.71742728
Na       8.70975087      -2.75618432       8.11069082       1.94925084       0.20163539      -0.09091733
Na      11.38774238       2.44368521      11.07840422      -0.27799072      -2.67470869       0.95380513
Na       8.30615430       3.65733248       0.95585380      -0.91416896      -0.24988404      -2.68058378
Na      11.38582211       6.03209037       2.59365707      -0.17633635       0.74245842      -1.13233648
Na       7.95502559       5.26311675       4.94904929       0.46105942       0.82941866      -0.36927283
Na      11.24789501       6.77070804       6.02632640      -0.24168428       0.32364779      -1.18262153
Na       5.93273495       3.57570958       6.60670542      -0.52275786      -0.92539718       0.88309501
Na      10.25944148       6.01444192      11.70291344      -0.34283098       0.02512241       0.93076898
Na       8.51613032       8.48206654      -1.37252989      -1.23778100       1.49901596      -1.11118226
Na      10.31779040       8.91065129       1.66004815       0.91013946       0.28697951      -0.93375201
Na       7.49630693       9.00779193       5.05653601       0.53811023       1.19146128      -1.79911087
Na      10.61178370      10.17817938       4.75541054      -0.14576399      -0.28998777       0.60533948
Na       8.44650121       5.94822464       7.98580920       0.50889975       0.34428029      -0.62367137
Na       7.84668580      13.08040057      11.33354991      -0.18429374       0.76817290      -2.11533886
54
Lattice="12.582 0.0 0.0 0.0 12.582 0.0 0.0 0.0 12.582" Properties=species:S:1:pos:R:3:momenta:R:3 config_type=highT_Na54_600K pbc="T T T"
Na      -1.24974563      -0.42055876       1.95564615      -1.96889902       2.19088464       1.56490386
Na       4.93839491       1.91075422       2.90406767       0.45885954      -1.00758927       1.47686057
Na       0.68176715      -0.18056974       4.95352655      -1.32398984       0.69414731      -0.30013296
Na       0.23736917       0.11583290      11.29292590       0.77594780      -0.19907746      -2.09009586
Na      -0.38057885      -1.75740257       7.90191064       0.07097876       0.10604494       0.46746292
Na       2.00480021       2.13657438      13.35452119      -0.82052277       1.65785928      -0.89039978
Na       0.58147362       4.25357612      -3.62381341       1.74712889      -0.96957782      -0.03456923
Na       3.72008586       8.06811740       0.59694307       1.74647761       0.84598828       1.20545599
Na       0.10843717       2.80928437       5.88351006      -1.93476285      -0.28304769       1.46878979
Na       3.22010594       5.94382824       6.28789564      -0.69135103      -1.22903956       0.34054086
Na      -2.44890568       2.39292040       8.94386204      -0.52163284      -0.46007546       0.73198705
Na       3.10137221       6.69695757       9.98791583      -0.72877392      -0.90701594      -0.29437543
Na       0.50160045       9.31835998      -1.32205173      -2.72345163      -0.27553730      -0.28965679
Na       0.78954989       8.28360173       2.34401484       0.20106612      -2.02045760      -0.61506869
Na       0.60375731       5.73836151      -0.23383293      -0.33108259       0.72406253       1.54443813
Na       1.47414868       8.97803576       5.56099593       0.67396082       0.18373784      -0.43165125
Na      -0.10814667       7.40345401       8.28890280       0.37609105      -0.22825483      -1.51716332
Na       3.83453552       9.62527827      10.03269640       1.00582814       0.47152858       0.82663186
Na       5.03900706       1.54527217      -0.79093631       1.27347988       1.36794698       0.26277916
Na       2.73888534       5.53385140       3.36468743       0.55313431      -0.35434267      -0.26639153
Na       3.55648484      -0.62198877       4.41227999       1.50232715      -0.76014229      -0.54622806
Na       9.03943273       3.89047927       5.75919260      -1.11415816      -0.77140893      -1.44253520
Na       5.75250060      -0.10337382       8.81745514      -0.41589750      -0.14791720       0.86356726
Na       7.14339813       3.18754576       9.70830200       1.21831614       0.57358233       1.56290683
Na       4.90793553       4.38928691       0.48375111       1.28233566      -1.10320647       0.18903079
Na       7.04686556       7.35499634       1.06045995      -0.90653040       0.97071045       1.00229911
Na       2.39871557       0.20935698       8.16519662      -1.59388439      -0.59027866      -0.92968110
Na       6.69280707       5.74060141       7.17693236      -0.08620580      -1.81399329      -0.45073253
Na       3.76911001       3.61815262       8.66978785      -0.38918027       0.18144302      -1.33609407
Na       6.26482592       7.08877654      10.05411004      -0.06234467       1.42133491       0.57543817
Na       2.34107345      10.81484208       0.93451009      -1.74472376       3.00356847       0.70278272
Na       7.73257018      12.93575047       1.02338591       2.04434768       0.39518782      -0.67146630
Na       3.83676603       8.20748553       3.72082697      -1.41438748      -0.72589855      -0.87487339
Na       6.68522847      12.55332260       5.29652028       1.89736244       0.12447564      -0.72264301
Na       4.86684761       8.97309364       6.75793354       0.29343710       1.79478866      -1.63577840
Na       7.43757573      10.40102553      11.07831356       1.09719558      -0.76331135      -1.03092014
Na       6.27486470       4.85022378       3.58750925      -0.39979619       0.98625838       0.71256943
Na      12.61571737       2.54744321       3.17736219      -1.80345823      -0.00189775      -0.11226574
Na       9.61750405       1.42368241       3.44846015      -0.05572070       0.89396871       1.84029394
Na       9.63874982      -0.09696081       6.98470288      -2.07022745       1.55447192       0.66257891
Na       8.55691257      -3.14140162       7.70132803      -0.37419308       0.19697321      -0.89051039
Na      10.85521286       2.37790233      12.59688490       1.83460949      -2.20558281      -1.00696180
Na       7.87956088       3.67444579       1.06716091       0.63382656      -2.56559142       1.12030233
Na      10.63441237       5.66170401       1.90849581       0.34980820      -0.48092863       0.69055389
Na       7.71034245       7.77038482       4.14168358      -0.69875949      -0.48301908       0.37464726
Na      11.26592693       6.87501961       5.15676214       0.59965213       0.48088105       1.16728849
Na       3.92116797       2.52636345       6.06789730       0.03000934      -0.33798757       0.94073290
Na       9.64373660       4.96549539      11.21142078      -0.56028413      -1.33035199      -1.17083861
Na      10.20914235       8.12901525      -2.08912577       1.18551332      -1.29219101      -1.41599978
Na       9.96595374       8.86613382       1.71500548      -0.64073910       0.62141477       0.94224943
Na       5.72029387      10.49962098       1.84185836       0.53679827       0.59356504       0.46903786
Na      10.40623276      10.62755026       4.96379336      -0.34284305       0.19182147      -1.75994015
Na       9.63245449       5.73016865       8.36980139       1.12004864      -0.19300852      -0.74015828
Na       9.68676316      12.77332620      10.44165351       1.20925968       1.27408489      -0.23899769
54
Lattice="12.582 0.0 0.0 0.0 12.582 0.0 0.0 0.0 12.582" Properties=species:S:1:pos:R:3:momenta:R:3 config_type=highT_Na54_600K pbc="T T T"
Na      -0.62580424       0.04650919       0.97557195      -2.07567698      -1.04272139       0.66406923
Na       5.72378505       0.65800595       2.80800795       1.40725423       0.57681872      -1.12301910
Na      -0.20402242      -0.05404399       4.49097211      -0.26808919      -1.32774603      -0.06737932
Na       1.52376341       0.78938251      10.47763115       0.35375093      -0.03489712       0.67690858
Na      -0.52620323      -0.93893789       8.93651124       0.72442381       0.38737513       1.48053163
Na       3.19853575       3.53670258      13.20739001       0.32736794       1.84908644       0.61715195
Na       2.15167370       4.17984625      -2.94418920      -1.03222636      -0.64516031      -0.86422113
Na       3.84576750       7.35252460       0.82824409      -0.43842812      -0.17018416       0.63462402
Na       0.08030858       2.18865289       7.36725533      -1.32633639       0.07723695      -0.14775941
Na       1.90600258       5.50103270       6.59036088       0.32003176       0.83152132       0.52827418
Na      -1.43356384       3.23864904       9.88986002       1.68115727       0.33056145      -1.24931884
Na       3.61435333       7.18725613       8.99169776      -0.00926936      -0.83342337       0.45135759
Na       0.05706851      10.31416310      -1.04014942       0.40542245       0.33351835      -1.45239167
Na       0.26629545       9.47092456       2.68600675      -0.62975447      -0.00553403       0.31598448
Na       1.28378000       6.64782747      -1.24746387       1.15091474       0.19179218      -1.07455794
Na       1.66272938       9.49495796       6.20258340      -0.58220561       0.16644248       1.63540816
Na       0.30131215       8.31060338       9.01009101      -1.13359620       0.52757816      -0.97072417
Na       2.92578405      10.43507914       9.51633033       0.89734901       0.59292694       0.26857015
Na       3.62786933      -1.29513223      -0.13763612       0.50564186      -0.20279600       0.36447132
Na       1.68824654       5.45503021       2.99919948      -0.25747914       2.97020817      -0.41596281
Na       3.01478716      -1.97507138       3.57160994      -0.48936621       0.05489203       0.26997905
Na       7.48010084       3.43121093       4.71807271       2.01555012       0.36977208      -0.66250405
Na       6.91117411      -0.53439092       9.18516811      -1.03590193      -0.38829485      -1.63978733
Na       7.52204686       4.02295673       9.62112796       0.58009983      -0.78125398       0.37455472
Na       5.13788557       5.23544299      -1.11078635       1.13701675      -0.75767516      -3.67468945
Na       7.38233077       6.99579294       0.58719831       0.06147078      -0.51197167       0.59610024
Na       2.62756932      -0.00859035       6.66857375      -0.80994506       1.64591070      -2.07691692
Na       5.69337455       4.69223107       7.34123547       0.23032244       2.97030465       2.19581008
Na       4.82441169       1.78046514       8.77705574      -2.80078966       1.06122172       0.28810555
Na       8.40395009       6.74253054       8.36584370       0.13793583       0.30875654       0.88089585
Na       2.01219455      14.20349203       3.43260137      -0.61095481       1.41481553       1.84170272
Na       5.49807759      14.19385324      -0.53863868       1.04485216      -0.09598265       0.13963417
Na       4.12437295       7.14413742       4.65301297       1.85972524      -0.53326509       1.13955339
Na       5.89524952      13.02240581       6.15656030      -1.71211355       0.29551638       0.90076366
Na       6.12864559       9.71392748       7.10401803       0.08040415      -1.35805604       2.43167840
Na       5.89200790       8.88628931      10.66276008       0.24633888      -1.53127159      -0.75490156
Na       5.67712526       5.20384667       2.92080882       0.18968704      -1.64477216       1.70136898
Na      11.04861178       3.50084887       3.79567346       0.51518486      -0.83059467      -1.66069792
Na       8.90474365      -0.79257428       2.88765196       0.75333899      -0.86571800      -0.18742570
Na       9.75751114       0.79204795       6.25825396       1.96215729      -1.24337697      -0.36671456
Na       9.80222309      -3.18401605       8.46282287       0.94528903      -0.21013934       1.00840058
Na      12.63187630       3.30181000      12.32599819      -0.86594307       0.88738964      -0.08603849
Na       9.06254071       2.43308191       1.54682240      -1.38403371      -3.42902163       1.63988165
Na      10.01700700       7.10390924       2.01961097       1.33146925       0.25022378      -0.48352157
Na       7.94862804       6.35428223       4.94751711      -0.19221207      -0.16733421      -1.71942100
Na      11.52522738       6.38050631       6.21284339      -1.05378675       2.42818759      -0.25396338
Na       3.99269749       2.71896081       5.47626537       0.93276226       0.34509492       0.61357569
Na       9.78811303       4.74571445      12.16076647      -1.27147489      -1.26422472       0.72510735
Na       9.68777959       7.92140285      -1.42271078       0.66133413      -0.37962368      -0.01397327
Na       8.77860836      10.40677041      -0.16890743      -1.28292270      -0.27943639      -1.33918545
Na       6.55861173       9.38060750       3.55070380       0.28394437       1.47724930      -0.22632115
Na      10.09778268       9.45976573       5.03991480       0.76093552      -2.33859533      -0.13977338
Na       9.46922563       3.81250175       7.16788890      -1.17724490      -1.38321672      -0.99121584
Na       8.73082648      13.48981717      11.10938747      -1.06338179       1.91188613      -0.74207793
54
Lattice="12.582 0.0 0.0 0.0 12.582 0.0 0.0 0.0 12.582" Properties=species:S:1:pos:R:3:momenta:R:3 config_type=highT_Na54_600K pbc="T T T"
Na       0.40843833      -0.61625953       1.64886508      -1.39576371       0.49017353       0.20275210
Na       5.71132596       0.60148570       4.00183492       0.10533632      -0.16089283       0.58150849
Na      -0.64764526       0.67621190       4.82297638       0.03336773      -1.02807304      -0.41132497
Na       1.68703862       0.63195891      11.22285825       0.70272143       1.20145142      -0.41552175
Na       0.66116853       0.36481021       7.80931988       2.63178805      -1.12725673       0.46470341
Na       3.80591716       3.51274671      13.48895277       1.25788372      -0.51743671       0.09874407
Na       1.81711420       3.42482287      -2.45937531      -0.33161678       0.25338846       0.66176698
Na       4.82163074       6.45880726      -0.69887195      -1.53743043      -0.49307361      -1.08184926
Na       1.47579140       3.61093115       6.33434366       0.24788206      -0.42745318       1.01359948
Na       2.34288367       6.41616358       6.42909081      -0.31142231       0.05809582      -0.81421390
Na      -2.24229971       2.99096349      10.71784547      -1.12628293       0.84971191      -0.49372764
Na       2.18565179       8.09663075       9.52161128      -1.57773777       1.26301034      -2.11181175
Na      -0.25858405      10.57055386      -2.79024373       0.36818968       0.26143004       0.11263346
Na      -0.35003830       9.35217825      -0.22439676       0.31361059       1.32773915      -0.30564904
Na       1.98718116       6.71319868       0.58944775       0.19719574      -0.82554134      -1.16754922
Na       0.02180876       9.99369797       6.62285193      -1.76626935      -0.48155773      -1.09168506
Na      -0.45390934       6.54589266      10.33150034       0.62695425       0.17464358       0.26508595
Na       4.05829549      11.93832568       9.69732867      -0.22028971      -1.24456652      -0.62836275
Na       3.44252812      -3.23148718      -0.45356562       1.40605161       0.86368609      -0.30040689
Na       0.23603430       5.23241896       3.63675120      -0.30576123      -0.15176941       0.35794630
Na       2.02332823      -3.20187208       3.27739704      -0.98329349      -1.76431785       1.58752349
Na       8.77345715       1.16573870       5.68988914      -0.50925142      -1.13395946       0.33094867
Na       7.38138160       0.12049174      10.95046099       0.25879836       0.46801124      -0.14683218
Na       7.26298944       3.28245932       7.67998725       1.14250280       2.00844004       0.86006660
Na       3.95247802       5.30436170      -3.82925238       0.75679140      -1.15214915      -0.01630456
Na       8.30656391       8.07297096       0.32006251       0.88176032       1.37567927      -0.81671233
Na       3.13577146      -0.99448628       5.82351173      -0.92435046       0.58320212      -0.42530599
Na       6.26775350       6.76444036       6.96992495       1.67411571       1.28359970      -0.04637910
Na       4.44467817       2.09373280       7.26447947       0.32031930      -0.26763579      -1.32544265
Na       9.00626458       7.50105395       8.76028818       0.93071876      -0.81599432      -1.86474934
Na       2.11055161      14.29995128       3.87890843       0.55155381       0.99870243       0.27108614
Na       5.01283264      15.33673608      -1.84014549      -0.71784582       2.30455762      -2.27936337
Na       3.66326386       6.53841670       3.40623742       1.89858339      -3.05778423       0.11022796
Na       6.50536478      11.30104133       6.71721529       0.72074788       0.45355331       1.38063763
Na       4.12217963       8.83675525       6.18839940      -2.05491065      -0.16980103       0.12822985
Na       5.86634484       8.52613790      10.24677410       0.59241138       0.42527635      -1.33750937
Na       7.27852805       5.52772795       1.81078523       1.49527056       1.01015189       0.25144566
Na       9.98368749       2.83964348       2.88385922      -0.39460881      -0.66880115       0.77620697
Na       9.45891260      -1.31486242       2.54244349      -1.22667784      -2.10593289       0.49120481
Na       9.87755490      -0.13442357       8.42297720      -1.39387194       1.26724086      -0.82066271
Na       9.25890887      -2.30609437      10.64557490      -1.08870239       1.14489102       0.53399371
Na      13.09191540       3.12724530      13.22378882       0.32041865      -0.94426167      -0.55674044
Na       7.77393545       1.58626601       1.13921423       1.00968736      -1.16191936       0.29240734
Na      11.02736055       8.47026993       3.33290297       0.33144171       2.71529160       1.98330215
Na       9.06645920       6.27101230       5.29022345       0.44748840       0.23564906       0.64588569
Na      11.83385436       6.83143910       7.02277121       1.82972603       0.14770372       1.57838250
Na       5.81857715       4.33220774       4.32424083      -0.41872962       0.16977925       1.11404300
Na       7.26159085       5.37210305      10.22902502       0.24188219       0.77061958      -1.32867081
Na      11.10813931       6.33200622       0.34913768      -0.36685861       0.40049408       1.36147877
Na       4.44521804      12.05931702       1.31455107      -2.61906520      -0.16207132       1.77993925
Na       6.34965318       9.06797081       3.62726805      -0.97811878       0.17151771      -0.46927600
Na       9.45283507       9.77292493       5.59022674      -0.87261615      -0.96841466      -2.27623841
Na      10.55409153       4.07637411       7.27386793       0.62808718      -1.82866140       2.03760902
Na      10.90824302      12.95189082      12.31887891      -0.80181097      -2.01836576       1.25893005
54
Lattice="12.582 0.0 0.0 0.0 12.582 0.0 0.0 0.0 12.582" Properties=species:S:1:pos:R:3:momenta:R:3 config_type=highT_Na54_600K pbc="T T T"
Na      -0.37172676      -0.22695839       2.99455543      -3.93944655      -0.17443763      -1.46250888
Na       4.87500547       1.00909245       5.03895948      -1.52610808      -0.10160413       1.04109606
Na      -1.67592255       2.31330974       6.37627896       1.27709083       0.50369814      -0.77170320
Na       1.49292092      -0.87264115      12.41460106       1.18290643       1.40522590       0.86705408
Na       0.51190279       1.17120208       9.45643722       1.62510395       1.81745097       3.09288229
Na       3.28700534       1.44980208      12.09706810       0.69593487      -0.82380642      -0.11103222
Na       1.83577289       4.73141954      -1.03965639       0.86905251       1.19863529      -0.30237154
Na       4.32747104       4.96879519       0.40444840      -0.75177382      -0.20543409      -0.72879524
Na       1.05974641       3.68976648       8.14423859      -0.21914369       0.08178146       1.43574556
Na       3.77906465       4.84732152       5.92893158      -1.26726815      -2.08882432      -0.38918988
Na      -1.90296891       3.53761585       9.64620053       3.36757041       1.88356317      -1.00577275
Na       2.22010355       7.66053098      11.23077317      -0.67496595       1.04483096       0.37083865
Na      -0.73896090      10.62185944      -2.92468143       1.38452140      -1.46887379      -0.48576717
Na      -1.21262033       8.64949264       0.43024901      -2.91581484      -1.88944112      -1.93032018
Na       2.05663773       6.78520573       2.34799925       0.89329800       0.57637155       0.53449655
Na      -0.32323943      10.79176878       6.52095614       1.10665482       0.45277976       0.84546849
Na      -1.07290618       7.15693096      10.12170420       0.68153391       0.68280485      -0.12219551
Na       2.70297679       9.80148051       8.88353533       1.89917531      -0.50585182       1.27870710
Na       4.41500395      -3.39526469       0.79746077      -0.20112634      -1.07929403      -0.25622256
Na       0.79284943       3.21072953       4.06704951      -0.36655802      -0.36632034       0.96172850
Na       1.61616675      -2.65048628       3.10632488       0.14331203      -1.58874596       1.04150701
Na       9.07639721       0.06629297       5.33926284       0.42511990       1.08542756      -0.31077484
Na       5.69890785      -0.88369599      11.43177638      -1.22318316      -0.84136379       1.36120146
Na       7.83163753       3.34704947       5.75996551      -1.54235928       0.85920446      -1.70043388
Na       4.49706297       7.17060930      -4.50877840       0.06617598      -0.32692853       0.03854993
Na       7.76436822       9.09192371       1.51058502      -0.68077037       0.39257890       0.87960347
Na       2.14440370       1.11493631       6.44194602       0.39478592      -0.20691714      -1.01202351
Na       7.02746640       7.00694829       6.02941341      -0.78382919       1.55353496      -0.44282990
Na       3.79336554      -0.00193392       9.20035885      -1.27722356       0.69801107      -0.57888413
Na       9.76196172       8.76721410       6.90956020       0.68611260       0.13719851       0.23405947
Na       2.87745409      13.91950466       3.04516266       0.73270054       0.05764078      -1.67461569
Na       5.66043137      15.24089763      -3.87896443      -0.84210745      -0.37989412      -0.93126121
Na       5.31153407       7.66160018       3.45632085      -2.32578622      -0.99301830      -0.50244214
Na       6.45552145      10.56148607       8.20000912      -1.59596246      -1.37331266       1.45396445
Na       3.52972663       9.98239491       5.67155597      -2.09159591       0.50347588      -0.20103198
Na       6.03787186       7.96295767      10.30543210       0.45458663      -0.42237040      -0.41661128
Na       8.99573750       6.45529246      -1.15038157       1.68714157       0.24760136      -0.18659361
Na       9.53401472       3.10832233       2.74956540       0.99316415      -0.37161928      -0.42187352
Na       8.58312252      -0.34419884       1.80522438       0.50153193       0.65539336      -1.62414474
Na       8.53821843       0.98259158       8.74302673       0.05256908       0.47914526       1.49577749
Na       8.83201374      -2.14136797      11.07743228      -1.05593508      -1.43082158      -0.77458055
Na      13.10245230       2.58430719      12.97071977      -0.66606574       1.04686393      -1.76938393
Na       7.57033754       2.59636219      -0.81366432      -0.32841602       1.91515321       0.73799493
Na      12.64535891       6.93038208       4.37461464       3.83405701       0.86149728      -1.08506319
Na       7.83080295       5.78068425       2.81862451      -1.42403543       0.13192370      -1.00548224
Na      13.97566888       6.85181862       7.92788556       0.28737699       0.87052818       0.80889475
Na       5.96262254       2.94409688       1.90514138       1.29329892      -2.38835217       0.68142261
Na       7.76024702       5.11948804       8.73501677       0.31238476      -1.74253992      -0.11706129
Na      11.30128409       5.32153958       1.06231093       1.16687813      -0.38532134      -1.17142919
Na       5.12661572      12.00314829       2.49066324       1.22436175      -0.23489523       2.78661146
Na       6.67716202      10.07827789       4.80876787      -1.35302083      -0.52076910       1.81926508
Na      10.07334399       9.35389794       3.87797766       0.22260681       0.04035711      -2.12119631
Na      10.73542678       5.94429327       6.80209015       0.98703749       0.34851967       0.81506472
Na      10.70817710      13.26690585      11.95294471      -1.39554849       0.37955998       1.03166217
54
Lattice="12.582 0.0 0.0 0.0 12.582 0.0 0.0 0.0 12.582" Properties=species:S:1:pos:R:3:momenta:R:3 config_type=highT_Na54_600K pbc="T T T"
Na      -0.54048600      -0.87226561       2.91334943      -2.05633716       1.41263185       0.70265858
Na       4.00747743       0.70500858       7.70323552      -1.65481428       1.20079984       0.39899090
Na      -1.31054216       1.98545044       9.41204162       1.26671389      -0.11203598      -0.14840329
Na       1.57181822      -1.35775861      12.73691687      -0.24636663       0.20892640      -1.02239514
Na       2.27262179       1.91276601      10.67090567      -1.09325879       0.23693827      -0.61629405
Na       4.45364572       3.10168605      13.15147783       1.65036496       0.55449636      -0.42772167
Na       2.91624852       5.38920961      -2.57141018      -0.80996102       0.77726093       1.18635967
Na       6.10295794       6.03392600      -0.94600842       0.49277797       0.77382381       0.92970955
Na       2.21138494       4.27965870       6.98979731       0.74895294       0.35137630       0.21881095
Na       4.32006196       3.90155341       4.32882072       1.03922753      -0.89828837      -0.15126201
Na      -0.03034729       6.44307986       9.52768586       0.64577619       0.18045124      -0.00110454
Na       1.28023463       8.43432582      11.17713815       0.20083989       0.92436909       1.38987659
Na      -1.45263712       9.92823646      -3.31394642      -1.90157099      -0.48476504      -1.61060013
Na      -1.93959047       9.00837704      -0.22390445       0.63250531      -0.78071234      -0.42956378
Na       0.77853975       5.40196740       0.93188380      -0.32882571      -0.00749283       1.90048932
Na      -0.44090699      10.03977223       5.76900438      -2.06627854      -2.37620000       0.46273539
Na      -1.68645190       7.32001692       6.89117769      -0.20155233       0.84212496      -1.57727367
Na       4.53204303       8.99604369      11.86064591       0.30004490      -0.26259699       1.84361711
Na       3.40065123      -5.51368972       1.94111816      -1.98516375       0.08041029      -0.19926510
Na       1.41568394       2.93899055       3.61095649       0.12565477       0.94757765      -0.11165239
Na       1.63515701      -3.05509871       3.12499580       0.72306371      -1.24541057       0.52551150
Na       9.76269934       0.97769877       5.10742376      -0.36193322      -1.55987068       0.30269649
Na       4.74192644      -0.06895600      11.06277123       1.47588952      -0.22033043       0.54108586
Na       6.78615104       3.11236299       6.08414817      -0.08915787       0.43537182      -0.80206870
Na       5.20623462       6.13401075      -5.62550510       0.37714579       0.86437704      -0.67393076
Na       7.17543999       7.72822508       1.88360246       0.85074703      -2.37328178       0.87613314
Na      -0.18784531       1.45795987       6.24280736       0.66170587      -0.84538021       1.66969989
Na       8.19001613       7.09239768       5.30392242      -0.54465626      -1.10966195      -2.23597049
Na       2.16715083      -1.33557162       9.80472787       0.65392366       0.16554536       1.61082731
Na       8.60305280      10.93875192       6.53203186      -1.09976581       0.78248508      -0.48367313
Na       3.09880250      13.16420788       1.89121021       1.51261614       1.19690767      -0.40838314
Na       5.27693102      16.21361147      -3.23844474      -1.02012920       0.70304024       0.55304730
Na       4.57548603       8.50083547       5.01189988      -1.08970099       0.39361422       2.07620637
Na       5.71020835       9.57216937       8.82182261      -0.43165667      -1.71482811      -1.31359835
Na       2.56788381      11.53336319       5.72621888      -1.06215090       0.75455234      -0.88861524
Na       7.82409422       8.06575327       9.41489156       2.31953365       1.01257258      -0.58516572
Na      10.14477346       4.85872403      -0.72427930      -1.22038678      -1.61951801      -1.11058860
Na      10.20469947       3.25179229       2.47538349       0.15588347       1.58962646       0.87673594
Na       7.40004354      -0.42088579       1.41935930       0.28531293       0.30230286      -0.05423268
Na       7.53521345       0.97936040       8.26346937       1.99017300      -1.61100634      -1.75166802
Na       8.17351565      -1.52109217      10.77094404      -0.57118338       0.70729150       1.00398391
Na      13.45657258       2.23747626      13.11360483       1.79041188       1.27646553       0.39177761
Na       7.49277777       2.91755005      -1.12345491       1.00558938      -1.80129022      -0.91086270
Na      13.66613049       7.04549251       5.76202917       0.62794530       0.35440924      -0.50705104
Na       7.04796309       4.69511811       2.45511301      -0.75861759      -0.48138359       2.46633851
Na      15.68282444       8.17137855       7.98977300       0.01122571      -0.39400496       0.18905671
Na       6.23257132       1.47518022       3.48376819       0.18315661      -0.00179243       1.62810773
Na       8.35548950       5.27705910       8.46796221       1.26479529      -2.55204053      -3.33165641
Na      11.09293356       7.36048577       2.81466023      -2.31178577      -0.04181984       1.43333690
Na       5.00185614      10.39062520       1.81279217       2.34690515       1.15547573       0.58023481
Na       5.56519248      11.79861927       5.26409541       1.11867516       1.58293208      -2.60869719
Na       8.79138006      10.19111723       3.70650596      -1.39528090       0.82769485      -0.40822973
Na      10.83022456       4.08293552       5.68569688       0.01492310      -0.47799273      -1.62443849
Na      11.42504246      12.19598725      11.74816682      -2.17194614       0.37585237       0.23633811
54
Lattice="12.582 0.0 0.0 0.0 12.582 0.0 0.0 0.0 12.582" Properties=species:S:1:pos:R:3:momenta:R:3 config_type=highT_Na54_600K pbc="T T T"
Na       0.50766358      -0.04954411       3.88506129      -0.25486009      -1.75219929       1.33726749
Na       4.05612298       1.13161139       7.26796134       1.01657482      -0.52707611      -0.07459027
Na      -2.50606341       3.54229561       7.25470857      -0.35240383       1.80417557      -1.25402982
Na       2.58581459      -0.40346983      13.90142163       0.39248125      -1.55218959       1.17997942
Na       2.31540036       1.94293812      10.65501583      -2.41020358       0.45022699       0.00285663
Na       3.31904285       3.68725723      13.45715426       0.52305616      -0.07526266       1.47732600
Na       2.80502100       5.14055492      -2.19354554       0.50360090      -0.43314054       1.39246290
Na       6.16543816       5.80833951      -1.48422668      -0.31222777      -0.34750816       0.53491313
Na       2.38198493       3.84268657       6.93473644       0.13239115      -0.05184554      -1.64847162
Na       4.35383861       4.76109418       4.63557139      -0.81969941       0.45669571       0.15128900
Na      -0.28913954       4.94861172       9.86488749      -0.81841501       0.13312368       0.09788077
Na       1.40585811       7.95006973      11.73467159      -1.66209461       0.86344668       0.34587117
Na      -1.13025934      11.57727713      -4.59841039       1.21681689       0.54102221       0.03292461
Na      -2.09526054       8.75425778       0.81850409       1.35736695      -1.87343599      -2.13344013
Na       0.27220446       5.93077212       1.55516435       0.26412843       2.74541660       2.19825007
Na      -1.21581545       9.54344264       4.47001958      -0.23756816      -1.13131926      -0.41038743
Na      -0.36484432       7.73881258       7.70270814      -0.03310383       1.50044114      -0.82075493
Na       4.73552399       8.76651157      10.99082762       0.37124748       0.07144430      -0.59614530
Na       3.49800262      -6.11855902       1.68027916      -0.62218671      -1.59642784       1.63062008
Na       1.24392028       3.24401528       4.05261904       0.87368428      -0.03915767       1.49086259
Na       2.33955472      -3.15980372       2.37264913      -0.07652970       0.74750301       0.13450477
Na      10.18520579      -0.10642171       5.42250105       1.61337177      -2.54091397      -0.39041074
Na       5.06248228       0.59082126      10.91754841       0.02335323      -0.10877060       0.01694243
Na       7.40357616       2.26917169       5.33511709       0.17944722      -3.71307708      -1.38747136
Na       5.35987717       6.31332131      -4.98384335      -1.33375039       0.26888488      -0.77385123
Na       6.70442700       8.19023224       0.88901814      -0.34626539       0.78879536       0.01121019
Na       0.61763279       1.42341750       7.94722485       0.50581639      -1.36645105       0.20906478
Na       6.01549898       7.66806503       4.35382993       0.14849696      -0.42605196      -0.24002970
Na       2.39313519      -1.40070956       9.29709114      -1.07946620       0.94102192       0.31801993
Na       8.51653299       8.97047844       6.28607519       1.54330241      -0.06342358       0.00143705
Na       4.68333929      14.00320567       4.10785411      -0.11698180       1.07734351      -2.15085984
Na       6.79701434      15.76858305      -3.58605409      -0.28161708      -0.95036842      -1.41300975
Na       2.36722209       7.31526199       5.32501960      -1.23504167       1.21307914      -1.07109849
Na       5.75642229      10.08027682       8.46832313       0.18604850       0.02766834      -0.29654198
Na       1.92579926      11.02466856       6.07310489       0.83624569       1.18837957      -0.41338810
Na      10.05052830       9.48307169      10.03002740       1.74823904       1.99563032      -3.29724436
Na       9.56460764       4.95015772      -0.63161957       0.40977539      -1.75280032      -0.01483660
Na       9.66307957       2.14456310       2.66806042       0.23820888       0.12794783      -0.19530849
Na      10.20187746      -0.50057780       1.48219878      -0.97936435      -0.96888608      -1.08832159
Na       7.60547958       0.28821796       8.30500021       0.37633750       0.94230491       1.71570477
Na       8.05877425      -1.05911846      11.23384218       1.50883972      -1.09485268       0.86312461
Na      12.45262535       2.09214930      13.84083480      -1.25316461       0.36597950      -0.30373228
Na       9.45270100       2.17433544      -1.56814590      -1.00915234       1.70907306       0.04918270
Na      11.59059528       6.08152664       4.84548638      -1.42938022      -0.19490769       2.07901821
Na       6.58863755       3.86607440       2.27560090      -1.74919115       0.16162131       0.85322324
Na      15.33320462       7.89237046       9.00016352       2.73276398       0.26102412       1.70897584
Na       6.70643723       0.65396522       1.19977948       2.85416230      -0.27285722       0.27920422
Na       8.72406865       6.52408429       8.61128031       0.01733924       1.52581739       0.71455691
Na       9.30141500       6.68716923       2.83251901      -1.98009634       0.21392153      -1.49596081
Na       4.91591348      10.80800844       2.76247061       0.86981345      -0.28783696      -1.32630178
Na       6.25207637      11.75219095       5.44133052      -0.69195639       1.54044426      -1.04454111
Na       8.39308044      10.37283341       3.32157125      -1.05683804       0.97328189       1.26940220
Na       7.87408732       5.30108206       5.67536377      -1.45979264      -0.22048834       0.51854378
Na      12.19363665      12.89335227      10.95864749       1.15844137      -1.29446615       1.22610823
54
Lattice="12.582 0.0 0.0 0.0 12.582 0.0 0.0 0.0 12.582" Properties=species:S:1:pos:R:3:momenta:R:3 config_type=highT_Na54_600K pbc="T T T"
Na       2.05975657      -0.69153625       4.94246692      -0.63108142       0.01361087       0.33519797
Na       5.31442971       0.21990697       7.41363542       0.69301159      -2.47932768      -1.02823567
Na      -4.37488304       0.76370333       8.54579733      -0.68824543       0.25684564       2.67702279
Na       2.39064605       0.22347761      13.36256147      -0.11313710       0.08034991       0.46579263
Na       0.95576039       2.65155081       9.38442403       1.15282951      -0.79925352       0.76449733
Na       4.02173680       3.17571923      12.39141675       0.40746366       2.22047564       0.17346091
Na       2.92874893       6.19204313      -2.47426918       0.65596751      -1.50860020      -0.52748083
Na       7.29342979       4.52427158      -0.46619683      -0.64469120      -0.49182053       0.94002641
Na       1.54679791       5.06396041       7.13550675      -0.05015167      -0.24625687      -0.91624736
Na       4.80425177       5.18456637       5.88046068       1.24046158       0.52587014      -1.42874020
Na      -0.93194957       5.13982711       9.49717020      -0.29972306      -0.38231949       1.64948050
Na      -0.32852359       8.58379656       9.88195220       0.55173771      -1.49994813      -0.16684297
Na       0.11895927      11.35243323      -4.86057564      -1.44521321      -0.54211992      -0.91656425
Na      -2.09517456       9.50651997       0.37953382      -1.40021091       1.71626459      -0.85971391
Na       1.04721450       7.14113653      -0.05425221       1.10448907       1.14089823      -1.26765405
Na      -1.04522489      10.11504549       4.70016344       0.18828101       0.96006525       0.85356828
Na      -2.14792485       8.18730686       7.15789518      -1.76116058      -0.48508458      -1.63254009
Na       2.69591395       9.60567643      11.92817439      -0.33625582       0.91861250       0.89890362
Na       3.01064668      -6.78367720       1.75989219       0.41739578      -1.09241026       1.02423755
Na       1.41810795       4.03987507       3.75302563      -0.08423186       0.06383373      -0.40359079
Na       1.45471119      -2.82846474       2.51121419       0.40443350      -0.05301319      -0.04013799
Na       9.88360014       0.35286126       5.39652234       1.20841259      -0.45317467      -0.13862399
Na       5.80821252       0.65628416      11.29875354       0.55382277      -1.37589975       0.84590378
Na       7.18435515       2.43211298       5.03959850      -0.96188611      -1.11442790      -0.69912516
Na       5.34950177       7.26576744      -3.64613463       0.48439579       0.40468721      -0.01485010
Na       5.19156380       7.34544763       0.07316175      -0.06556962      -0.37931115       1.47105371
Na       2.74342420       2.01303778       7.06665528       0.21846419      -1.27653767       2.43662883
Na       4.79223235       7.83030808       3.99945322      -1.25096370      -0.45181172      -1.23974084
Na       2.97661789      -0.63823449       9.68093968       1.24226839       0.03471707      -0.33140645
Na       7.56951513       9.17852982       6.68414989       1.72056204      -0.22401101      -0.49685441
Na       4.08427441      14.12179351       4.05766369       0.16781652       1.11368865       0.49133458
Na       5.10804337      15.92429769      -3.62405955      -3.47945308      -0.02835351      -0.40367529
Na       1.11201883       7.49200922       5.15362788       1.90705166       1.92128450      -1.43614858
Na       6.31300358      10.34218890       9.35882554       1.26395911      -1.10359471       1.41562101
Na       4.31860571       9.94179572       6.63339837      -1.06201983       1.11517088       0.07610499
Na       8.29317628       6.94640326      10.09928632      -0.60088545       0.99143403      -1.11517778
Na      10.48162853       5.83399042       0.66642817      -0.89721125      -1.33867862       0.58199797
Na      10.58665268       3.38467393       2.92012960       0.53986272       0.08233988       0.21323975
Na      11.34496151       0.21350943       1.75633389       0.45734260      -1.26969534      -1.74326098
Na       9.69528175      -2.36816198       9.69065981      -1.47645295       1.44774510       0.07864050
Na       7.24627745      -1.81300739      12.87236143      -1.10894291      -0.05891127      -1.66008825
Na      13.21408515       3.16899486      12.78013765       1.42926560      -0.31240707       0.41913276
Na       9.56674493       2.06699687      -1.10024765      -0.78885490       0.16213855       0.48124126
Na      10.83466660       2.94880248       7.01178517      -2.22381258       0.64368452      -0.15581176
Na       6.09234780       5.03565155       2.27760427      -0.53376048       0.99534218       0.94914486
Na      15.26116100       7.77618242       7.71835856       0.99903038       1.45638646       1.42413994
Na       8.12857116       1.36085034       1.60343110      -0.76738738       1.76220845      -1.99771162
Na       7.84773743       5.10733922       7.71084641       1.00170369       0.05084636      -0.15971704
Na      11.60628667       6.95969471       3.10522498       2.41484367       0.58659840       0.12080874
Na       4.57175000      10.99333990       2.02967492      -1.02636740      -0.63529280      -0.19878082
Na       6.91916391      11.57910700       4.42310834      -0.58200343       0.27194340      -2.36016095
Na       8.06441364       9.59793468       2.63377960       0.10081469      -0.07830167       1.87352885
Na       8.61607844       6.18696268       4.32937709       1.42401827      -0.90712593       0.48131652
Na      12.15161528      12.49039743      10.62416811       0.32996771      -0.34935296       0.19685612
54
Lattice="12.582 0.0 0.0 0.0 12.582 0.0 0.0 0.0 12.582" Properties=species:S:1:pos:R:3:momenta:R:3 config_type=highT_Na54_600K pbc="T T T"
Na       0.26997288       1.07261986       3.82988272      -1.24496910       0.05432364       0.13524249
Na       6.12994078      -0.88469802       7.46061217       0.24667676      -0.71364137       0.46823761
Na      -3.37095918       2.48694341       9.34286250       0.22118233       0.11994839       0.49710099
Na       1.25218401       0.66657959      13.15584457      -0.86144165      -0.29752348      -0.13349271
Na       0.81993689       2.46342105      10.11998109      -0.84602437       0.59971942      -0.34496203
Na       4.15081634       2.61077977      11.88276137      -1.41878209      -1.19705272       0.74250188
Na       3.59931277       5.76602986      -2.05468593      -1.38847865      -0.11716922      -2.13316774
Na       7.47450550       4.44976168      -1.94595467       0.26788134      -0.89604832      -1.39344555
Na       1.41331768       5.57635041       7.49572244      -1.64127696       1.96317126       2.36095935
Na       4.40875676       5.42283350       5.33671436       0.04922761       0.01460384      -1.48001734
Na      -0.93694043       5.22553868       9.49960130       0.37733932       1.51477257      -0.73648070
Na      -0.98256761       8.98332153       8.89534724       0.11163738       0.48852282      -0.65059326
Na       0.26237677      11.71332298      -4.91963498       1.30357441       0.23232421       0.34586916
Na      -2.68549388       8.03827956      -0.09223766      -1.09498292      -1.09638680      -1.45033521
Na       0.79958399       6.75390965      -0.21401813      -1.73434660       1.40879466      -0.08679709
Na      -1.82428668      11.11785320       5.20023075       1.55132125      -1.16465622      -0.80828672
Na      -1.04137904       7.40877050       5.95859150       1.33311890      -1.23677338       2.06829338
Na       3.32288122       9.60515836      12.52877720      -1.42587641      -0.77683559      -0.26335360
Na       2.72407966      -5.17457801       2.75642208      -1.16529600       0.75019283       1.15450616
Na       0.20809578       4.38760668       3.76278962      -0.87007966       0.05647975      -1.04655808
Na       0.34070553      -2.11622230       2.57629014       1.16487208       1.00250926      -0.69421389
Na       9.25323392      -0.12010322       7.93311486      -0.22862872       1.51818715       1.40677056
Na       6.62654779       0.78477594      10.43738395      -0.54403048       0.47122630      -2.03555931
Na       6.51847274       1.91704721       5.27670870       1.44293670      -1.16387615      -0.11682992
Na       5.86570529       6.59636754      -4.47476860      -1.43822720       1.01247504      -1.64335510
Na       4.99221939       6.24918123       0.60207852       1.31503480      -0.31865432      -0.08428828
Na       1.66671899       2.55445126       6.33536706       0.31764759      -0.96890734      -0.42444811
Na       5.48023598       8.73462212       4.55132179       1.47909710      -0.58481079      -0.84163446
Na       2.95179811      -0.33512560       9.47180152       0.52931253       0.57485756      -1.11852791
Na       8.30329967       8.80820873       6.81103045       0.43885611      -2.14617006       1.37515121
Na       3.74881131      14.77502171       2.69313473      -0.62733725      -0.67595290      -1.05742640
Na       5.11878985      15.04613310      -4.17042392      -0.72533718      -1.25574887      -0.32207884
Na       2.46408629       8.56044143       5.80080891       1.00430619      -0.22493432       1.48801742
Na       5.68562447       9.23496273       9.65663841      -1.14742383      -2.50005263       0.23021646
Na       3.30152579      12.06209842       5.30716733       0.30551343       0.19442863       1.18785496
Na       9.08613085       7.58074668       9.66301111      -1.43703741       1.64496023      -0.63223270
Na      10.62647807       4.70836307       1.15229495       1.10429078       0.31534190       0.89031948
Na       9.67934117       1.94504337       3.08993977      -0.84817463       0.95925150       0.42985778
Na       9.99016846      -1.11786591       1.69960602      -0.87294606       1.26489183       1.06853067
Na       8.89163780      -1.95161785      10.90643162       1.14895265      -1.95170382       1.43834905
Na       6.99087486      -2.74728071      13.67562515      -2.13346323       0.84633360      -0.24415610
Na      14.51850121       3.85001130      13.44847666       1.60274621       1.41528838       0.86594442
Na      10.90639421       1.93806638      -0.00805703       0.22703256      -0.07325656       2.37819803
Na      10.96636199       2.73727752       6.28113071      -1.25900882       1.52293264      -0.54317518
Na       7.20524175       4.62563954       2.23868024       1.37627700       0.13622681       1.31070902
Na      15.43870355       9.11766124       8.82310847       1.11216421       0.19059398      -0.33849076
Na       7.62857898       1.07241917       0.61682823       1.64518672      -1.85543034      -1.64873271
Na       8.43134568       4.83099995       7.02854796       0.64757786       0.47148291       1.52806054
Na      12.02825348       7.64512061       2.44739379       1.64780770       0.19680251      -1.61239727
Na       4.14966473      11.93494730       1.87544813      -0.93232197       1.49315644      -0.66533521
Na       7.62762514      11.62476401       4.37317540      -0.45066288      -0.25304433       0.19570407
Na       8.98313176       8.21912216       3.63481192       1.00477986       0.75140434       1.52383319
Na       9.63762351       5.39608936       3.89938067       0.40692950      -1.06448469      -2.13831390
Na      11.99703346      11.24382826      11.44190278       0.95287318      -0.65209015       1.59845820
54
Lattice="12.582 0.0 0.0 0.0 12.582 0.0 0.0 0.0 12.582" Properties=species:S:1:pos:R:3:momenta:R:3 config_type=highT_Na54_600K pbc="T T T"
Na      -1.04741956       0.21662119       4.06382932      -2.30341300       1.12599062       0.55293353
Na       5.63982919      -2.32126080       7.91682191       1.33358436       2.95234089       1.27341847
Na      -2.61057823       2.63610003       8.58826934       2.00345455       0.83629892      -0.01629092
Na       1.22138757       1.86484749      13.92713838       0.69179610      -1.58533327      -0.45510844
Na       0.27277497       3.69047301      10.62943068       0.16981053      -0.18128414      -0.57706664
Na       4.29630654       2.30919257      11.97554088       1.27899306      -1.51817464      -0.83822999
Na       4.60298098       7.49518969      -1.82283583       0.59423774       0.06678031      -0.66593629
Na       7.47491704       5.03022444      -2.29873047       0.57871237      -1.85540713       2.09027098
Na       0.51556902       5.61586337       8.01124295      -1.23967458      -0.47867274       2.03505647
Na       4.67246559       3.35130776       3.12865989       0.31462716      -0.13924355      -0.95860076
Na      -2.85238467       6.86548302       9.13444116      -1.49171077      -1.02660280      -0.63468459
Na      -0.39035665       9.23777074       7.95369354       0.90776691       1.61260915      -0.83456303
Na       0.84940039      13.04698739      -4.61690285       2.06932819      -0.22032607      -0.54778334
Na      -2.32689129       6.05500403       0.29274279      -0.46987245       0.37909457      -3.02271316
Na       1.23994475       7.90688781      -2.09093645      -0.43042455       0.31422884      -0.16655652
Na      -1.11855684       9.50890390       5.15150202       2.32078789       0.39089158       0.68443568
Na      -2.21951157       6.10969355       4.95307614       0.65359357       0.34460488      -0.32416018
Na       1.46525431      10.24851181      12.99367297       1.18998212      -0.51334160      -0.44171917
Na       3.71165997      -5.89537255       2.82106351      -0.33075770      -2.36126148      -0.64808617
Na       1.08952746       4.82029472       3.93437263      -0.81091082      -0.01286106      -0.08677013
Na       2.22387651      -1.29642842       4.35034940       1.27088720       1.33274590       1.68627536
Na       9.42676012      -0.08269225       6.52453328       0.21071363      -0.22940869       1.20924435
Na       7.48295811       0.54173120       9.12033079      -1.20836818       0.58241609       0.55151487
Na       6.67175394       2.48414244       6.81054456       0.14347962       1.32768749       0.46872968
Na       3.58493118       5.09302733      -6.74404074       0.10413589      -0.67986060      -0.18888996
Na       6.59758082       6.35898232       0.53484768      -2.03903057      -0.10355209      -0.70205319
Na       2.27015710       1.96493289       4.57799099      -1.28892399      -3.13255785       0.24782798
Na       5.86381898       7.93022752       5.05067661       0.42254724       0.31023933      -1.27260759
Na       1.74347698       0.27381156      11.06042457      -0.00428624      -0.82729547       1.80390159
Na       8.61684557       8.75019991       6.77431696      -0.24078044       1.48404989       2.47778916
Na       5.24455406      13.23305776       5.20606385      -1.69579713      -0.04987859       0.46231796
Na       3.68197059      16.71389569      -3.78109040      -2.35552486       0.76009769       1.66812023
Na       2.09155153       8.44952814       6.11589525      -0.97388403      -2.75266424      -0.42843363
Na       5.18214274      11.57687232      11.58693329      -0.92699476      -0.40264764       1.76069263
Na       4.18130566      13.42559166       8.20990036       0.33336061       0.42744905       0.50601477
Na       7.61436397       8.91964155      10.19581970      -0.88275605      -1.38438254      -1.02597267
Na      11.39972230       3.55704054       1.89837597       0.97454041      -1.76089798       2.47283411
Na       8.92079382       2.26876348       3.96618367       0.05923371      -0.87929244      -0.63614152
Na      11.08661877      -1.81364173       2.02850610      -0.42929049       0.33317597       0.84654256
Na      10.05455938      -1.31674409       9.25201797       1.54045991       1.07831242       0.02256786
Na       5.15750174      -2.83359027      14.87380236       0.31031462       0.25818990       0.62819452
Na      14.99719981       5.02419690      12.28690241       1.31053385       0.09708805      -0.54228283
Na      11.47373481       0.95762054      -0.61461577      -0.61609804       1.32614277      -0.80247953
Na      11.98428019       3.07458857       6.56689965       0.23785600      -1.61849100       0.05371465
Na       8.03468465       2.58881800       0.41680207       0.79850187      -0.02893559      -1.88609675
Na      15.30707878      10.53177340       9.08266324       0.45273051       1.85589488      -0.26194017
Na       8.65649584      -0.87041727      -0.21929507       1.25878070      -2.30556164      -0.15138969
Na       7.21137494       5.53398331       7.03938166      -1.17974194      -0.37229514      -0.43910983
Na      12.55115428       7.23094551       2.44608413      -0.36846742       1.76636761      -1.70624793
Na       4.46356870      12.72834320       2.02834812      -0.42638801       1.63079120       0.84255306
Na       7.53863071      11.24520738       4.07608678       0.39891292       2.08808516      -2.19006666
Na       8.38748132       8.09466425       2.26156405      -1.05492611       1.42811974       0.18283173
Na       7.64159175       5.38242208       3.73990584      -1.24503540      -0.17250303      -1.97853495
Na      11.26416136       9.58178141      11.72579817       0.07939430       0.48304012      -0.09726599
54
Lattice="12.582 0.0 0.0 0.0 12.582 0.0 0.0 0.0 12.582" Properties=species:S:1:pos:R:3:momenta:R:3 config_type=highT_Na54_600K pbc="T T T"
Na      -0.62821980       1.83869858       4.28650791      -0.07202922       0.73124198      -1.07074717
Na       7.50261937      -2.14156942       8.56403735      -1.19253311       1.50564539      -0.55563073
Na      -3.04127447       3.83383760      10.18027792      -0.37780034      -0.65397261       1.19190188
Na       1.60727000       2.35926847      14.65233313       1.49369954      -0.25259218      -0.99021637
Na       0.82508262       2.23864823      10.36688232       1.19743179      -1.45791598      -0.48421013
Na       3.75977666       0.98386473      12.28195821       0.69843692      -2.00249592       1.48431387
Na       4.86324309       8.05626340      -3.67225928       0.23535493      -0.09049982      -3.13228948
Na       6.66348894       4.72505954      -2.11081062       0.46743850       1.32519539      -1.44566877
Na       0.64748808       4.26765662       7.75412631      -1.03594305       1.04645913      -1.80004332
Na       4.24675708       4.87172974       1.94679393      -1.53813042      -1.72714773       1.00092487
Na      -1.79556540       6.77198658       9.56061022       0.35545519      -0.43197380      -2.95460811
Na      -2.38873961      10.07451521       8.30145069      -1.53559884       1.83945070       1.18042092
Na       0.88959294      12.94161473      -5.36511050      -1.34583540      -0.35733272      -3.15886886
Na      -5.06873219       5.40169875       0.89538896       2.05300541      -0.52226169       0.99611412
Na       1.50678410       7.85746301      -2.66194572      -0.20638809      -0.21113282      -2.11197537
Na       0.60225661       7.33579930       2.19035749       0.54736947      -2.11367203      -0.53706004
Na      -1.86196003       7.27389018       6.09159018      -1.85057933       0.20418365       1.65035757
Na       2.42698959       9.42927945      13.74332978       0.22414803       1.15070946       3.41565767
Na       4.07176783      -4.33040815       4.18608091      -0.11093194       1.06886165       1.09559021
Na       0.12395721       4.92536835       4.08444781      -0.58502264      -0.31219824       0.64727148
Na       1.55098949      -1.50580811       3.43974034       0.29025571      -1.57889607      -0.10321920
Na       9.92553014       0.34688317       6.20145143       0.94944171      -0.86813603      -0.05280995
Na       6.87223097       0.57408147      10.61217330      -0.31419064       0.77984602       1.08475600
Na       7.08485734       2.72079126       7.69011155       0.58406488      -0.87627399       0.50597659
Na       3.65652521       4.52631950      -6.92368302      -2.18123741      -0.50484642      -0.80655400
Na       4.39598569       6.99786495      -0.00091478      -0.50610503       0.40002677      -0.08917338
Na       2.62185605       1.32769178       4.94113521      -0.02587327      -1.00672342      -2.69265060
Na       8.06423272       9.00730354       5.68953403       2.82836630       0.70786092      -0.48483302
Na       1.23885986      -1.28882203       9.73148068      -0.86283382      -1.67244816       0.59299204
Na      11.85540334      10.71903673       4.89165257       2.47492298      -0.73869266       0.81736183
Na       6.06393393      12.22113844       6.15498332      -1.14450380       0.48156638       0.40290281
Na       3.80891627      16.17182922      -3.41193730       0.45313055       0.50322861      -0.01511605
Na       1.47024799       7.47557269       5.82543609      -0.76737028      -0.69853388       1.78130609
Na       5.11349405      10.77324739      11.39821666       1.51610530      -0.55478780       0.92378036
Na       4.00647766      12.74010394       8.66007712       1.42040289       0.82824739       1.35389023
Na       8.13976198       8.01835751      11.01111936       0.84813147      -0.38382268       1.49408161
Na       9.49581407       3.71686150       3.25267280      -0.39799804       0.95418648      -2.43801406
Na       6.24179628       2.41482196       4.35701830       0.07090643      -0.58783864       0.08540769
Na      13.13668962      -0.44018692       0.40827991       0.84796152      -1.75666491      -0.71311709
Na      10.56266991       0.18657603      10.37761930       0.17126862       0.84042136      -1.30512325
Na       5.98281120      -3.14538069      14.09309663       0.01311028       0.50355183      -0.77223528
Na      14.51933599       4.48282495      12.42480655       0.91042902      -0.33852826      -0.08208232
Na      11.09317449       1.80679796       0.72024425       1.77997550       0.95651927      -1.03885792
Na       9.42041242       3.95804430       6.34602852      -2.62131110       0.49044590      -0.67095780
Na       7.31168740       2.12339582       0.48822582      -0.15356811       1.38447836       0.78118099
Na      15.44808172      10.28953557       6.74749420      -0.42484031       1.28140743       2.79235746
Na       9.12382788      -1.33967630      -0.23652469      -0.05784293       0.48703209       0.65548996
Na       7.51886868       6.24847104       8.26703451      -1.19924387      -0.00530193       1.29778601
Na      11.49217421       5.62845512      -0.28301522       0.60960238       1.27222739       0.98401805
Na       4.32227697      12.53842257       2.83397323      -1.33506966       0.08445523      -0.12166765
Na       8.70880711      12.01071239       3.06153668      -1.89468811      -0.62019262      -0.34647957
Na       9.68718204       8.56321840       3.05216742       0.80900253      -0.37330824       1.19046738
Na       6.84247616       5.45908126       4.38896267      -0.55536905      -0.13419346      -0.16008410
Na      11.36502851       9.05276868      11.60875554       0.44341998       2.00513589       0.72798592
54
Lattice="12.582 0.0 0.0 0.0 12.582 0.0 0.0 0.0 12.582" Properties=species:S:1:pos:R:3:momenta:R:3 config_type=highT_Na54_600K pbc="T T T"
Na      -1.48350514       1.95146597       4.04448617      -0.14633376       0.95139214      -1.92958145
Na       6.72893845      -1.64518180       9.52038611      -1.26451000       1.11189604      -0.54306076
Na      -4.11299680       5.10092001      11.75738935      -0.71203621       0.44283130       0.20718470
Na       2.01423725       2.80048959      13.70195284      -0.37522796       0.35845986      -0.31013644
Na       1.15762734       2.75865356       8.87241563       0.43720137       1.89892861      -0.93222307
Na       2.26616896       0.04874414      12.23810470       0.36661597      -1.68201843       1.79981175
Na       5.69648921       7.80274582      -4.92733907      -0.37531882       0.52023260       0.71216492
Na       4.73044482       3.65832550      -0.99205246       0.68107406       0.89110196      -2.25590210
Na       0.76305986       5.07741169       6.58763179      -2.49725212      -1.60051659      -0.23060632
Na       5.10128622       4.25672928       2.36432099       1.15992446      -0.99049770       0.80415105
Na      -1.38054688       6.08115688       8.69567874      -0.86755277       0.43371340       0.29730399
Na      -2.42467394      11.03789045       8.93926889      -0.86417493       0.26723131      -0.49789091
Na      -0.07898476      12.87947156      -5.40889449      -1.97731850      -0.04434311       1.73529651
Na      -3.90334163       5.35998719       2.19713778      -0.94840971       1.77541879      -0.71325296
Na       2.17270649       7.45696713      -2.29906484       0.32917242       2.50257225      -0.67266595
Na       2.71539544       6.11300251       1.03425762       1.00998760      -1.49249817      -0.28153645
Na      -3.22840918       6.09703283       5.47745008       0.81813099      -0.77466662      -0.09149414
Na       3.92642635       9.31222754      13.25947804       0.13930078      -1.17952361      -0.91215077
Na       6.17573017      -4.25869452       3.26587981       0.44884097       0.11877077      -0.53216272
Na       0.81752017       4.79946698       3.50848008      -2.31823432       0.56209905      -0.51387811
Na       2.26968472      -2.61853296       3.47594472      -0.51515773      -0.95277733       0.70526576
Na       9.28257036       0.02854300       6.06228401      -0.94675056      -0.57785460       0.28301868
Na       5.29584792      -0.11048580      12.42633848      -1.00748151       0.46850774      -0.78866916
Na       6.69568833       1.78529750       8.10492182       0.48121165      -0.57031749       0.83501493
Na       3.55455642       7.10283284      -7.90249704       0.78817042      -1.37833628      -0.66294907
Na       5.56199076       7.30658927      -1.19017240      -0.03241368       0.41414025      -0.89306844
Na       1.59544190       1.84110473       4.99686036      -0.12132338      -0.03274281      -1.58007428
Na       8.90461454       9.42334416       5.93888411      -0.04839431       1.72416143       0.65715766
Na       0.58534628      -1.18624202      10.26426865       0.73076034       0.18392478       0.31566851
Na      11.68335572      10.94001375       4.77498653      -0.20189698      -1.13429831      -0.72385019
Na       5.41302732      11.17077666       5.70650699       0.14531724       0.22649093      -0.55652753
Na       3.62331427      17.07002432      -5.31475233       0.33162871       0.59545873       1.31872517
Na       0.29430231       8.48348306       6.95341534      -0.64171114      -0.77881960      -0.31063472
Na       3.75415096      10.27225942      10.01056811      -0.70672413      -2.48109603       0.38632069
Na       3.96304780      13.34165360       8.49620836      -0.43669314       1.52648132      -0.02665367
Na       8.78050362       8.45155735      10.75763811       0.62523784      -0.22389119      -1.59051112
Na       7.54681762       2.22628187       4.52429385       0.52500225       0.10425452      -0.16565341
Na       4.49651707       2.38502799       5.21328230      -1.03999251      -0.34428096      -0.27403172
Na      12.89712457      -0.01503515       2.29388826       1.21757542       2.12981082       0.69844398
Na       9.85533557       2.17095125      10.25727845       2.80224856      -1.03344195       0.18818198
Na       9.63453324      -3.46373145      14.03767305       0.27986207       1.09571719       1.12959625
Na      13.40482366       4.29686299      11.32810985       0.66233011      -1.83443930      -0.16043662
Na      11.40794501       2.50477609       0.24022885       1.94272286      -0.12143297      -0.13132954
Na      10.24678648       3.23312239       6.56815575      -1.61375592      -1.51776769      -1.44458158
Na       7.48209600       2.44358214       1.34903639       0.15086116      -0.09425899       2.77978786
Na      15.41709621      10.52164334       7.14741029      -1.10655780      -2.23673447       0.71599996
Na       9.91536484      -0.51323830      -0.28455403       1.95455390      -0.27652518       0.68437077
Na       7.63777541       5.06474412       8.02267572      -1.56681607       0.76596995      -1.81755521
Na      11.44316031       6.25789022       0.26502528       0.58872938      -0.77132486       0.83560834
Na       4.16825522      12.65443089       3.21094222      -0.23801991       1.36961923      -0.26034181
Na       7.61348565      11.32474709       3.31536220       0.40698552      -0.47827794       2.48612727
Na      12.55185249       7.71111104       3.36450700       1.91725571       2.70209710       2.05418288
Na       6.48201715       5.27075563       5.20233592      -0.49602924       0.09008797      -0.28725218
Na      11.98299786       9.03004663      11.64097707       2.12538531      -0.62868783       0.46127880
