2
Lattice="16.0 0.0 0.0 0.0 16.0 0.0 0.0 0.0 16.0" Properties=species:S:1:pos:R:3:forces:R:3 config_type=dimer_diag gen_pair=Na-Na gen_d_target=1.0 energy=13.09837809 stress="-0.013374540129851831 1.8724527377649774e-11 -1.3107169164354842e-10 1.8724527377649774e-11 4.670664833608337e-06 -4.993207300706607e-11 -1.3107169164354842e-10 -4.993207300706607e-11 4.67082711284561e-06" free_energy=13.09837809 pbc="T T T"
Na       0.00000000       0.00000000       0.00000000     -54.82940773       0.00000005      -0.00000016
Na       1.00000000       0.00000000       0.00000000      54.82940773      -0.00000005       0.00000016
2
Lattice="16.0 0.0 0.0 0.0 16.0 0.0 0.0 0.0 16.0" Properties=species:S:1:pos:R:3:forces:R:3 config_type=dimer_diag gen_pair=Na-Na gen_d_target=1.18 energy=7.94834575 stress="-0.004320490525285288 -1.8724527377649774e-11 -4.993207300706607e-11 -1.8724527377649774e-11 1.5942374684787313e-06 7.48981095105991e-11 -4.993207300706607e-11 7.48981095105991e-11 1.59440598922513e-06" free_energy=7.94834575 pbc="T T T"
Na       0.00000000       0.00000000       0.00000000     -15.00163512      -0.00000049      -0.00000214
Na       1.18000000       0.00000000       0.00000000      15.00163512       0.00000049       0.00000214
2
Lattice="16.0 0.0 0.0 0.0 16.0 0.0 0.0 0.0 16.0" Properties=species:S:1:pos:R:3:forces:R:3 config_type=dimer_diag gen_pair=Na-Na gen_d_target=1.36 energy=5.48317787 stress="-0.004645194982488163 -1.497962190211982e-10 4.369056388118281e-11 -1.497962190211982e-10 1.6897013505591156e-06 3.744905475529955e-11 4.369056388118281e-11 3.744905475529955e-11 1.689957252433277e-06" free_energy=5.48317787 pbc="T T T"
Na       0.00000000       0.00000000       0.00000000     -13.99617415      -0.00000058       0.00000217
Na       1.36000000       0.00000000       0.00000000      13.99617415       0.00000058      -0.00000217
2
Lattice="16.0 0.0 0.0 0.0 16.0 0.0 0.0 0.0 16.0" Properties=species:S:1:pos:R:3:forces:R:3 config_type=dimer_diag gen_pair=Na-Na gen_d_target=1.54 energy=3.04610682 stress="-0.004539868011785184 1.810037646506145e-10 9.362263688824887e-11 1.810037646506145e-10 1.6410550284319817e-06 2.4966036503533036e-11 9.362263688824887e-11 2.4966036503533036e-11 1.6412609982331357e-06" free_energy=3.04610682 pbc="T T T"
Na       0.00000000       0.00000000       0.00000000     -12.08277856       0.00000002      -0.00000035
Na       1.54000000       0.00000000       0.00000000      12.08277856      -0.00000002       0.00000035
2
Lattice="16.0 0.0 0.0 0.0 16.0 0.0 0.0 0.0 16.0" Properties=species:S:1:pos:R:3:forces:R:3 config_type=dimer_diag gen_pair=Na-Na gen_d_target=1.71 energy=1.39616545 stress="-0.0030707534463606124 1.1858867339178193e-10 -9.986414601413214e-11 1.1858867339178193e-10 1.4252548504045678e-06 -4.369056388118281e-11 -9.986414601413214e-11 -4.369056388118281e-11 1.4258103447167714e-06" free_energy=1.39616545 pbc="T T T"
Na       0.00000000       0.00000000       0.00000000      -7.35803792      -0.00000022      -0.00000233
Na       1.71000000       0.00000000       0.00000000       7.35803792       0.00000022       0.00000233
2
Lattice="16.0 0.0 0.0 0.0 16.0 0.0 0.0 0.0 16.0" Properties=species:S:1:pos:R:3:forces:R:3 config_type=dimer_diag gen_pair=Na-Na gen_d_target=1.89 energy=0.39612243 stress="-0.001919543201463248 2.4966036503533036e-11 1.3107169164354842e-10 2.4966036503533036e-11 1.3571100537681744e-06 5.6173582132949326e-11 1.3107169164354842e-10 5.6173582132949326e-11 1.357353472624084e-06" free_energy=0.39612243 pbc="T T T"
Na       0.00000000       0.00000000       0.00000000      -4.16297986      -0.00000000       0.00000222
Na       1.89000000       0.00000000       0.00000000       4.16297986       0.00000000      -0.00000222
2
Lattice="16.0 0.0 0.0 0.0 16.0 0.0 0.0 0.0 16.0" Properties=species:S:1:pos:R:3:forces:R:3 config_type=dimer_diag gen_pair=Na-Na gen_d_target=2.07 energy=-0.2077046 stress="-0.0013684080715803191 1.3107169164354842e-10 -6.241509125883259e-12 1.3107169164354842e-10 1.484542945591333e-06 -2.4966036503533036e-11 -6.241509125883259e-12 -2.4966036503533036e-11 1.4844305984270672e-06" free_energy=-0.2077046 pbc="T T T"
Na       0.00000000       0.00000000       0.00000000      -2.71090765      -0.00000049      -0.00000068
Na       2.07000000       0.00000000       0.00000000       2.71090765       0.00000049       0.00000068
2
Lattice="16.0 0.0 0.0 0.0 16.0 0.0 0.0 0.0 16.0" Properties=species:S:1:pos:R:3:forces:R:3 config_type=dimer_diag gen_pair=Na-Na gen_d_target=2.25 energy=-0.61260049 stress="-0.001012158365655263 0.0 4.369056388118281e-11 0.0 1.3841482713015006e-06 -1.8724527377649774e-11 4.369056388118281e-11 -1.8724527377649774e-11 1.3840171996098574e-06" free_energy=-0.61260049 pbc="T T T"
Na       0.00000000       0.00000000       0.00000000      -1.84396639      -0.00000007      -0.00000199
Na       2.25000000       0.00000000       0.00000000       1.84396639       0.00000007       0.00000199
2
Lattice="16.0 0.0 0.0 0.0 16.0 0.0 0.0 0.0 16.0" Properties=species:S:1:pos:R:3:forces:R:3 config_type=dimer_diag gen_pair=Na-Na gen_d_target=2.43 energy=-0.88633832 stress="-0.0007267775380585557 1.8724527377649774e-11 3.1207545629416294e-11 1.8724527377649774e-11 1.3654424684512286e-06 -1.8724527377649774e-11 3.1207545629416294e-11 -1.8724527377649774e-11 1.3654424684512286e-06" free_energy=-0.88633832 pbc="T T T"
Na       0.00000000       0.00000000       0.00000000      -1.22728884      -0.00000011       0.00000221
Na       2.43000000       0.00000000       0.00000000       1.22728884       0.00000011      -0.00000221
2
Lattice="16.0 0.0 0.0 0.0 16.0 0.0 0.0 0.0 16.0" Properties=species:S:1:pos:R:3:forces:R:3 config_type=dimer_diag gen_pair=Na-Na gen_d_target=2.61 energy=-1.06309173 stress="-0.0004816207027254607 -0.0 6.241509125883259e-12 -0.0 1.5457347010614925e-06 -2.4966036503533036e-11 6.241509125883259e-12 -2.4966036503533036e-11 1.54575342558887e-06" free_energy=-1.06309173 pbc="T T T"
Na       0.00000000       0.00000000       0.00000000      -0.75890835      -0.00000021       0.00000002
Na       2.61000000       0.00000000       0.00000000       0.75890835       0.00000021      -0.00000002
2
Lattice="16.0 0.0 0.0 0.0 16.0 0.0 0.0 0.0 16.0" Properties=species:S:1:pos:R:3:forces:R:3 config_type=dimer_diag gen_pair=Na-Na gen_d_target=2.79 energy=-1.16587753 stress="-0.00027119724776850275 -4.2442262056006156e-10 -3.8073205667887875e-10 -4.2442262056006156e-10 1.5069936539171352e-06 -2.4966036503533036e-11 -3.8073205667887875e-10 -2.4966036503533036e-11 1.5068376161889879e-06" free_energy=-1.16587753 pbc="T T T"
Na       0.00000000       0.00000000       0.00000000      -0.39998684      -0.00000127      -0.00000259
Na       2.79000000       0.00000000       0.00000000       0.39998684       0.00000127       0.00000259
2
Lattice="16.0 0.0 0.0 0.0 16.0 0.0 0.0 0.0 16.0" Properties=species:S:1:pos:R:3:forces:R:3 config_type=dimer_diag gen_pair=Na-Na gen_d_target=2.96 energy=-1.21121596 stress="-0.00010319794200806755 -3.86973565804762e-10 -2.808679106647466e-10 -3.86973565804762e-10 1.460581792057067e-06 1.2483018251766518e-11 -2.808679106647466e-10 1.2483018251766518e-11 1.4605630675296895e-06" free_energy=-1.21121596 pbc="T T T"
Na       0.00000000       0.00000000       0.00000000      -0.14531969       0.00000005       0.00000191
Na       2.96000000       0.00000000       0.00000000       0.14531969      -0.00000005      -0.00000191
2
Lattice="16.0 0.0 0.0 0.0 16.0 0.0 0.0 0.0 16.0" Properties=species:S:1:pos:R:3:forces:R:3 config_type=dimer_diag gen_pair=Na-Na gen_d_target=3.14 energy=-1.2183325 stress="4.3676963632797506e-05 1.0610565514001539e-10 -2.746264015388634e-10 1.0610565514001539e-10 1.4629223579792735e-06 3.1207545629416294e-11 -2.746264015388634e-10 3.1207545629416294e-11 1.4630347051435393e-06" free_energy=-1.2183325 pbc="T T T"
Na       0.00000000       0.00000000       0.00000000       0.05383240      -0.00000014       0.00000036
Na       3.14000000       0.00000000       0.00000000      -0.05383240       0.00000014      -0.00000036
2
Lattice="16.0 0.0 0.0 0.0 16.0 0.0 0.0 0.0 16.0" Properties=species:S:1:pos:R:3:forces:R:3 config_type=dimer_diag gen_pair=Na-Na gen_d_target=3.32 energy=-1.19507262 stress="0.00016052079818240224 -1.6227923727296472e-10 -7.052905312248082e-10 -1.6227923727296472e-10 1.4276266238724035e-06 9.986414601413214e-11 -7.052905312248082e-10 9.986414601413214e-11 1.4278825257465648e-06" free_energy=-1.19507262 pbc="T T T"
Na       0.00000000       0.00000000       0.00000000       0.19590439      -0.00000026      -0.00000172
Na       3.32000000       0.00000000       0.00000000      -0.19590439       0.00000026       0.00000172
2
Lattice="16.0 0.0 0.0 0.0 16.0 0.0 0.0 0.0 16.0" Properties=species:S:1:pos:R:3:forces:R:3 config_type=dimer_diag gen_pair=Na-Na gen_d_target=3.5 energy=-1.1507014 stress="0.00025116963684007843 5.6173582132949326e-11 6.241509125883259e-12 5.6173582132949326e-11 1.4586469242280434e-06 6.865660038471585e-11 6.241509125883259e-12 6.865660038471585e-11 1.4590214147755964e-06" free_energy=-1.1507014 pbc="T T T"
Na       0.00000000       0.00000000       0.00000000       0.29102872      -0.00000033       0.00000395
Na       3.50000000       0.00000000       0.00000000      -0.29102872       0.00000033      -0.00000395
2
Lattice="16.0 0.0 0.0 0.0 16.0 0.0 0.0 0.0 16.0" Properties=species:S:1:pos:R:3:forces:R:3 config_type=dimer_diag gen_pair=Na-S gen_d_target=1.0 energy=33.45390493 stress="-0.027271359632112795 -6.241509125883259e-12 1.8724527377649774e-11 -6.241509125883259e-12 5.427947135851753e-06 -6.241509125883259e-12 1.8724527377649774e-11 -6.241509125883259e-12 5.427953377360879e-06" free_energy=33.45390493 pbc="T T T"
Na       0.00000000       0.00000000       0.00000000    -111.74182018       0.00000003      -0.00000009
S        1.00000000       0.00000000       0.00000000     111.74182018      -0.00000003       0.00000009
2
Lattice="16.0 0.0 0.0 0.0 16.0 0.0 0.0 0.0 16.0" Properties=species:S:1:pos:R:3:forces:R:3 config_type=dimer_diag gen_pair=Na-S gen_d_target=1.18 energy=18.76604236 stress="-0.0176123059927751 -6.241509125883259e-12 6.241509125883259e-12 -6.241509125883259e-12 3.381094150091346e-06 0.0 6.241509125883259e-12 0.0 3.38108790858222e-06" free_energy=18.76604236 pbc="T T T"
Na       0.00000000       0.00000000       0.00000000     -61.16168807      -0.00000002       0.00000006
S        1.18000000       0.00000000       0.00000000      61.16168807       0.00000002      -0.00000006
2
Lattice="16.0 0.0 0.0 0.0 16.0 0.0 0.0 0.0 16.0" Properties=species:S:1:pos:R:3:forces:R:3 config_type=dimer_diag gen_pair=Na-S gen_d_target=1.36 energy=9.68532765 stress="-0.013755692982834468 6.241509125883259e-12 1.2483018251766518e-11 6.241509125883259e-12 1.9842568907369245e-06 -6.241509125883259e-12 1.2483018251766518e-11 -6.241509125883259e-12 1.984225683191295e-06" free_energy=9.68532765 pbc="T T T"
Na       0.00000000       0.00000000       0.00000000     -41.45504566       0.00000001       0.00000017
S        1.36000000       0.00000000       0.00000000      41.45504566      -0.00000001      -0.00000017
2
Lattice="16.0 0.0 0.0 0.0 16.0 0.0 0.0 0.0 16.0" Properties=species:S:1:pos:R:3:forces:R:3 config_type=dimer_diag gen_pair=Na-S gen_d_target=1.54 energy=3.63182246 stress="-0.009825625936383656 -4.993207300706607e-10 1.6227923727296472e-10 -4.993207300706607e-10 2.2005126989305276e-06 1.2483018251766518e-11 1.6227923727296472e-10 1.2483018251766518e-11 2.200525181948779e-06" free_energy=3.63182246 pbc="T T T"
Na       0.00000000       0.00000000       0.00000000     -26.16751653      -0.00000137      -0.00000032
S        1.54000000       0.00000000       0.00000000      26.16751653       0.00000137       0.00000032
2
Lattice="16.0 0.0 0.0 0.0 16.0 0.0 0.0 0.0 16.0" Properties=species:S:1:pos:R:3:forces:R:3 config_type=dimer_diag gen_pair=Na-S gen_d_target=1.71 energy=0.18577979 stress="-0.006291715038861713 3.9945658405652856e-09 -2.172045175807374e-09 3.9945658405652856e-09 8.657160402873856e-07 2.4966036503533036e-11 -2.172045175807374e-09 2.4966036503533036e-11 8.657097987782598e-07" free_energy=0.18577979 pbc="T T T"
Na       0.00000000       0.00000000       0.00000000     -15.10594179       0.00000479       0.00000129
S        1.71000000       0.00000000       0.00000000      15.10594179      -0.00000479      -0.00000129
2
Lattice="16.0 0.0 0.0 0.0 16.0 0.0 0.0 0.0 16.0" Properties=species:S:1:pos:R:3:forces:R:3 config_type=dimer_diag gen_pair=Na-S gen_d_target=1.89 energy=-1.82061599 stress="-0.0036004324960875124 7.73947131609524e-10 -1.5223040758029266e-08 7.73947131609524e-10 4.829305271060913e-07 1.8724527377649774e-10 -1.5223040758029266e-08 1.8724527377649774e-10 4.834485723635396e-07" free_energy=-1.8208669 pbc="T T T"
Na       0.00000000       0.00000000       0.00000000      -7.83718009       0.00001826       0.00001040
S        1.89000000       0.00000000       0.00000000       7.83718009      -0.00001826      -0.00001040
2
Lattice="16.0 0.0 0.0 0.0 16.0 0.0 0.0 0.0 16.0" Properties=species:S:1:pos:R:3:forces:R:3 config_type=dimer_diag gen_pair=Na-S gen_d_target=2.07 energy=-2.99421405 stress="-0.002547583366908658 7.614641133577575e-10 5.30528275700077e-10 7.614641133577575e-10 9.037268308640146e-07 -2.2531847944438565e-09 5.30528275700077e-10 -2.2531847944438565e-09 8.98040816050335e-07" free_energy=-3.02242379 pbc="T T T"
Na       0.00000000       0.00000000       0.00000000      -5.07223848       0.00000107      -0.00000044
S        2.07000000       0.00000000       0.00000000       5.07223848      -0.00000107       0.00000044
2
Lattice="16.0 0.0 0.0 0.0 16.0 0.0 0.0 0.0 16.0" Properties=species:S:1:pos:R:3:forces:R:3 config_type=dimer_diag gen_pair=Na-S gen_d_target=2.25 energy=-3.61340957 stress="-0.0011291593988537122 2.4466715773462373e-09 7.346256241164596e-09 2.4466715773462373e-09 7.454234349042376e-08 -4.743546935671276e-09 7.346256241164596e-09 -4.743546935671276e-09 7.31067963914706e-08" free_energy=-3.64161905 pbc="T T T"
Na       0.00000000       0.00000000       0.00000000      -2.09124373       0.00000005      -0.00000009
S        2.25000000       0.00000000       0.00000000       2.09124373      -0.00000005       0.00000009
2
Lattice="16.0 0.0 0.0 0.0 16.0 0.0 0.0 0.0 16.0" Properties=species:S:1:pos:R:3:forces:R:3 config_type=dimer_diag gen_pair=Na-S gen_d_target=2.43 energy=-3.82666418 stress="-0.0002419930455647303 -3.1831696542004616e-10 0.0 -3.1831696542004616e-10 3.9907585199984964e-07 -1.0048829692672046e-09 0.0 -1.0048829692672046e-09 4.0745195724678497e-07" free_energy=-3.85487366 pbc="T T T"
Na       0.00000000       0.00000000       0.00000000      -0.44557704       0.00000003      -0.00000003
S        2.43000000       0.00000000       0.00000000       0.44557704      -0.00000003       0.00000003
2
Lattice="16.0 0.0 0.0 0.0 16.0 0.0 0.0 0.0 16.0" Properties=species:S:1:pos:R:3:forces:R:3 config_type=dimer_diag gen_pair=Na-S gen_d_target=2.61 energy=-3.8196928 stress="0.0002972146040691995 6.241509125883259e-11 -1.0610565514001539e-10 6.241509125883259e-11 8.524029013218766e-08 2.365531958709755e-09 -1.0610565514001539e-10 2.365531958709755e-09 1.0027608561644042e-07" free_energy=-3.84790228 pbc="T T T"
Na       0.00000000       0.00000000       0.00000000       0.42767136       0.00000005      -0.00000007
S        2.61000000       0.00000000       0.00000000      -0.42767136      -0.00000005       0.00000007
2
Lattice="16.0 0.0 0.0 0.0 16.0 0.0 0.0 0.0 16.0" Properties=species:S:1:pos:R:3:forces:R:3 config_type=dimer_diag gen_pair=Na-S gen_d_target=2.79 energy=-3.69835372 stress="0.0006191281455003991 8.113961863648236e-11 -1.0610565514001539e-10 8.113961863648236e-11 -1.0449659408736269e-06 9.050188232530725e-10 -1.0610565514001539e-10 9.050188232530725e-10 -1.019188508183729e-06" free_energy=-3.7265632 pbc="T T T"
Na       0.00000000       0.00000000       0.00000000       0.86937710       0.00000004      -0.00000010
S        2.79000000       0.00000000       0.00000000      -0.86937710      -0.00000004       0.00000010
2
Lattice="16.0 0.0 0.0 0.0 16.0 0.0 0.0 0.0 16.0" Properties=species:S:1:pos:R:3:forces:R:3 config_type=dimer_diag gen_pair=Na-S gen_d_target=2.96 energy=-3.53243212 stress="0.0007949349799924381 -2.6214338328709685e-10 1.7476225552473124e-10 -2.6214338328709685e-10 -9.98235762048139e-07 5.935675178714979e-09 1.7476225552473124e-10 5.935675178714979e-09 -9.984729393949224e-07" free_energy=-3.56064159 pbc="T T T"
Na       0.00000000       0.00000000       0.00000000       1.05833609       0.00000004       0.00000005
S        2.96000000       0.00000000       0.00000000      -1.05833609      -0.00000004      -0.00000005
2
Lattice="16.0 0.0 0.0 0.0 16.0 0.0 0.0 0.0 16.0" Properties=species:S:1:pos:R:3:forces:R:3 config_type=dimer_diag gen_pair=Na-S gen_d_target=3.14 energy=-3.33480669 stress="0.0008933478378216017 -1.2483018251766518e-11 1.0610565514001539e-10 -1.2483018251766518e-11 -4.851400213366539e-07 -2.2094942305626735e-09 1.0610565514001539e-10 -2.2094942305626735e-09 -4.83960376111862e-07" free_energy=-3.36301616 pbc="T T T"
Na       0.00000000       0.00000000       0.00000000       1.12009108       0.00000004       0.00000001
S        3.14000000       0.00000000       0.00000000      -1.12009108      -0.00000004      -0.00000001
2
Lattice="16.0 0.0 0.0 0.0 16.0 0.0 0.0 0.0 16.0" Properties=species:S:1:pos:R:3:forces:R:3 config_type=dimer_diag gen_pair=Na-S gen_d_target=3.32 energy=-3.13380652 stress="0.0009319890894765452 3.744905475529955e-11 -6.865660038471585e-11 3.744905475529955e-11 -1.5847503746073887e-06 -2.7525055245145172e-09 -6.865660038471585e-11 -2.7525055245145172e-09 -1.587896095206834e-06" free_energy=-3.162016 pbc="T T T"
Na       0.00000000       0.00000000       0.00000000       1.10415312      -0.00000004      -0.00000013
S        3.32000000       0.00000000       0.00000000      -1.10415312       0.00000004       0.00000013
2
Lattice="16.0 0.0 0.0 0.0 16.0 0.0 0.0 0.0 16.0" Properties=species:S:1:pos:R:3:forces:R:3 config_type=dimer_diag gen_pair=Na-S gen_d_target=3.5 energy=-2.94032279 stress="0.000929377660782803 2.871094197906299e-10 1.2483018251766518e-11 2.871094197906299e-10 -1.3359450963223044e-06 3.607592274760523e-09 1.2483018251766518e-11 3.607592274760523e-09 -1.3311266512771226e-06" free_energy=-2.96853227 pbc="T T T"
Na       0.00000000       0.00000000       0.00000000       1.04019434      -0.00000030       0.00000006
S        3.50000000       0.00000000       0.00000000      -1.04019434       0.00000030      -0.00000006
2
Lattice="16.0 0.0 0.0 0.0 16.0 0.0 0.0 0.0 16.0" Properties=species:S:1:pos:R:3:forces:R:3 config_type=dimer_diag gen_pair=Na-Sb gen_d_target=1.2 energy=18.05797651 stress="-0.004987973726647953 3.744905475529955e-11 -2.4966036503533036e-11 3.744905475529955e-11 5.443875467141008e-06 -0.0 -2.4966036503533036e-11 -0.0 5.44385674261363e-06" free_energy=18.05797651 pbc="T T T"
Na       0.00000000       0.00000000       0.00000000     -17.07459697       0.00000009      -0.00000000
Sb       1.20000000       0.00000000       0.00000000      17.07459697      -0.00000009       0.00000000
2
Lattice="16.0 0.0 0.0 0.0 16.0 0.0 0.0 0.0 16.0" Properties=species:S:1:pos:R:3:forces:R:3 config_type=dimer_diag gen_pair=Na-Sb gen_d_target=1.36 energy=14.42974566 stress="-0.009158160972710657 -2.4966036503533036e-11 -8.113961863648236e-11 -2.4966036503533036e-11 -1.8559127385813868e-07 -2.4966036503533036e-11 -8.113961863648236e-11 -2.4966036503533036e-11 -1.8575355309541167e-07" free_energy=14.42974566 pbc="T T T"
Na       0.00000000       0.00000000       0.00000000     -27.60640032      -0.00000002      -0.00000048
Sb       1.36000000       0.00000000       0.00000000      27.60640032       0.00000002       0.00000048
2
Lattice="16.0 0.0 0.0 0.0 16.0 0.0 0.0 0.0 16.0" Properties=species:S:1:pos:R:3:forces:R:3 config_type=dimer_diag gen_pair=Na-Sb gen_d_target=1.53 energy=9.5054107 stress="-0.010504129395919343 9.362263688824887e-11 2.995924380423964e-10 9.362263688824887e-11 -5.6579280226131734e-08 1.6227923727296472e-10 2.995924380423964e-10 1.6227923727296472e-10 -5.5312253873577435e-08" free_energy=9.50536479 pbc="T T T"
Na       0.00000000       0.00000000       0.00000000     -28.14130268      -0.00000010       0.00000061
Sb       1.53000000       0.00000000       0.00000000      28.14130268       0.00000010      -0.00000061
2
Lattice="16.0 0.0 0.0 0.0 16.0 0.0 0.0 0.0 16.0" Properties=species:S:1:pos:R:3:forces:R:3 config_type=dimer_diag gen_pair=Na-Sb gen_d_target=1.69 energy=5.576687 stress="-0.008621754805723351 1.25267088156477e-08 -2.8973085362350085e-08 1.25267088156477e-08 -2.721915888288563e-06 1.276887936973197e-07 -2.8973085362350085e-08 1.276887936973197e-07 -2.644458760036352e-06" free_energy=5.55431071 pbc="T T T"
Na       0.00000000       0.00000000       0.00000000     -20.91100126       0.00002648      -0.00005785
Sb       1.69000000       0.00000000       0.00000000      20.91100126      -0.00002648       0.00005785
2
Lattice="16.0 0.0 0.0 0.0 16.0 0.0 0.0 0.0 16.0" Properties=species:S:1:pos:R:3:forces:R:3 config_type=dimer_diag gen_pair=Na-Sb gen_d_target=1.86 energy=2.22716536 stress="-0.006668000032771419 -3.189411163326345e-09 -2.003524429408526e-09 -3.189411163326345e-09 2.303672361763126e-06 1.0754120223896854e-08 -2.003524429408526e-09 1.0754120223896854e-08 2.315949410213738e-06" free_energy=2.19895583 pbc="T T T"
Na       0.00000000       0.00000000       0.00000000     -14.70706897      -0.00000198      -0.00000115
Sb       1.86000000       0.00000000       0.00000000      14.70706897       0.00000198       0.00000115
2
Lattice="16.0 0.0 0.0 0.0 16.0 0.0 0.0 0.0 16.0" Properties=species:S:1:pos:R:3:forces:R:3 config_type=dimer_diag gen_pair=Na-Sb gen_d_target=2.02 energy=0.28950313 stress="-0.0052852693642301335 2.0236220887938702e-07 1.5268728604830732e-06 2.0236220887938702e-07 5.568368608165875e-06 -2.2594887186609983e-07 1.5268728604830732e-06 -2.2594887186609983e-07 5.298392130925794e-06" free_energy=0.27117433 pbc="T T T"
Na       0.00000000       0.00000000       0.00000000     -10.73913568      -0.00024923       0.00070039
Sb       2.02000000       0.00000000       0.00000000      10.73913568       0.00024923      -0.00070039
2
Lattice="16.0 0.0 0.0 0.0 16.0 0.0 0.0 0.0 16.0" Properties=species:S:1:pos:R:3:forces:R:3 config_type=dimer_diag gen_pair=Na-Sb gen_d_target=2.19 energy=-1.21669564 stress="-0.003649539235618336 -3.969599804061752e-09 5.1117959740983885e-09 -3.969599804061752e-09 -6.990552636080509e-07 -2.746264015388634e-10 5.1117959740983885e-09 -2.746264015388634e-10 -6.995046522651144e-07" free_energy=-1.21682744 pbc="T T T"
Na       0.00000000       0.00000000       0.00000000      -6.84459856       0.00000275       0.00000666
Sb       2.19000000       0.00000000       0.00000000       6.84459856      -0.00000275      -0.00000666
2
Lattice="16.0 0.0 0.0 0.0 16.0 0.0 0.0 0.0 16.0" Properties=species:S:1:pos:R:3:forces:R:3 config_type=dimer_diag gen_pair=Na-Sb gen_d_target=2.35 energy=-2.08396005 stress="-0.0023793365853113815 -6.66593174644332e-09 1.032345609421091e-08 -6.66593174644332e-09 -8.196973935022484e-07 -0.0 1.032345609421091e-08 -0.0 -8.196786689748707e-07" free_energy=-2.08396053 pbc="T T T"
Na       0.00000000       0.00000000       0.00000000      -4.16423046       0.00000002       0.00000163
Sb       2.35000000       0.00000000       0.00000000       4.16423046      -0.00000002      -0.00000163
2
Lattice="16.0 0.0 0.0 0.0 16.0 0.0 0.0 0.0 16.0" Properties=species:S:1:pos:R:3:forces:R:3 config_type=dimer_diag gen_pair=Na-Sb gen_d_target=2.51 energy=-2.59521963 stress="-0.001428410139237503 -5.492528030777268e-10 1.1921282430437024e-09 -5.492528030777268e-10 1.750743309810254e-08 0.0 1.1921282430437024e-09 0.0 1.750743309810254e-08" free_energy=-2.59521963 pbc="T T T"
Na       0.00000000       0.00000000       0.00000000      -2.34782811       0.00000004       0.00000022
Sb       2.51000000       0.00000000       0.00000000       2.34782811      -0.00000004      -0.00000022
2
Lattice="16.0 0.0 0.0 0.0 16.0 0.0 0.0 0.0 16.0" Properties=species:S:1:pos:R:3:forces:R:3 config_type=dimer_diag gen_pair=Na-Sb gen_d_target=2.68 energy=-2.87932226 stress="-0.0007008880078647569 -1.1858867339178193e-10 -4.369056388118281e-11 -1.1858867339178193e-10 1.0498468010100676e-06 -6.241509125883259e-12 -4.369056388118281e-11 -6.241509125883259e-12 1.0498343179918158e-06" free_energy=-2.87932226 pbc="T T T"
Na       0.00000000       0.00000000       0.00000000      -1.08731601      -0.00000003      -0.00000025
Sb       2.68000000       0.00000000       0.00000000       1.08731601       0.00000003       0.00000025
2
Lattice="16.0 0.0 0.0 0.0 16.0 0.0 0.0 0.0 16.0" Properties=species:S:1:pos:R:3:forces:R:3 config_type=dimer_diag gen_pair=Na-Sb gen_d_target=2.84 energy=-2.98822961 stress="-0.00021557648234034202 9.362263688824887e-11 6.865660038471585e-11 9.362263688824887e-11 -9.028842271320204e-07 -0.0 6.865660038471585e-11 -0.0 -9.028904686411462e-07" free_energy=-2.98822961 pbc="T T T"
Na       0.00000000       0.00000000       0.00000000      -0.33216067       0.00000001      -0.00000032
Sb       2.84000000       0.00000000       0.00000000       0.33216067      -0.00000001       0.00000032
2
Lattice="16.0 0.0 0.0 0.0 16.0 0.0 0.0 0.0 16.0" Properties=species:S:1:pos:R:3:forces:R:3 config_type=dimer_diag gen_pair=Na-Sb gen_d_target=3.01 energy=-2.99772437 stress="0.00014432576096669005 1.2483018251766518e-11 5.6173582132949326e-11 1.2483018251766518e-11 -1.336974945328075e-06 0.0 5.6173582132949326e-11 0.0 -1.336974945328075e-06" free_energy=-2.99772437 pbc="T T T"
Na       0.00000000       0.00000000       0.00000000       0.17601342      -0.00000000       0.00000014
Sb       3.01000000       0.00000000       0.00000000      -0.17601342       0.00000000      -0.00000014
2
Lattice="16.0 0.0 0.0 0.0 16.0 0.0 0.0 0.0 16.0" Properties=species:S:1:pos:R:3:forces:R:3 config_type=dimer_diag gen_pair=Na-Sb gen_d_target=3.17 energy=-2.94479999 stress="0.0003720797646531231 -2.4966036503533036e-11 8.738112776236562e-11 -2.4966036503533036e-11 -8.549369540269852e-07 0.0 8.738112776236562e-11 0.0 -8.549369540269852e-07" free_energy=-2.94479999 pbc="T T T"
Na       0.00000000       0.00000000       0.00000000       0.46076565      -0.00000000       0.00000024
Sb       3.17000000       0.00000000       0.00000000      -0.46076565       0.00000000      -0.00000024
2
Lattice="16.0 0.0 0.0 0.0 16.0 0.0 0.0 0.0 16.0" Properties=species:S:1:pos:R:3:forces:R:3 config_type=dimer_diag gen_pair=Na-Sb gen_d_target=3.34 energy=-2.85075017 stress="0.0005298227667160328 -3.744905475529955e-11 7.48981095105991e-11 -3.744905475529955e-11 1.7522787210552212e-06 0.0 7.48981095105991e-11 0.0 1.7522724795460954e-06" free_energy=-2.85075017 pbc="T T T"
Na       0.00000000       0.00000000       0.00000000       0.63141927      -0.00000001      -0.00000007
Sb       3.34000000       0.00000000       0.00000000      -0.63141927       0.00000001       0.00000007
2
Lattice="16.0 0.0 0.0 0.0 16.0 0.0 0.0 0.0 16.0" Properties=species:S:1:pos:R:3:forces:R:3 config_type=dimer_diag gen_pair=Na-Sb gen_d_target=3.5 energy=-2.74348024 stress="0.0006147600565461952 -4.993207300706607e-11 4.993207300706607e-11 -4.993207300706607e-11 -1.5510275008002414e-06 -0.0 4.993207300706607e-11 -0.0 -1.5510275008002414e-06" free_energy=-2.74348024 pbc="T T T"
Na       0.00000000       0.00000000       0.00000000       0.69938718      -0.00000001      -0.00000027
Sb       3.50000000       0.00000000       0.00000000      -0.69938718       0.00000001       0.00000027
2
Lattice="16.0 0.0 0.0 0.0 16.0 0.0 0.0 0.0 16.0" Properties=species:S:1:pos:R:3:forces:R:3 config_type=dimer_diag gen_pair=S-S gen_d_target=0.9 energy=120.26443155 stress="-0.11647405054932132 4.993207300706607e-10 -1.6227923727296472e-10 4.993207300706607e-10 2.2361279983046426e-05 -1.2483018251766517e-10 -1.6227923727296472e-10 -1.2483018251766517e-10 2.236152964341146e-05" free_energy=120.26443155 pbc="T T T"
S        0.00000000       0.00000000       0.00000000    -530.27703161      -0.00000108       0.00000036
S        0.90000000       0.00000000       0.00000000     530.27703161       0.00000108      -0.00000036
2
Lattice="16.0 0.0 0.0 0.0 16.0 0.0 0.0 0.0 16.0" Properties=species:S:1:pos:R:3:forces:R:3 config_type=dimer_diag gen_pair=S-S gen_d_target=1.09 energy=45.05644524 stress="-0.07095314435635536 -8.550867502460064e-10 1.66648293661083e-09 -8.550867502460064e-10 1.1219293657539809e-05 1.497962190211982e-10 1.66648293661083e-09 1.497962190211982e-10 1.1219162585848165e-05" free_energy=45.05644524 pbc="T T T"
S        0.00000000       0.00000000       0.00000000    -266.68447129      -0.00000046       0.00000130
S        1.09000000       0.00000000       0.00000000     266.68447129       0.00000046      -0.00000130
2
Lattice="16.0 0.0 0.0 0.0 16.0 0.0 0.0 0.0 16.0" Properties=species:S:1:pos:R:3:forces:R:3 config_type=dimer_diag gen_pair=S-S gen_d_target=1.27 energy=12.70263056 stress="-0.03467472829697154 1.2483018251766518e-11 -1.2483018251766518e-11 1.2483018251766518e-11 5.877460623097865e-06 -5.6173582132949326e-11 -1.2483018251766518e-11 -5.6173582132949326e-11 5.877498072152621e-06" free_energy=12.70263056 pbc="T T T"
S        0.00000000       0.00000000       0.00000000    -111.84460236      -0.00000001       0.00000003
S        1.27000000       0.00000000       0.00000000     111.84460236       0.00000001      -0.00000003
2
Lattice="16.0 0.0 0.0 0.0 16.0 0.0 0.0 0.0 16.0" Properties=species:S:1:pos:R:3:forces:R:3 config_type=dimer_diag gen_pair=S-S gen_d_target=1.46 energy=-0.86955424 stress="-0.014883975299859775 1.2483018251766517e-10 -3.744905475529955e-11 1.2483018251766517e-10 3.002346893314498e-06 1.8724527377649774e-11 -3.744905475529955e-11 1.8724527377649774e-11 3.0023281687871203e-06" free_energy=-0.86955424 pbc="T T T"
S        0.00000000       0.00000000       0.00000000     -41.76968009       0.00000013      -0.00000003
S        1.46000000       0.00000000       0.00000000      41.76968009      -0.00000013       0.00000003
2
Lattice="16.0 0.0 0.0 0.0 16.0 0.0 0.0 0.0 16.0" Properties=species:S:1:pos:R:3:forces:R:3 config_type=dimer_diag gen_pair=S-S gen_d_target=1.64 energy=-5.61542165 stress="-0.005888254713946205 0.0 1.2483018251766518e-11 0.0 2.8863359631917055e-06 -1.8724527377649774e-11 1.2483018251766518e-11 -1.8724527377649774e-11 2.8863297216825797e-06" free_energy=-5.61542165 pbc="T T T"
S        0.00000000       0.00000000       0.00000000     -14.71647752       0.00000002      -0.00000012
S        1.64000000       0.00000000       0.00000000      14.71647752      -0.00000002       0.00000012
2
Lattice="16.0 0.0 0.0 0.0 16.0 0.0 0.0 0.0 16.0" Properties=species:S:1:pos:R:3:forces:R:3 config_type=dimer_diag gen_pair=S-S gen_d_target=1.83 energy=-7.07694356 stress="-0.0010772027175994104 6.241509125883259e-12 -0.0 6.241509125883259e-12 2.2584900772008573e-06 1.497962190211982e-10 -0.0 1.497962190211982e-10 2.258483835691731e-06" free_energy=-7.07694356 pbc="T T T"
S        0.00000000       0.00000000       0.00000000      -2.41568366       0.00000001       0.00000000
S        1.83000000       0.00000000       0.00000000       2.41568366      -0.00000001      -0.00000000
2
Lattice="16.0 0.0 0.0 0.0 16.0 0.0 0.0 0.0 16.0" Properties=species:S:1:pos:R:3:forces:R:3 config_type=dimer_diag gen_pair=S-S gen_d_target=2.01 energy=-7.00817119 stress="0.001208662637352098 1.8724527377649774e-11 1.2483018251766518e-11 1.8724527377649774e-11 1.4613182901339216e-06 -0.0 1.2483018251766518e-11 -0.0 1.4613245316430473e-06" free_energy=-7.00817119 pbc="T T T"
S        0.00000000       0.00000000       0.00000000       2.45730293      -0.00000000      -0.00000000
S        2.01000000       0.00000000       0.00000000      -2.45730293       0.00000000       0.00000000
2
Lattice="16.0 0.0 0.0 0.0 16.0 0.0 0.0 0.0 16.0" Properties=species:S:1:pos:R:3:forces:R:3 config_type=dimer_diag gen_pair=S-S gen_d_target=2.2 energy=-6.32671437 stress="0.002335501692773172 -6.241509125883259e-12 -0.0 -6.241509125883259e-12 2.049767770522195e-06 -4.369056388118281e-11 -0.0 -4.369056388118281e-11 2.0497740120313207e-06" free_energy=-6.32671437 pbc="T T T"
S        0.00000000       0.00000000       0.00000000       4.34738864      -0.00000007       0.00000001
S        2.20000000       0.00000000       0.00000000      -4.34738864       0.00000007      -0.00000001
2
Lattice="16.0 0.0 0.0 0.0 16.0 0.0 0.0 0.0 16.0" Properties=species:S:1:pos:R:3:forces:R:3 config_type=dimer_diag gen_pair=S-S gen_d_target=2.39 energy=-5.45025451 stress="0.002752398289146225 6.241509125883259e-12 1.2483018251766518e-11 6.241509125883259e-12 1.227598739406097e-06 6.241509125883259e-12 1.2483018251766518e-11 6.241509125883259e-12 1.2275425658239638e-06" free_energy=-5.45025451 pbc="T T T"
S        0.00000000       0.00000000       0.00000000       4.71709124       0.00000003      -0.00000000
S        2.39000000       0.00000000       0.00000000      -4.71709124      -0.00000003       0.00000000
2
Lattice="16.0 0.0 0.0 0.0 16.0 0.0 0.0 0.0 16.0" Properties=species:S:1:pos:R:3:forces:R:3 config_type=dimer_diag gen_pair=S-S gen_d_target=2.57 energy=-4.62039648 stress="0.0027888718521987313 1.2483018251766518e-11 1.8724527377649774e-11 1.2483018251766518e-11 1.7375300349907592e-06 4.369056388118281e-11 1.8724527377649774e-11 4.369056388118281e-11 1.7374551368812486e-06" free_energy=-4.62039648 pbc="T T T"
S        0.00000000       0.00000000       0.00000000       4.44341934       0.00000001      -0.00000011
S        2.57000000       0.00000000       0.00000000      -4.44341934      -0.00000001       0.00000011
2
Lattice="16.0 0.0 0.0 0.0 16.0 0.0 0.0 0.0 16.0" Properties=species:S:1:pos:R:3:forces:R:3 config_type=dimer_diag gen_pair=S-S gen_d_target=2.76 energy=-3.82577868 stress="0.0026279978470148953 1.2483018251766518e-11 -4.993207300706607e-11 1.2483018251766518e-11 1.7531837398784744e-06 -1.1858867339178193e-10 -4.993207300706607e-11 -1.1858867339178193e-10 1.7512363890311986e-06" free_energy=-3.82577868 pbc="T T T"
S        0.00000000       0.00000000       0.00000000       3.89718257      -0.00000005       0.00000012
S        2.76000000       0.00000000       0.00000000      -3.89718257       0.00000005      -0.00000012
2
Lattice="16.0 0.0 0.0 0.0 16.0 0.0 0.0 0.0 16.0" Properties=species:S:1:pos:R:3:forces:R:3 config_type=dimer_diag gen_pair=S-S gen_d_target=2.94 energy=-3.17646787 stress="0.00238011082579392 -6.241509125883259e-11 -6.241509125883259e-12 -6.241509125883259e-11 1.2114706798248146e-06 -2.4966036503533036e-11 -6.241509125883259e-12 -2.4966036503533036e-11 1.2095670195414202e-06" free_energy=-3.17647345 pbc="T T T"
S        0.00000000       0.00000000       0.00000000       3.31397824       0.00000020       0.00000005
S        2.94000000       0.00000000       0.00000000      -3.31397824      -0.00000020      -0.00000005
2
Lattice="16.0 0.0 0.0 0.0 16.0 0.0 0.0 0.0 16.0" Properties=species:S:1:pos:R:3:forces:R:3 config_type=dimer_diag gen_pair=S-S gen_d_target=3.13 energy=-2.60442945 stress="0.001876915217061692 -4.383468032689945e-06 -1.685145048897221e-07 -4.383468032689945e-06 -8.296165870503757e-05 -3.43875196309443e-05 -1.685145048897221e-07 -3.43875196309443e-05 -0.00016379187325113166" free_energy=-2.62094338 pbc="T T T"
S        0.00000000       0.00000000       0.00000000       2.36190646       0.00144305       0.01372744
S        3.13000000       0.00000000       0.00000000      -2.36190646      -0.00144305      -0.01372744
2
Lattice="16.0 0.0 0.0 0.0 16.0 0.0 0.0 0.0 16.0" Properties=species:S:1:pos:R:3:forces:R:3 config_type=dimer_diag gen_pair=S-S gen_d_target=3.31 energy=-2.59567368 stress="0.0006588557879922848 3.3766564371028426e-09 9.674339145119051e-10 3.3766564371028426e-09 2.5134182759384327e-06 2.668245151315093e-08 9.674339145119051e-10 2.668245151315093e-08 2.437877290987868e-06" free_energy=-2.62388323 pbc="T T T"
S        0.00000000       0.00000000       0.00000000       0.81052151      -0.00000039       0.00000043
S        3.31000000       0.00000000       0.00000000      -0.81052151       0.00000039      -0.00000043
2
Lattice="16.0 0.0 0.0 0.0 16.0 0.0 0.0 0.0 16.0" Properties=species:S:1:pos:R:3:forces:R:3 config_type=dimer_diag gen_pair=S-S gen_d_target=3.5 energy=-2.44943349 stress="0.000619409668769522 -1.7476225552473124e-10 -4.306641296859448e-10 -1.7476225552473124e-10 2.515009860765533e-06 1.455519928155976e-08 -4.306641296859448e-10 1.455519928155976e-08 2.518929528496588e-06" free_energy=-2.47766911 pbc="T T T"
S        0.00000000       0.00000000       0.00000000       0.72211587      -0.00000005       0.00000002
S        3.50000000       0.00000000       0.00000000      -0.72211587       0.00000005      -0.00000002
2
Lattice="16.0 0.0 0.0 0.0 16.0 0.0 0.0 0.0 16.0" Properties=species:S:1:pos:R:3:forces:R:3 config_type=dimer_diag gen_pair=S-Sb gen_d_target=1.1 energy=93.53426494 stress="-0.08441506409728282 9.580716508230802e-09 -4.475162043258296e-09 9.580716508230802e-09 6.155145364108411e-06 1.4397164270492397e-06 -4.475162043258296e-09 1.4397164270492397e-06 1.16723710464968e-06" free_energy=93.50602125 pbc="T T T"
S        0.00000000       0.00000000       0.00000000    -314.37880225       0.00002306      -0.00001375
Sb       1.10000000       0.00000000       0.00000000     314.37880225      -0.00002306       0.00001375
2
Lattice="16.0 0.0 0.0 0.0 16.0 0.0 0.0 0.0 16.0" Properties=species:S:1:pos:R:3:forces:R:3 config_type=dimer_diag gen_pair=S-Sb gen_d_target=1.27 energy=48.42936005 stress="-0.06654507875465311 1.4667546445825656e-09 -9.611924053860217e-10 1.4667546445825656e-09 2.588953019379872e-06 5.985170346083233e-07 -9.611924053860217e-10 5.985170346083233e-07 1.2952816643671751e-06" free_energy=48.40115078 pbc="T T T"
S        0.00000000       0.00000000       0.00000000    -214.64802002      -0.00000074       0.00000058
Sb       1.27000000       0.00000000       0.00000000     214.64802002       0.00000074      -0.00000058
2
Lattice="16.0 0.0 0.0 0.0 16.0 0.0 0.0 0.0 16.0" Properties=species:S:1:pos:R:3:forces:R:3 config_type=dimer_diag gen_pair=S-Sb gen_d_target=1.44 energy=20.37165184 stress="-0.0422665147093376 -4.993207300706607e-10 1.5603772814708144e-10 -4.993207300706607e-10 -6.954601543515421e-07 -1.1253253708693738e-06 1.5603772814708144e-10 -1.1253253708693738e-06 2.1231991253882112e-06" free_energy=20.34344274 pbc="T T T"
S        0.00000000       0.00000000       0.00000000    -120.23031454      -0.00000005       0.00000019
Sb       1.44000000       0.00000000       0.00000000     120.23031454       0.00000005      -0.00000019
2
Lattice="16.0 0.0 0.0 0.0 16.0 0.0 0.0 0.0 16.0" Properties=species:S:1:pos:R:3:forces:R:3 config_type=dimer_diag gen_pair=S-Sb gen_d_target=1.61 energy=5.49185661 stress="-0.023820275089861058 0.0 -6.241509125883259e-12 0.0 4.8844614872063425e-06 -2.8710941979062987e-09 -6.241509125883259e-12 -2.8710941979062987e-09 4.580824551250374e-06" free_energy=5.46364714 pbc="T T T"
S        0.00000000       0.00000000       0.00000000     -60.60430639       0.00000002      -0.00000000
Sb       1.61000000       0.00000000       0.00000000      60.60430639      -0.00000002       0.00000000
2
Lattice="16.0 0.0 0.0 0.0 16.0 0.0 0.0 0.0 16.0" Properties=species:S:1:pos:R:3:forces:R:3 config_type=dimer_diag gen_pair=S-Sb gen_d_target=1.79 energy=-2.08022686 stress="-0.011932336068200853 -6.241509125883259e-11 -2.4966036503533036e-11 -6.241509125883259e-11 -1.5841574312404297e-07 3.949876635223961e-07 -2.4966036503533036e-11 3.949876635223961e-07 -7.084986669155122e-07" free_energy=-2.10843633 pbc="T T T"
S        0.00000000       0.00000000       0.00000000     -27.31030899      -0.00000002      -0.00000002
Sb       1.79000000       0.00000000       0.00000000      27.31030899       0.00000002       0.00000002
2
Lattice="16.0 0.0 0.0 0.0 16.0 0.0 0.0 0.0 16.0" Properties=species:S:1:pos:R:3:forces:R:3 config_type=dimer_diag gen_pair=S-Sb gen_d_target=1.96 energy=-5.20898637 stress="-0.0053754934182597205 1.8724527377649774e-11 -0.0 1.8724527377649774e-11 -3.8240478112461545e-07 4.3185001641986264e-07 -0.0 4.3185001641986264e-07 -2.0831660858547963e-07" free_energy=-5.23719584 pbc="T T T"
S        0.00000000       0.00000000       0.00000000     -11.23242053      -0.00000004       0.00000002
Sb       1.96000000       0.00000000       0.00000000      11.23242053       0.00000004      -0.00000002
2
Lattice="16.0 0.0 0.0 0.0 16.0 0.0 0.0 0.0 16.0" Properties=species:S:1:pos:R:3:forces:R:3 config_type=dimer_diag gen_pair=S-Sb gen_d_target=2.13 energy=-6.33419816 stress="-0.001523976032543041 -3.744905475529955e-11 1.2483018251766518e-11 -3.744905475529955e-11 2.842851369111677e-06 -2.746950581392481e-07 1.2483018251766518e-11 -2.746950581392481e-07 2.331777877356978e-06" free_energy=-6.36240764 pbc="T T T"
S        0.00000000       0.00000000       0.00000000      -2.93939161       0.00000001       0.00000002
Sb       2.13000000       0.00000000       0.00000000       2.93939161      -0.00000001      -0.00000002
2
Lattice="16.0 0.0 0.0 0.0 16.0 0.0 0.0 0.0 16.0" Properties=species:S:1:pos:R:3:forces:R:3 config_type=dimer_diag gen_pair=S-Sb gen_d_target=2.3 energy=-6.44188623 stress="0.0006542340565902233 1.4355470989531495e-10 3.9945658405652857e-10 1.4355470989531495e-10 -1.4937117224972555e-06 6.939434676339523e-07 3.9945658405652857e-10 6.939434676339523e-07 -8.700663721481263e-07" free_energy=-6.4700957 pbc="T T T"
S        0.00000000       0.00000000       0.00000000       1.16215050      -0.00000000      -0.00000005
Sb       2.30000000       0.00000000       0.00000000      -1.16215050       0.00000000       0.00000005
2
Lattice="16.0 0.0 0.0 0.0 16.0 0.0 0.0 0.0 16.0" Properties=species:S:1:pos:R:3:forces:R:3 config_type=dimer_diag gen_pair=S-Sb gen_d_target=2.47 energy=-6.06357055 stress="0.0018213887171458596 -1.1234716426589865e-10 -1.7476225552473124e-10 -1.1234716426589865e-10 -5.640077306513148e-07 2.1468294789388055e-07 -1.7476225552473124e-10 2.1468294789388055e-07 -1.2154090720832468e-07" free_energy=-6.09178003 pbc="T T T"
S        0.00000000       0.00000000       0.00000000       3.01668779      -0.00000005      -0.00000001
Sb       2.47000000       0.00000000       0.00000000      -3.01668779       0.00000005       0.00000001
2
Lattice="16.0 0.0 0.0 0.0 16.0 0.0 0.0 0.0 16.0" Properties=species:S:1:pos:R:3:forces:R:3 config_type=dimer_diag gen_pair=S-Sb gen_d_target=2.64 energy=-5.48636266 stress="0.0023292000404653516 -5.6173582132949326e-11 8.113961863648236e-11 -5.6173582132949326e-11 -1.0820217805539958e-06 -5.598633685917283e-09 8.113961863648236e-11 -5.598633685917283e-09 -1.0851300520986856e-06" free_energy=-5.51457214 pbc="T T T"
S        0.00000000       0.00000000       0.00000000       3.61070448       0.00000002      -0.00000003
Sb       2.64000000       0.00000000       0.00000000      -3.61070448      -0.00000002       0.00000003
2
Lattice="16.0 0.0 0.0 0.0 16.0 0.0 0.0 0.0 16.0" Properties=species:S:1:pos:R:3:forces:R:3 config_type=dimer_diag gen_pair=S-Sb gen_d_target=2.81 energy=-4.88280834 stress="0.002362184961924018 -5.2472367221300555e-08 -3.7374156645788955e-08 -5.2472367221300555e-08 3.965114655603892e-05 -2.515765083369765e-07 -3.7374156645788955e-08 -2.515765083369765e-07 3.9432887223415915e-05" free_energy=-4.91101747 pbc="T T T"
S        0.00000000       0.00000000       0.00000000       3.39560163       0.00002300       0.00001515
Sb       2.81000000       0.00000000       0.00000000      -3.39560163      -0.00002300      -0.00001515
2
Lattice="16.0 0.0 0.0 0.0 16.0 0.0 0.0 0.0 16.0" Properties=species:S:1:pos:R:3:forces:R:3 config_type=dimer_diag gen_pair=S-Sb gen_d_target=2.99 energy=-4.31780311 stress="0.0021006208468573855 7.177735494765747e-10 2.1845281940591403e-10 7.177735494765747e-10 -1.414868979219098e-06 -3.346073042386015e-08 2.1845281940591403e-10 -3.346073042386015e-08 -1.3752853283427465e-06" free_energy=-4.34601259 pbc="T T T"
S        0.00000000       0.00000000       0.00000000       2.87080612       0.00000063       0.00000159
Sb       2.99000000       0.00000000       0.00000000      -2.87080612      -0.00000063      -0.00000159
2
Lattice="16.0 0.0 0.0 0.0 16.0 0.0 0.0 0.0 16.0" Properties=species:S:1:pos:R:3:forces:R:3 config_type=dimer_diag gen_pair=S-Sb gen_d_target=3.16 energy=-3.87314883 stress="0.0018262382074574336 -4.993207300706607e-11 -6.241509125883259e-12 -4.993207300706607e-11 -8.434962677992412e-07 2.390497995213288e-09 -6.241509125883259e-12 2.390497995213288e-09 -8.455434827925309e-07" free_energy=-3.90135831 pbc="T T T"
S        0.00000000       0.00000000       0.00000000       2.36543278      -0.00000004      -0.00000004
Sb       3.16000000       0.00000000       0.00000000      -2.36543278       0.00000004       0.00000004
2
Lattice="16.0 0.0 0.0 0.0 16.0 0.0 0.0 0.0 16.0" Properties=species:S:1:pos:R:3:forces:R:3 config_type=dimer_diag gen_pair=S-Sb gen_d_target=3.33 energy=-3.41848457 stress="0.0015067169990251304 2.103388575422658e-09 -9.742995745503767e-09 2.103388575422658e-09 2.0130614553528755e-06 -4.812203536055993e-09 -9.742995745503767e-09 -4.812203536055993e-09 3.008550953385626e-06" free_energy=-3.44862735 pbc="T T T"
S        0.00000000       0.00000000       0.00000000       1.84356774       0.00001481      -0.00001949
Sb       3.33000000       0.00000000       0.00000000      -1.84356774      -0.00001481       0.00001949
2
Lattice="16.0 0.0 0.0 0.0 16.0 0.0 0.0 0.0 16.0" Properties=species:S:1:pos:R:3:forces:R:3 config_type=dimer_diag gen_pair=S-Sb gen_d_target=3.5 energy=-2.90867018 stress="0.00136761555595906 -1.1858867339178193e-10 -4.369056388118281e-11 -1.1858867339178193e-10 -1.7066657723632662e-06 6.07298837948441e-09 -4.369056388118281e-11 6.07298837948441e-09 -1.6902630863804453e-06" free_energy=-2.95329701 pbc="T T T"
S        0.00000000       0.00000000       0.00000000       1.59451947       0.00000005      -0.00000003
Sb       3.50000000       0.00000000       0.00000000      -1.59451947      -0.00000005       0.00000003
2
Lattice="16.0 0.0 0.0 0.0 16.0 0.0 0.0 0.0 16.0" Properties=species:S:1:pos:R:3:forces:R:3 config_type=dimer_diag gen_pair=Sb-Sb gen_d_target=1.4 energy=41.7838501 stress="-0.049312350332855394 1.4355470989531495e-10 -0.0 1.4355470989531495e-10 6.314703303402491e-06 7.48981095105991e-11 -0.0 7.48981095105991e-11 6.314884307167142e-06" free_energy=41.7838501 pbc="T T T"
Sb       0.00000000       0.00000000       0.00000000    -144.28578448      -0.00000009       0.00000005
Sb       1.40000000       0.00000000       0.00000000     144.28578448       0.00000009      -0.00000005
2
Lattice="16.0 0.0 0.0 0.0 16.0 0.0 0.0 0.0 16.0" Properties=species:S:1:pos:R:3:forces:R:3 config_type=dimer_diag gen_pair=Sb-Sb gen_d_target=1.55 energy=23.13014316 stress="-0.0392385803811125 -6.803244947212751e-10 7.302565677283412e-10 -6.803244947212751e-10 2.815270140284399e-06 4.681131844412444e-10 7.302565677283412e-10 4.681131844412444e-10 2.8155322836676863e-06" free_energy=23.13014316 pbc="T T T"
Sb       0.00000000       0.00000000       0.00000000    -103.69927865       0.00000070      -0.00000081
Sb       1.55000000       0.00000000       0.00000000     103.69927865      -0.00000070       0.00000081
2
Lattice="16.0 0.0 0.0 0.0 16.0 0.0 0.0 0.0 16.0" Properties=species:S:1:pos:R:3:forces:R:3 config_type=dimer_diag gen_pair=Sb-Sb gen_d_target=1.7 energy=10.51937278 stress="-0.027407732381011664 -6.241509125883259e-11 -7.48981095105991e-11 -6.241509125883259e-11 2.6088322259458103e-06 -1.7476225552473124e-10 -7.48981095105991e-11 -1.7476225552473124e-10 2.6091255768747264e-06" free_energy=10.51937278 pbc="T T T"
Sb       0.00000000       0.00000000       0.00000000     -66.04128815       0.00000003      -0.00000005
Sb       1.70000000       0.00000000       0.00000000      66.04128815      -0.00000003       0.00000005
2
Lattice="16.0 0.0 0.0 0.0 16.0 0.0 0.0 0.0 16.0" Properties=species:S:1:pos:R:3:forces:R:3 config_type=dimer_diag gen_pair=Sb-Sb gen_d_target=1.85 energy=2.73569311 stress="-0.017899635450728455 3.1207545629416294e-11 3.1207545629416294e-11 3.1207545629416294e-11 4.1280842037861795e-06 -3.744905475529955e-11 3.1207545629416294e-11 -3.744905475529955e-11 4.128209033968698e-06" free_energy=2.73569311 pbc="T T T"
Sb       0.00000000       0.00000000       0.00000000     -39.63434401       0.00000000      -0.00000008
Sb       1.85000000       0.00000000       0.00000000      39.63434401      -0.00000000       0.00000008
2
Lattice="16.0 0.0 0.0 0.0 16.0 0.0 0.0 0.0 16.0" Properties=species:S:1:pos:R:3:forces:R:3 config_type=dimer_diag gen_pair=Sb-Sb gen_d_target=2.0 energy=-1.84887948 stress="-0.011111266366570114 6.241509125883259e-12 6.241509125883259e-12 6.241509125883259e-12 6.392254054291591e-06 -6.241509125883259e-12 6.241509125883259e-12 -6.241509125883259e-12 6.392247812782465e-06" free_energy=-1.84887948 pbc="T T T"
Sb       0.00000000       0.00000000       0.00000000     -22.76614849      -0.00000001      -0.00000000
Sb       2.00000000       0.00000000       0.00000000      22.76614849       0.00000001       0.00000000
2
Lattice="16.0 0.0 0.0 0.0 16.0 0.0 0.0 0.0 16.0" Properties=species:S:1:pos:R:3:forces:R:3 config_type=dimer_diag gen_pair=Sb-Sb gen_d_target=2.15 energy=-4.39803051 stress="-0.006309865915377112 6.241509125883259e-12 1.8724527377649774e-11 6.241509125883259e-12 3.7990193596513624e-06 2.4966036503533036e-11 1.8724527377649774e-11 2.4966036503533036e-11 3.798900770977971e-06" free_energy=-4.39803051 pbc="T T T"
Sb       0.00000000       0.00000000       0.00000000     -12.02302393       0.00000002       0.00000003
Sb       2.15000000       0.00000000       0.00000000      12.02302393      -0.00000002      -0.00000003
2
Lattice="16.0 0.0 0.0 0.0 16.0 0.0 0.0 0.0 16.0" Properties=species:S:1:pos:R:3:forces:R:3 config_type=dimer_diag gen_pair=Sb-Sb gen_d_target=2.3 energy=-5.65053716 stress="-0.002927089372742394 -3.744905475529955e-11 -1.2483018251766518e-11 -3.744905475529955e-11 1.7710906295606334e-06 -6.241509125883259e-12 -1.2483018251766518e-11 -6.241509125883259e-12 1.7710968710697591e-06" free_energy=-5.65053716 pbc="T T T"
Sb       0.00000000       0.00000000       0.00000000      -5.21711712       0.00000001       0.00000001
Sb       2.30000000       0.00000000       0.00000000       5.21711712      -0.00000001      -0.00000001
2
Lattice="16.0 0.0 0.0 0.0 16.0 0.0 0.0 0.0 16.0" Properties=species:S:1:pos:R:3:forces:R:3 config_type=dimer_diag gen_pair=Sb-Sb gen_d_target=2.45 energy=-6.09383378 stress="-0.0006282431830127478 6.241509125883259e-11 -5.6173582132949326e-11 6.241509125883259e-11 1.955339978956707e-06 -1.8724527377649774e-11 -5.6173582132949326e-11 -1.8724527377649774e-11 1.9554398431027215e-06" free_energy=-6.09383378 pbc="T T T"
Sb       0.00000000       0.00000000       0.00000000      -1.05448399       0.00000006      -0.00000002
Sb       2.45000000       0.00000000       0.00000000       1.05448399      -0.00000006       0.00000002
2
Lattice="16.0 0.0 0.0 0.0 16.0 0.0 0.0 0.0 16.0" Properties=species:S:1:pos:R:3:forces:R:3 config_type=dimer_diag gen_pair=Sb-Sb gen_d_target=2.6 energy=-6.05342805 stress="0.0008679373621777417 -6.241509125883259e-12 6.241509125883259e-12 -6.241509125883259e-12 3.909831112672294e-06 -1.7476225552473124e-10 6.241509125883259e-12 -1.7476225552473124e-10 3.909562727779881e-06" free_energy=-6.05342805 pbc="T T T"
Sb       0.00000000       0.00000000       0.00000000       1.36184088       0.00000001      -0.00000001
Sb       2.60000000       0.00000000       0.00000000      -1.36184088      -0.00000001       0.00000001
2
Lattice="16.0 0.0 0.0 0.0 16.0 0.0 0.0 0.0 16.0" Properties=species:S:1:pos:R:3:forces:R:3 config_type=dimer_diag gen_pair=Sb-Sb gen_d_target=2.75 energy=-5.74039637 stress="0.0017925249830233949 0.0 -6.241509125883259e-12 0.0 1.8790312883836584e-06 1.8724527377649774e-11 -6.241509125883259e-12 1.8724527377649774e-11 1.8790937034749175e-06" free_energy=-5.74039637 pbc="T T T"
Sb       0.00000000       0.00000000       0.00000000       2.66653955      -0.00000002       0.00000000
Sb       2.75000000       0.00000000       0.00000000      -2.66653955       0.00000002      -0.00000000
2
Lattice="16.0 0.0 0.0 0.0 16.0 0.0 0.0 0.0 16.0" Properties=species:S:1:pos:R:3:forces:R:3 config_type=dimer_diag gen_pair=Sb-Sb gen_d_target=2.9 energy=-5.28744957 stress="0.002325507114277822 -8.987773141271892e-10 -3.120754562941629e-10 -8.987773141271892e-10 1.7187493340309766e-06 2.808679106647466e-10 -3.120754562941629e-10 2.808679106647466e-10 1.7181563906640176e-06" free_energy=-5.28744957 pbc="T T T"
Sb       0.00000000       0.00000000       0.00000000       3.28464907       0.00000028      -0.00000032
Sb       2.90000000       0.00000000       0.00000000      -3.28464907      -0.00000028       0.00000032
2
Lattice="16.0 0.0 0.0 0.0 16.0 0.0 0.0 0.0 16.0" Properties=species:S:1:pos:R:3:forces:R:3 config_type=dimer_diag gen_pair=Sb-Sb gen_d_target=3.05 energy=-4.7759403 stress="0.002593996402172442 -7.614641133577575e-10 -4.2442262056006156e-10 -7.614641133577575e-10 3.6886257877418655e-06 -7.864301498612906e-10 -4.2442262056006156e-10 -7.864301498612906e-10 3.6893185952548385e-06" free_energy=-4.7759403 pbc="T T T"
Sb       0.00000000       0.00000000       0.00000000       3.48203174      -0.00000108      -0.00000036
Sb       3.05000000       0.00000000       0.00000000      -3.48203174       0.00000108       0.00000036
2
Lattice="16.0 0.0 0.0 0.0 16.0 0.0 0.0 0.0 16.0" Properties=species:S:1:pos:R:3:forces:R:3 config_type=dimer_diag gen_pair=Sb-Sb gen_d_target=3.2 energy=-4.25500431 stress="0.0026891488267059356 3.932150749306453e-10 -3.1207545629416294e-11 3.932150749306453e-10 5.158769571779786e-06 -1.2233357886731186e-09 -3.1207545629416294e-11 -1.2233357886731186e-09 5.161596975413812e-06" free_energy=-4.25500431 pbc="T T T"
Sb       0.00000000       0.00000000       0.00000000       3.43533375       0.00000004      -0.00000004
Sb       3.20000000       0.00000000       0.00000000      -3.43533375      -0.00000004       0.00000004
2
Lattice="16.0 0.0 0.0 0.0 16.0 0.0 0.0 0.0 16.0" Properties=species:S:1:pos:R:3:forces:R:3 config_type=dimer_diag gen_pair=Sb-Sb gen_d_target=3.35 energy=-3.7522699 stress="0.002659144144715259 1.2483018251766518e-11 -6.241509125883259e-11 1.2483018251766518e-11 3.2608826843268343e-06 4.681131844412444e-10 -6.241509125883259e-11 4.681131844412444e-10 3.2619062918234788e-06" free_energy=-3.75226995 pbc="T T T"
Sb       0.00000000       0.00000000       0.00000000       3.24979819       0.00000008       0.00000008
Sb       3.35000000       0.00000000       0.00000000      -3.24979819      -0.00000008      -0.00000008
2
Lattice="16.0 0.0 0.0 0.0 16.0 0.0 0.0 0.0 16.0" Properties=species:S:1:pos:R:3:forces:R:3 config_type=dimer_diag gen_pair=Sb-Sb gen_d_target=3.5 energy=-3.28347398 stress="0.002558758214779712 0.0 -1.810037646506145e-10 0.0 1.6372477078651926e-06 -3.307999836718127e-10 -1.810037646506145e-10 -3.307999836718127e-10 1.6374287116298434e-06" free_energy=-3.28348006 pbc="T T T"
Sb       0.00000000       0.00000000       0.00000000       2.99093207      -0.00000001       0.00000012
Sb       3.50000000       0.00000000       0.00000000      -2.99093207       0.00000001      -0.00000012
