2712
Lattice="28.6612 0.0 0.0 0.0 28.6612 0.0 0.0 0.0 100.8156" Properties=species:S:1:pos:R:3:momenta:R:3:forces:R:3 energy=8317.666489342202 free_energy=8317.666489342202 stress="-0.18742841486361048 0.011013279660885432 0.0026800919167875494 0.011013279660885432 -0.170555129135153 -0.0030112137523775383 0.0026800919167875494 -0.0030112137523775383 -0.18327821202318528" pbc="T T T"
Na    -211.00939683      15.90969287     223.38279002    -105.62307749      57.31431004     332.40297415      -0.21219375      -9.77860000       4.42329060
Na       5.45124093      -0.00222379       2.91551925      17.55085747     -19.59732692       1.68974653      -0.95070826       1.78026871      -7.89156007
Na      -3.60774327      -7.11997462       0.83752343     -22.58981546     -56.07957571     -21.64649564      -3.59213743      -5.99102650       3.71176352
Na    -170.43631510     -32.06690005      72.77667156    -177.87572561      54.59702981     130.67245727       1.96387650      -2.06119921       0.40346774
Na      -4.24220506      -4.15257652       8.47582449     -16.10320739     -30.61170864       4.53748597       3.47906286      -8.82477801       9.35832876
Na      -9.79307536      12.18463039      25.02561451     -20.13749194       9.07033144      14.79567337      -0.16036714      -1.28649733      -0.65361033
Na      -1.26040829      -2.00044697      13.38693060     -10.32663361      -6.32863316      18.90466034       0.26228518      -2.26740232       2.79032357
Na     -20.47359742      -9.89528627      -0.97944539    -446.77475720     -51.36255737      26.50860432       2.69404445       0.37998015       0.80881781
Na       2.24800459      -2.55242434      15.51222916      23.39203237     -13.40464188      14.78485104       7.90269309       1.51585355      -1.95757990
Na       3.94486649       6.81185126      20.04814214       4.16995487      10.40009967       0.87688458       0.55601744      -1.77519619       0.49600243
Na       0.82961481       0.07881210      18.78183423       5.98206188      -1.74861939      -2.75646271      -6.44077340       0.91150325       5.13251809
Na       7.79109265      -2.42200059      25.71955322       7.23479690       6.62854546     -15.57637043      -3.43181269       1.22367236       2.02880525
Na      -2.04449406       3.58102946      -0.24901548      -5.83767192       7.96853978       3.01118148      -0.70739828       4.66504448      -8.20276371
Na       6.10585902       7.47427252       2.09227636       0.12990425      -6.08684111       0.96982240      -0.11163832      -0.18627212      -2.47664738
Na      -1.67845748       2.92185036       1.07280955     -11.22266975      -0.02811731      -2.86315942       4.63769072      -3.14945632       9.28828382
Na      -3.59185461      12.16437082       0.81251856      -4.63572358       5.02229471      -2.35711867      -1.18998380      -1.53134924       1.51828112
Na       2.42092054       0.35876307       3.12788089       9.54042157      -2.09828020      -6.71121070       3.06708644       6.36149146       0.35272482
Na       0.89098139       2.97368029       4.44590259      -3.71967352     -19.99112788     -10.75351194       2.72052233      -1.33642409      -0.88793594
Na      -3.01369375       6.78295495       8.59431212      -9.18237780      -0.28187258      -7.49930395      -1.44175682      -6.25278615       0.15909514
Na       3.88640678       4.92085012       3.24765379      13.43580880      18.20919554     -37.06996398       1.84641765       8.52177557      -4.17063655
Na       3.84164436       2.06004121      17.31145160      -0.37534838       1.89181905       3.00912672      -0.21188025      12.50208003      -5.97691488
Na     -16.94573371     -16.01960570      20.68304068     -87.68615996     -82.16229377      86.28099195      -9.43856001      13.38638021     -11.21454552
Na      -0.60463862      11.75745841      16.11941508      -0.68038419      19.47475564      -5.14986334      -0.89218925      -1.30899950       2.50607545
Na     -18.73042717       5.48696338      25.81184940     -97.10124398       8.43029879      14.18666151      18.13146900      21.58609075     -26.74473047
Na       7.36508244      -2.55233020      -8.42016489     -10.95396709      -8.24339678     -14.91523484       0.83501996       0.71505740      -1.89427244
Na       3.90214731      11.29509676       0.22433149       0.44371770      -7.16567361      -4.36992228      -0.58073326      -1.81633813      -0.91059267
Na       3.64046871       5.45889768      -2.46924286       6.24729723      -7.54818545      -7.48926068       0.54556231       0.90179281      -0.09847035
Na       0.70643005      10.93920339      10.29544754       8.73497273      -1.16767500       3.60045961      -1.25096226      -0.54231406      -0.66459704
Na       0.57421452       8.42970813       7.30784957      -1.97440256       3.85613152      -0.31425186      -0.18018630       0.49007138      -0.06065280
Na       1.55234216      12.44486449      11.92641745       3.60698367       5.83869932       6.59440429       0.52175252       0.88583708       1.19601486
Na       1.92783266       7.92356598      11.16393516       2.75464701      -9.48296559       4.79985896      -3.70203615      -6.41962805      -6.49959388
Na      -4.83897096       3.40844120      -8.08249993      -7.56022844     -23.38377734      -9.33143326       1.05090498      -3.86656586      -0.23399478
Na      -5.12343729       3.36281290      18.38042212      13.43745259     -16.07062060      -7.93780798       7.22919916      -3.19871499      -0.97277440
Na       5.60006301      15.01147798      11.30831818     -15.48781874      -4.04698667     -16.65751949    -102.41632336     -44.06661073     100.57717572
Na      -0.04797902      11.30514031      20.69654864      -6.86132235       3.99771730      -6.31919351       3.05859547      -4.09707704       0.67331979
Na       1.60785939      13.71443509      25.21639600      11.93967819      15.38945881      28.15606917       2.57644638       1.87412208      -0.69033038
Na      -0.55325292      14.43518757      -1.05420587      -6.15115213     -10.77778288       7.81693215       1.65892956      -2.09158587       0.66386751
Na       4.11329868      14.48665341       0.64870052       9.21766552     -13.10383286      -7.53662144      -4.10485132      -4.53079863      -1.04883573
Na      -4.76972626      18.53029019       0.14124620     -17.41772093       4.76098965      18.89575656       1.12450490       2.17567862       0.97967661
Na       1.51572328       5.82992033       8.08138308     -12.71692433     -73.30478287      26.00064396      -2.19846497       2.06417829      -1.66574592
Na      -3.59052586      14.05454797       9.95252575      -3.21177748       4.96861137       9.27492634      -2.60109670      -0.92969857      -0.73876309
Na       4.88539170      14.13608130       3.80037916       2.23399877      -0.03689291      -6.18172064      -1.12845003      -0.54015091       1.57537446
Na      -3.35258990      19.12117261      -1.82839861      21.52323534     -12.99397845     -27.22009160       5.93121177       6.89277980       2.14913574
Na      -0.02818086      13.75765565      15.77998783      -6.32020430       5.18628857       4.00261141      -1.52672577       1.07295438      -3.87235547
Na      -0.79520208      10.18895914      14.47130956      -2.99997562      -6.70443522     -18.71899150      -0.52189635      -0.38156964      -0.21815861
Na       3.29234695      12.74749794      15.23098976       7.99190513      -5.54606150     -10.62924509      -0.36670339      -1.37280074      -1.39012759
Na      -1.60453302      12.04094320      19.22885600      -4.65484215      17.69821619       5.12643722      -1.03209126      -2.70989830      -3.75859592
Na       1.49717598       8.71398074      23.22227406      -5.67200748      -1.46570884       3.33936625      -0.35313386      -1.81879424      -1.44821536
Na       2.25066137      19.01779310      -2.46123470       2.50682784      -5.76293718      -9.85085549      -0.53270706       0.09320279      -4.90229851
Na       7.84803265      22.15670146     -10.04590378       5.14766206       6.19052515     -18.44717772       1.42722372      -1.39471779      -0.64215802
Na       0.93472863      18.15279778       2.44813174      -0.54147464       3.39508859      -1.05585725      -1.86309815       0.57607138      -1.59416109
Na       2.49108483      17.48522369       3.88517744       0.47181782      -3.03151719      -6.27207649       0.31055207      -3.82932455       0.55725232
Na      14.28067573       4.06637926     -13.02756521      21.72796420     -40.89574882      16.91551341      -2.22672148      -5.79629378       4.41474108
Na       4.51462043      23.37001650      13.04565099       4.31857317       3.11217658      -1.47393239      -0.45901746      -4.93889466      -0.66818174
Na       0.53819046      20.05051326      13.31844893       0.75228496      14.97068371      11.27333859      -1.92903250      -0.04931220       0.53587589
Na       3.59012057      26.09117296      22.92722969      11.79158727       7.22749915      44.02223542       4.27284259       4.85210778      -5.09065562
Na       5.65543642      17.19958290      11.69606295       9.71714595       1.17353006     -24.41686036      -0.68651388       0.60673608       2.21326338
Na       8.20954114      20.61919125      20.72386567      22.18698713       0.15168894      -8.66889598      -3.67689896     -14.08340180       3.29640829
Na       2.48472500      17.11911610      23.10511115      -6.22047866       4.13149130       9.49736988      -1.37799605      -1.32789363      -1.41140602
Na      10.28936010      15.41133982      23.00555549       3.03567868     -18.20897839     -12.44129790       0.67524321       6.09661033       1.29680101
Na       2.50353371      22.32215942      -1.83754406      -0.75202886       3.97029725      -0.89203149      -3.77325127      -2.21519331       1.21746709
Na      -2.01528277      27.95209293       5.23371282     -11.83687488      -4.82134233      -1.82622737       0.05168872       0.60291438       2.11116495
Na      43.35561321     199.53506221    -121.78245140     105.58784901     240.04414833     -24.91170428       3.24731814       1.51252452      -2.73098902
Na       4.63993198      21.24039641       8.17273337      -8.46672912      -9.10719100       8.24633351       0.03806639      -5.44714836       0.74078557
Na     -40.84307373      23.61378486     127.89141506     -72.12973201      -8.30040600     222.70154216      -0.70105476      -1.81140942       1.14491405
Na       2.35170812      15.62183072      -0.25560093     -20.66636857       2.38702910     -38.50761053      -3.06404048       0.98453090      -1.63451168
Na      18.51774105      25.33226533     -33.76633240      80.11260135      21.32820283    -171.65737440       6.75852567      -1.55222316       8.10612658
Na    -148.10179157     106.99771003      62.71038876    -162.54620172      54.26742315      56.85094580      -0.12483834      -5.41777788      -1.29917153
Na      -2.57999291      18.52288007      12.32662603       2.71647298      -6.32012863      -8.90173272       6.57454833       1.48597381      -0.49164989
Na       1.36600222      20.08959470      21.26795056      -9.44461219     -13.76564200      10.58125820       1.01464337       0.52110812       2.83554395
Na      13.85850490       9.63874814      59.92595906      15.06389428      -7.30475398      56.04916699     -10.89863820       6.79680917      -0.45482793
Na       6.02002087      21.92983492      22.87304734       0.26026919      27.62853773      -9.99827760     -15.96224866      25.99111198      -8.80749309
Na       0.74923967      28.87187099       0.75108549      13.32190782       8.68166935      13.61231403      -0.63877288       1.67403117      -0.54108410
Na       1.42824545      27.60404889       2.67278538      -4.18933994      -7.07169420      -0.11507955      -4.02943910      -4.57258373      -0.46829004
Na      -5.06274347      25.10153048       4.95340201      -9.23810122      -3.41372022      18.74237807       0.18952413      -0.10445180      -0.28031713
Na       3.82778879      32.13069572       3.66846202      20.49176374      76.38903596     -50.73401863       3.76168446     -12.18886236       4.71685969
Na      -2.74976811      21.35223788      15.11902177      12.05425277      -9.85916243      12.23691083      -0.55767252       0.91752867       0.66509633
Na       1.16669963      19.76999302       5.15784533      -0.74588013      -6.66134666       7.73005501      -1.96915847       0.36103694       1.55107955
Na       4.35721085      22.91669484       8.33409947       6.62143158      -7.00957603      -3.36726719      -2.81460972       1.62158751      -0.91950005
Na       1.25129864      28.20913991      16.64434978     -15.26966981      -0.45268010       8.39346229      -8.13082421       2.39034987     -10.61813089
Na       1.97844138      23.59643066      13.88099000      -8.29851879      -4.37326799      -6.67504111       1.57104369      -1.94373215       0.10490250
Na       4.30968233      28.68753037      16.47606832       1.23945534     -15.46427433     -15.18238211      -9.54134629      23.44270965       2.96817421
Na      -8.74531747      18.10403720      14.82327291      -6.71097821     -22.55102333      -6.67017955      -1.46367966      -0.26752423       1.38284639
Na       2.66328759      37.57515874      12.14800333       8.44857504       7.98863139     -32.16002704       5.26051553       6.54396303       6.38896926
Na       2.87587992      -3.57779500       0.46844773       2.39296747      -1.17556422     -11.02266109      -0.44316776      -6.01372936      -1.09498081
Na       3.12213835      -2.36025497      -2.06064075      -4.37999039      -2.40152959      -1.39200895       0.48505720       2.02853912       0.87646795
Na       5.79307402      -4.61969604       4.50825146      13.25515496      -9.57661049      -1.01014221      -0.16559158       1.08428005      -3.20321762
Na       8.12642575       0.74957641       4.09860250      -0.87810040      -3.67504539      -4.34191719       0.36643760      -3.66504190      -1.34405949
Na       3.21595630       1.38348400       7.73162681      -9.69123150     -12.11525695     -10.09306183       0.53053068       0.77528557       0.06291122
Na       2.00429482       4.07357564       2.77273258      -2.44314502       0.98469281      -6.10619581      -3.03663827       0.52382001      -4.82210714
Na       9.58450078      -8.10670668      10.95769406      46.71089563     -94.20760516     -28.57911990      -2.93915512       8.15983527      -1.61584233
Na     -58.79089542      67.69184241      -4.02673100    -289.64924291     163.81178304    -156.19827814       3.78555294      16.14079804     -14.43059187
Na       5.81707913       4.21911828      13.63138290      -9.68013122       6.30363497       7.57535025       0.42121785       0.85588672       0.29287971
Na       6.59809071       1.54779351      18.44045985       3.31448555      -5.06212575      -1.76922998       5.10483598       2.83448872      -1.10870008
Na       5.31685676      -3.50663098      13.60231856      13.46623570       0.03030952     -10.05594752       2.70607956       3.25754651       3.82149305
Na      34.39467523      34.51024925      55.34961579      77.71217389      64.59664231      87.48699786       3.12282756       4.45829152       3.75009138
Na       3.90300019       2.97950133      -3.74163670      -7.92993816      -1.57262564      -5.86586205      -0.59957357      -0.06684996      -0.74514312
Na       6.74330943       4.07711481      -3.32883042       4.90378565       4.83196761      -8.55587905       0.20313082       0.28946680      -0.19206056
Na      11.28910192      -1.09522217      -1.62110993       7.94145853      16.39209141       1.58060536      -0.50267671      -2.90746303       1.45667227
Na       7.92997939       5.00734066       6.88941712      -3.45312169       3.80270038      -0.41821567      -2.19970624       1.64408534      -0.83964927
Na      -0.53776735       4.89227801       4.79155179     -16.72979615       3.45820022      -2.91358423       0.11748810       1.98165176       0.36079964
Na       4.95443308       6.68258115       8.81935025      -4.94093518       1.68186263       6.55587681      -1.70331150      -1.86107971       2.59940963
Na       5.45861519       4.28911866       8.61156968      12.12389755       9.68007649      -1.06495667      -7.15731503      -0.76252144      -5.20170861
Na       5.04024778       6.24583064      16.36081126     -15.53667106      -2.30903628       5.58999625      -1.08312003       0.11748414       0.32584433
Na       3.41034319       3.27736013      12.05579029      -1.78170116      -9.35216405     -24.70238568      -5.14481793      -6.28527836     -35.28108237
Na       7.19867147       7.16159932      19.02812921       5.90283557     -10.97001116       0.57000560      -1.02253516      -0.83488529      -1.19273700
Na       8.57446029       5.56167037      17.07585846       6.51531494      -3.86427234       2.16431854      -1.66787281      -2.63085916       4.27043051
Na       4.70200565       3.55091830      18.86705176      -2.61663190       2.19064913     -11.23369954       0.85296852       3.96328376       1.07910796
Na       6.51181559      10.21204420      -1.62517607      -0.10886616      -6.52552306      -4.85587853      -0.77351635      -0.87623081      -1.93585988
Na       9.15913443      10.77125222       3.89645812       9.57733347      10.02573527       4.34351419      -0.18038578      -0.56084869      -0.68997268
Na       4.86323251       6.35636692       7.01391521       4.94765535      -2.39795461       1.34444138      -1.15601212       0.32008456      -3.19831387
Na       4.77112566      10.56495147       4.59568215       3.42686953      -0.18137753       1.13622124     -10.72427712       0.46093219       6.94804165
Na       6.11414039       7.96609980       4.16589974      -3.34308423      -0.15837629       4.33127843      -0.02626935      -1.09803403       1.75339880
Na       5.42036705       8.62873047      10.70981595      -4.46551005       4.42943353       1.42826620       0.45329521      -0.11070964       4.77126525
Na       0.80387799       4.89380595      12.62604088     -10.63207863     -11.81762291      -2.62283279       5.10983527       2.74665722      -4.01153973
Na       4.07569495       9.12845344      15.54380455      -3.11894886      -3.50479217       8.67324542       0.42883659      -0.00798875      -0.32248260
Na       1.95040768      10.34664409      17.89289495      -2.50430734       0.18895931      -3.65806305       0.12920083      -1.13557943      -0.05112512
Na       8.77002443      10.48727989      14.84704608       9.13537222       2.81689464      -0.33542683      -1.03292503       2.01711098      -0.87188036
Na       6.33318996       5.96586756      21.53110088       2.84883982     -13.45445174       1.47418572       0.66294514      -1.32898604       0.51552919
Na       3.09106602       8.71516218      19.62633722      -4.16936257      -4.29492815      -5.19144301       0.37213707       2.47870328      -0.41172085
Na       0.57405586       7.86217624      -1.04092942      -6.85984585     -14.91410348       1.92423353      -3.72849791      -2.88963638      -0.62401632
Na       6.01238020      15.42699739      -0.35177363       2.43540857       2.58486814      -4.99374742       5.23829379      -2.23913812      -2.56575024
Na       0.81363297       8.14349554       3.45447990      -2.48970861       4.10617677      -1.44741643      -0.19855835       0.51429685      -0.41878252
Na       4.00320084      20.83451385       5.45557136       2.51554048       6.61753541       2.79378692      -0.22406525       3.08498916       0.45155538
Na       7.79189131       7.91015232       9.03982130       4.75047551       2.84961512       4.38249967       1.41835789      -1.67249160       0.55349864
Na       8.82079053      10.50616811      10.56712978       0.69463105      -4.05799944      11.90724699      -3.69701826      -0.40953330       2.76905701
Na       3.87740418      10.28025375       7.00495562      -3.34634138      -9.53649146       2.39716892      -0.43782989       0.38970788      -2.01969005
Na      22.16507791      32.13444312      19.40550457     110.89598411     118.26700071      51.63117347       7.00196630     -17.61892662      19.72535682
Na      48.37169086     -74.24845115     -37.38202800     193.98564720    -660.27686052    -203.02780631      -8.64583783       2.64767236       4.35208957
Na      -7.69569673      21.29308781      11.11490905     -19.21160007       2.53346577      19.77828389       0.96380545       1.70375156      -1.30216592
Na       8.04724309      11.01405208      26.26631748       8.68877205      -8.17800645      -1.00491371       4.58107257     -10.49105534     -12.84543584
Na       8.77024290      27.87455796      15.55235003       3.76180876      -0.55217192       3.39101996       0.07120767       0.54008735      -0.39713300
Na      10.01298051      13.63284909      -2.57041178      16.72828934      -2.01954520       8.71429870       8.28864372       9.17085033     -13.43319993
Na       2.59574032      24.66945013      -3.21366544      -3.70535471      -0.25968145      -3.31174114      -1.14158004      -0.09680484      -0.66845219
Na       4.71874184      13.00691785       1.41785524      -1.68383300      -7.71330415      -2.61125379       2.97844164      -4.28566712       3.00735206
Na      -3.27883257      72.64125511      25.97533712     -31.63628398     171.78471474      67.11925285       0.62916165       0.94285446      -3.47490649
Na       4.93244617       8.72264740       8.79202008       0.32736307       5.39989209      -4.74700905      -3.49988408       0.88689593      -2.19513673
Na     -20.27164786      15.67163208      15.96755820      -2.39485051       2.29871533       0.96556485       8.16880363      -1.49173021      -5.14155232
Na       1.26917185      14.67969198       8.76568030       3.60967859      -6.15556321      -7.65327809       5.15136704      -1.32478244       0.47477832
Na       8.87396491      13.01353716      14.45344295      -0.85693869      -6.35944937     -12.56625333       0.47368911       0.72468123       0.08876203
Na       0.64836135      19.41692047      19.46154563       5.74799112       8.89179456       5.49337999       1.35764766       0.82117732      -2.33954258
Na       3.90561694      14.83238518      21.62943610      -5.10768622      10.76504140       5.75348773      -1.90486694       0.34960486      -0.34503795
Na       7.35950160      18.92817439      14.55660019       3.27597847      19.12892817       8.95524167      -6.97543675       4.20794120       8.00214949
Na       5.86247523      18.06233818      22.40878700     -37.18873462      25.54599568      31.68070238       0.03533733      -3.58607135       4.04174433
Na       6.29327799      23.56773557       0.25207164       6.13386816       2.53224001      -6.39721603      -4.46740815       2.29389189      -0.10212692
Na      14.97750803      21.01719391       5.78129091       6.06793258       8.23443689      14.97886713       1.94130415       2.56574905      -2.15807489
Na      -1.25848759      26.93017072       0.90692372      -9.91610531      21.06582908      -4.53504039      -6.29363972       2.14383641       5.76322494
Na       6.02794580      23.96041643       6.47887803       3.16922595      -3.39037545       7.59237224       0.96404630      -1.37855002      -0.86086466
Na       7.81458812      20.58460315       1.63917744      -0.90343245      -7.92553081      -5.82554359      -0.56442338      -2.27142386       0.29581787
Na       9.31659821      22.81677502      13.22955477       4.12127104      -0.63656918      14.11492815      -1.56694760      -2.79280622      -1.16599673
Na       6.05646741      24.12961367       9.27049035       3.90460768      -6.04135045       3.59341744      -0.30504432      -2.78132251       5.79159949
Na      10.41724058      20.87598325      15.98092211      -3.35071046     -14.68498796      -7.79765771      -1.30520691       0.35931700      -1.00369888
Na      13.73265195      28.99752684      18.32604277      23.89310629       2.55217635      -0.62472046       0.88854513       0.62387237      -2.10448139
Na       5.98618442      12.70116702      18.57046633      -8.29020512       1.46961308      -6.46173040     -20.13667166      -7.40583121      14.79664226
Na     -94.78533106      31.55165857     -24.41147236     -44.49556261     -19.25396654      -4.33333399      -0.96712992       6.04676141       3.55454427
Na       4.08771207      21.50694806      18.66825605       9.13470238       8.34155468      -6.03734798      -1.06657867       0.65181552      -1.01163924
Na      -0.05727707      23.37485842      -0.46779585       6.80882145      -8.51379815      -4.05562463       2.26466524      -1.55461121      -2.12383366
Na       7.73921346      21.86976118       3.93603098       0.16990510       1.09633313       5.60878356       0.94091243       0.81836460      -1.40422278
Na       0.85931581      24.38492387       7.89314491     -13.25659223      -4.51886021      14.76788066       0.78048684       0.05823337      -0.09459081
Na      18.08777739      21.64515374      -0.13459988     154.79479907     -83.50418493     -60.81570863       0.96228478      -2.53266305       1.14922309
Na       0.55966086      30.40203828       8.83937639      -6.81013380       6.64655931      12.17513103       1.04233902       2.16920819       2.38061547
Na      -0.81030075      28.25484698       8.67672227     -11.76900691      -2.39532724       3.22532662       0.03302900      -1.69244776       0.55979093
Na       2.30798021      16.77823605      13.13543636      -2.34918531      -4.23992494      -6.47815136      -0.87752717      -1.55164889       0.53142482
Na       9.64400218      24.31114426      14.56747585       9.57363584     -19.83162966      -6.82704837      -1.10201294       1.58914592       0.19993196
Na       0.92836958      31.93440847      20.18681733     -40.50310824     105.00803706     -59.56457980       1.18541830       0.48307767      -0.70921120
Na      12.24840054      27.48989120      20.58150886      18.58720771      -8.38655270      -3.81258672      -0.07665013      -1.29498554       2.05897582
Na      -3.18618233      18.07944717      14.97906194       6.27621336     -14.92568956      14.53142913      64.18645933    -101.03297549     123.30972537
Na     -12.96396014       6.96119102      41.94640381     -13.24253737     -37.15674322      12.67168011       9.77352582      -2.28839721     -26.95168175
Na       6.43901316       1.57501255      -2.26857051      -4.43226067       3.87457296      -0.37680561     -12.89601147     -21.30411954      -9.42837953
Na       9.87478099       6.44212566       3.86569567     -18.15126628      12.56564024      12.90783541       0.05774955       0.41218958       1.94450675
Na       9.02270110       3.43311436       1.63135349      -2.45767390      -1.97766842      -2.03542422      -2.10433950      -1.62498532      -0.55857918
Na       8.68992555       3.20298725       7.70511977      -0.18644673      -6.38103922       0.13153720      -0.01357884      -2.38364714       0.65321374
Na       1.95090970       4.11496546       9.04130884     -49.64176081      36.91749647      11.69671220     -58.93309384     -36.60050043       0.34549433
Na      -1.14985275      -2.47685275      11.06252589     -16.58459528     -46.54139879     -12.92652147       0.42845424      -1.45692987      -1.54009981
Na       6.12492389       1.00608386       5.25044439     -11.45844815       1.56358968     -17.35089940      -0.65323632       4.25191768       3.55616633
Na       9.40023972       4.07232713      13.36949940       6.67251293      15.22561193      -3.53290204      -2.28396955      21.12565069       7.26062197
Na     -15.69984092      14.75016153      -2.78132303     -38.34195987      39.88729101     -49.12708737       1.09379907      -2.68718238       2.05767454
Na      12.98592505      -1.53907199      15.26432995      27.65583766     -13.96112630      -1.71882407      19.03006617      12.11993146      -2.64322943
Na       9.81909057       2.14054710      17.01845636       2.94475411       2.31369393     -14.43940992     -24.14532018     -43.14883924     -43.80517450
Na      11.43725318       0.95035178      30.66789671      17.99973194      11.51039061      10.11982177      -0.11568006      -1.38873106       0.15552094
Na      12.22783378       0.56065308       4.23885401       3.97664345       2.47098330       0.71658259      -2.67460723       2.63108898       0.96458564
Na      10.71933661       4.62222899       1.20091275       8.58829695       0.68097072      -6.21104666       2.08327697      -0.13014351      -0.37833169
Na       3.30896013       4.15429704       2.55020600     -27.11325264      -8.86587229       3.67105146      -2.51314875       1.89351058       0.85098187
Na      10.15560279       1.16964387       5.11724209      -1.33969357     -10.38388940       2.71495138       0.31258443      -0.31278605       1.66713824
Na       6.69538701       3.88696418       9.57730509       3.79096398      -5.16848430       6.41761903       6.42254278      -2.32408633       2.84824289
Na      10.78961317       9.42802434       9.56254580       1.17734774      -0.36870552      -0.92319529       1.77432022      -3.94190499      -0.79059277
Na       5.34740867       4.86762898      10.95331409     -10.37526127       9.33823955      -3.03186216       3.31972944       0.72729905       3.39203873
Na      13.14842240       3.38973051      15.41836464       7.22043758     -13.34621687       2.53648886     -36.36215136     -10.20891988     -23.89170623
Na       8.96155079       4.86336489      15.32091933       3.99407785      -0.53857543       6.86141564      -2.15265345      -2.93960770      -0.59346450
Na      11.48213333       9.51369662      16.65294487      16.08395348      -3.57515742     -13.02469312       3.34111865       1.84329946       1.90025737
Na     -90.24994201    -109.53091005    -202.75022787    -453.58814277    -529.70387883   -1027.95313267       0.00360893       0.51902767      -0.53738330
Na      16.70655689       6.37072982      16.28883170      51.55817161       5.35012174     -21.09526110      -1.92828412       3.25598191       1.42784935
Na       6.83001915       6.80248434      -3.33739068      -7.33128828       3.75715915      -1.49395728      -0.57066524       1.01018381       0.99424865
Na       9.28826225       6.55763552       1.91659133     -14.88410332       4.88845554      -6.78254746      -1.88200255       1.37999177      -2.57766756
Na       7.79616812       2.81441396       3.91928344      -5.42964928     -12.78133316      11.67437192      -0.99591004       3.19624723       0.28963229
Na      12.63707749       7.01850772       3.80869571       8.11633920       7.70252869       1.68155979      -1.39443898       1.48711488       0.60118626
Na      90.33844148      35.39042543     -18.47691221     400.84268245     138.38181456    -119.53753431      22.83016994      -3.26309168      -5.35018074
Na       8.89169327       9.87192505       7.41204044      -0.10931085      -3.43370096      -5.07096502       1.22424267      -0.35714709      -0.05841899
Na       8.37668734       6.56705072      12.48816466      -7.21507944      -9.79442950      -1.14249096      -4.61704556       0.04916914      -1.63157300
Na      10.51751075       8.21541599      11.92184284       8.13692772      -6.64210475      -9.72121766      -3.13995392       0.17687186      -2.82962151
Na       8.45349123       7.49954943      16.51444341      -1.88439819       3.38430201       5.01716291      -0.87692759       1.44311261      -0.07700709
Na      12.19093228       9.21020403      11.94732302       1.93336938     -20.27536502     -31.51390094       3.69272412       1.76942886      -1.46781858
Na       7.53620004       8.68707846      20.49878413       4.08747794      -8.68305969       6.51343871      -2.98073208      -4.05693938       0.69388948
Na      12.95772402       6.26747553      16.76567724       5.72517603      -3.51456653     -15.46995157       2.14015013      -1.43666915       0.72123624
Na      10.10990175      10.54697636       1.37663127      -2.04240760      -5.17747321       4.89251746      -3.44718492      -3.47438853      -2.56598172
Na       7.86699757       9.83688034       5.45167482      -9.97506398      -3.98863005       0.69872864      -1.03303562      -0.57185534      -0.09402613
Na       7.74209264      12.20961374      -0.80922894      -1.03011643       2.87325987     -20.70706718     -13.89691220      -5.30490465       5.64465579
Na      14.41358067      10.10847084       4.65552622       8.01952842      10.25835850      14.59834079      -2.09772839       1.50881686       0.06189278
Na      12.30977421       9.51863187       7.45167646       4.07312385       4.23220945       7.28909993       0.99331585       0.14551745      -1.14695472
Na     -22.16590433      -3.39623018      11.11210922    -183.92775651    -116.25179830      -4.60649098       2.44243893       1.55682349       1.92245319
Na       6.22119881      11.09182118      10.76315159      -8.55001956       2.77534146      -3.11621368      -0.83760079       1.06827410       0.87229421
Na       8.87633465      14.02744068      10.13816682      -4.18088994      -0.00803502      -2.34752067      -0.80222411       1.28435167       0.29584936
Na       5.58786181      12.62715529      14.10311251     -13.70221399       4.44620084      -0.20323170       0.93436404      -0.31324617      -0.52426184
Na      12.01344394      16.44336282      16.45762132       1.38881088       3.53259254       4.21468034      -5.39264341       4.11979624       5.56475105
Na       7.66811378      10.36121120      20.64124317       8.59135615      -0.69529833       9.81530959       0.86200131       6.81991069       0.86479208
Na      10.05423653      13.71169894      22.26201039       2.42139971       9.92651378     -13.26864856     -16.63494391      12.24026851     -26.29657688
Na      15.78488530      19.52421415      -2.05167915     405.00045569      35.67331322     -90.81188860      -1.69003770       0.81121532      -5.58348795
Na      13.24255676      19.17192273      -3.59112554      20.35402441       4.34187527      -7.86193887      -0.05757807       1.01426275      -1.03229016
Na       6.50447364      15.64612987       3.13602176      -2.77201120      11.12335254       0.53789965       1.73325289      -0.37253240      -0.50594276
Na       9.73967379      19.00430619       5.27981440       2.45552841      14.63999348     -16.64896626      -1.47254586      -0.42352540       0.54585133
Na      16.01385590      30.49119837      48.88944294      39.99950693      92.94253934     241.91316955      -0.25367282     -14.11053519       2.05583323
Na       6.27608274      14.66317207       8.14907417     -11.21074759      10.11662648      -4.37894251      -0.63502363       0.14506553      -0.33140791
Na       3.15695490      23.60239100       2.19931291      -7.26082280      -1.06364035      -2.73820792       0.29136638      -0.87242339       0.78130382
Na      15.47850057      17.61384920      18.03571763       4.02758500       4.57230730       1.20457981      -1.30630748       1.31094598      -0.45277614
Na       9.02944075      18.49039274      13.00179152       6.20670534      11.04525859      -7.41553868      61.92700673      29.87516381     -36.78184142
Na      12.64258115      19.93867451      15.25331032       7.30927415       0.02842400      -8.28679198      -3.78417432      -1.89224306       0.29591931
Na       4.58427939      13.18618348      25.10448113      -9.05307876     -23.05289695      -9.54990594      -8.34355933     -24.77846186     -25.10244032
Na      25.26862735     -38.91767180      14.56327452      80.43886741    -229.68976208     -16.80852493     -61.22639350     101.56245931    -123.28134545
Na       8.95519593      21.83591315      -0.75517346       6.92371342       3.49778460     -10.44560693       2.23542145      -0.66431881      -1.22428038
Na      14.99554497      16.63110123      -0.75175344       6.22745769      -0.12901630      -5.00989342       1.34141660      -4.39347711       0.15034994
Na      12.65894619      21.16948517       0.18598005      -3.79983187       4.02476588      -4.63658283      -0.86962802       0.67631240      -0.30895377
Na       7.40205387      21.24028543       6.04267201      -3.90516357      -3.37321616       2.74500107       1.03638592       0.35270280       0.89011067
Na       7.11586061      21.18920596      10.26652616      -2.88402842       7.43994426       7.18935849      -0.09852980       0.43529203       0.03078193
Na       8.90527483      22.44055601       8.20964123      -7.35702615      -2.47006893       2.41969374       1.93895564      -0.24640592      -0.15912479
Na       6.36658864      18.98131742      11.53044216      -6.89659809      -3.38336277       7.27094830       1.59633409       3.06323460       0.71147770
Na      15.34897683      20.63476633      11.09536773       9.11863650       2.05524170      -3.02531126      -0.44839681       4.07655439      -1.18239259
Na       2.48208340      14.20115107      16.72596825      -5.24550283      -6.75564534      -6.78973730       6.48960821      -0.51584107      -6.51487636
Na       1.03901119      25.42321266      14.85925572      19.20054968      18.69525016     -29.27664715      -9.38498095      -3.72339464      -4.40776195
Na       8.10966844      17.72036556      18.80548659      -2.89409634       5.72288552      -1.79737492       0.34635725       0.38390685      -2.34695307
Na       8.20282323      24.95463282      22.06757724      30.91095420     -14.19857778      17.75535641       5.57339638      -0.20658780      -5.03434828
Na       6.34404172      20.41352208      -1.22550058       2.61090613     -12.91382637       3.06801349      -1.59291762       0.76196336       0.09887594
Na      13.14413374      30.90211267       2.70425189      31.11530876       1.67929067      10.68624128       0.78860067       0.92543476      -0.43301658
Na      12.16579748      30.32755551      -6.73141869      17.08772483      21.05379637     -17.00658650       0.56873232       0.93950215      -0.80890492
Na      14.69831084      30.16057363      10.02074914      19.67989601      21.62252195      25.81047142      -0.08886325       0.32131853       0.15889429
Na      -0.53292688      15.00727797       8.41550217     -18.50956345     -16.21853833      -1.28010489       6.27382107      -0.46447625       1.97286961
Na      10.84594204      25.36795871       6.86734514       4.74456804       0.53142716      -2.43086473       0.66510936      -0.61949208      -0.13522950
Na      15.35005596      20.17410634      35.87544066       4.49840597     -32.48757801       3.77160248      -1.66363943       1.94674373       0.96529352
Na       4.90249254      33.35823672       5.40526244      -7.45836295      40.72308839     -42.39531319       1.21933863      -0.49821748       0.98345442
Na       5.58759468      24.14716173      16.41605722      -8.15483390     -17.95557755     -11.07964034       1.25546769      -1.19071239      -1.30426431
Na      10.95478455      30.95557712       8.63122864      13.87409561      -2.37066231     -32.00108138      -0.00687944      -1.16783027       1.18920732
Na     -48.43460110     -29.10536844      22.76560607     -58.27050473     -21.66675693      43.97751853      -6.07207868      -4.64245979      -0.96649040
Na       9.60332089      38.43382054      16.90358683     -12.51348673       7.25463010     -23.38027804      -1.93920502       0.79964726       0.66763208
Na      12.60011523      -1.29726280       2.24219031      -2.76499473       8.83988793      11.96064974       3.46764298       0.03383523      -3.69012182
Na      16.27505322       4.81129659       2.09639543       0.87609124      -4.40906907       6.07467970       0.45062004       0.04560383      -0.51167226
Na      13.47966398      -0.81604683       3.65052219       9.97054402      -7.34835572      -2.21939143       6.37643811      -1.97018444       4.04276491
Na      16.67995163       3.22877481       4.15868915       4.11453993      -0.29283579      -0.14431860      -1.18100201       0.65278252      -8.13447818
Na       4.87344349      -3.32613467       7.76155520      -9.46032255      -4.66392473      -4.42183450      -2.44243317       5.49812948      -3.34641717
Na      16.96592867       3.01641874       5.76385045      -4.95283787      -3.86612997      -6.09555446       1.45358526      -0.84839493       8.53537711
Na      10.12149988       6.32176181      12.97804879      -0.02078045      21.91264709      15.85677183       2.56886644      -2.03053447      -0.82668313
Na      12.42025934       0.62362037      13.45090156      -8.96713425       7.25525484      -1.67454903      -1.25286355       0.85344958       0.37904638
Na      10.52033470       8.69223811      18.80491338       3.38220061      22.10846220      13.16048105       6.62692940       7.11775829      -8.63446793
Na      16.37915342       1.22235369      15.46034818       4.05987173      -8.48935340      -4.52862630      -0.10958244       0.60506603       0.97729468
Na      10.36525642       4.55796514      21.32278248       1.50373304       7.88523033       3.63949133      -2.11926667      -0.04445309       1.04083044
Na      11.64530489       6.51330248      19.21586121      -8.21455313      17.37527991      -8.68286137       0.48026331      -0.15889177       0.26344173
Na      13.41700258       3.37863290      -2.66761772      -2.72287146       2.28334183       5.00934502      -4.41342282       3.53797709       1.00310790
Na      12.68234786       5.55131134      -0.63502419      -8.64413142       0.99986334       0.32604432       1.24198156      -0.05333947      -0.72650824
Na      10.15769787       3.79573337       5.54703870     -13.97968533       6.40016590      12.79883184      -1.31671160      -3.60913864      -3.53460628
Na      10.26229458       5.63177712       6.35318328      -7.26721451      -1.52020019      -0.16228870      -4.95558464       5.44921242       0.67200052
Na      11.34324129       6.76422572       8.44388560       0.01797013       6.19423997      -2.17521212       0.00770357       2.37991419      -2.91634321
Na      14.38421048       5.74341102       7.43159278       7.23474893      -1.26428537      -2.50779168       2.58018761      -0.98127736       2.51264706
Na      11.57216826       5.97077971      10.09753427       7.89438477       8.64148742      -1.98838357       0.64483151      -2.71840901       3.93949051
Na    -196.95362337   -1275.36132892    1567.58872310   -1162.80482792   -7324.62135836    8876.17219345     -56.15145973       1.79277360     -16.59551612
Na      14.91702442      -1.29326194       7.96791942       5.13433898      -9.59886693       9.94348288      -4.02993673       0.56421778       5.19077787
Na      12.51319209       3.46923556       7.12102695       1.78200529       5.75813155       1.19164248     -12.74256991       4.77468001      11.49034442
Na      14.12670836       3.79194322      17.24228938      -2.46508066      -1.88286622       0.55716967       4.04631792       2.12751026      22.62808807
Na      12.72486609       4.66663941      26.24619247      10.02203856      -8.92021514      -4.63381158      -0.15651731      -1.92592543      -0.57143897
Na      11.59830367       7.45983322       0.34524167      20.54773429     -17.69111315      25.03806619      -1.06509629       1.51590585      -0.34178158
Na      14.32884456       9.89614590      -1.70840159      -3.02185151      -2.22080602      -4.93262629       1.24664535      -1.45398530       1.02110015
Na      12.76833152       9.62168083       1.74434131      -3.54865341       7.69481517      -0.58497609       0.78976118       0.22800907      -0.03934824
Na       9.81482817      14.75281873       2.88639921      24.15240034      10.90822982     -13.16913685      -0.90929617       2.38861911      -1.09529678
Na      15.86537453       7.72294142      11.30829798      -7.03318108       3.26420833      10.37251421       0.76557565       0.04368812      -0.47303798
Na      24.68157023      23.11894405      12.12568236      91.93927913     135.51920923      34.32464632       2.79850070      -5.49539986      -0.01778769
Na      12.19123651       4.70547319      13.67815526      -3.32230676     -27.73476179      16.74497260       1.23456199      -2.08213962      -0.52512895
Na      10.31457307      11.20334241       9.60926860      -4.35747199       2.12696734      -6.87465516       1.78452246       5.69018300      -2.81525342
Na      11.52439749       8.08423609      13.91974044      -2.51884979      -5.88585082       1.95317759       1.43395904       0.03294469       1.51699599
Na      23.52766130       4.99297074      22.57950172       4.03624832       3.52074640       8.92547011       0.10299059       0.17714880       2.89997458
Na      14.39939157       7.15785699      15.60189801       7.61608843      -8.47915006      -2.91399880      10.89180223     -30.56772100      -9.64463479
Na      15.86164577      11.11584110      22.73655660      10.68532384     -14.94553607      -9.70770378       1.05492619      -9.71204081       0.10106864
Na      10.31662263      12.95501928       4.03809946      -1.57677535      -0.14316080       5.86659099      -0.50772609       0.83814470      -2.84350470
Na      12.85507685      17.18287368       3.58644237       0.16845855       3.45427911       4.18627906       0.28159735      -1.18045131      -1.48437653
Na      11.09314369      11.86026662       2.21609895      -9.73370302       1.32245753      -3.31475380       3.62962066       1.62244052       1.15378171
Na      11.94565317      12.89919251       9.04456954      -6.89292308      -0.45063829       8.62992787     -22.68881064     -19.92409275      27.28963473
Na      14.33963275      11.96415983       8.65094698      14.11304515      -3.54785756      -8.02127457       1.01064414      -1.29147550       0.73502200
Na      11.06548048      12.36646056      11.61214404      -1.22158203      -4.24303368       9.96005469       0.95692426       1.35739866       1.54902128
Na      14.15894894       7.86641534      15.79468403      -1.44549948     -14.04490034       4.66085584      -8.19127517      28.24296986       8.99896679
Na      13.03958837      15.45013939      15.56986789     -12.67412177     -14.81819649       4.13833142       5.07781061      -5.98804557      -3.74046878
Na      27.90753851       3.37383689      51.78869229      99.90482802     -10.94031085     197.49702888      23.47218177       3.01670372       2.21327465
Na      17.48028594      16.48609663      20.90571608       9.03726211      -9.82090963      -3.08594332      -4.40036642       0.05415797      -5.15891720
Na     -11.54364571      25.92081697      17.55254343    -107.99832080      31.82311557       1.70632999       0.33911519       0.18220737      -0.43473285
Na      16.34600129      10.73626495      19.55687204      16.93913996     -12.14226148      -9.08646261       0.51870769       0.07475678      -0.56050548
Na       2.82378369      18.30829021      -0.02265949      -8.62481368      -2.98286086       7.61237892      32.09455861     -37.10948752      20.30966926
Na      12.95299942      15.99617729      -4.02841204       0.59366017      -0.89573704     -10.98193983       0.16094655       3.98673071      -4.26186784
Na       4.59487534      16.03999849       0.75133738     -39.27278133       9.08789061     -14.40093303      -0.35467965       9.84630449       3.43926747
Na      13.96413436      15.87603479       5.62031138       4.63165243      -8.46133797      -3.82896242      28.81080974     -39.78114749     -18.70844011
Na      14.49522948      15.82794936       9.05895867       2.59387644      -1.57396345      -3.54429081      -0.86016871       0.00262213      -1.36598940
Na      13.84650741      18.93950632      10.72745381      -4.87484957      -5.10379042       4.27710694      -2.56511540      -1.30852601      -0.57729195
Na      12.99609895      17.77216443      14.39288748       6.13708348       6.61114053       4.29325157       0.51709772       0.60911034      -2.43724013
Na     114.97289224      23.66585980     113.01940384     237.75284690      28.73440415     218.73248074      -0.64089218       0.15662405      -1.61579934
Na      14.31288765      24.46836643      17.37632003      -4.82204908       1.61173718       5.78008146      -1.15119163      -3.75469068      -3.92306391
Na      13.96467857      20.03380482      19.34458903      -2.00394997       7.64542013      -2.93226138       0.18093410      -0.09953481      -1.61690937
Na       8.41856807      15.37964283      18.95519860       1.08671173       7.42979423       2.27624479       1.09543542      -0.01411393       2.53095432
Na      16.50717337      21.49566499      29.22990306      14.08136367      24.29102133      15.27754058       1.59726515      27.04337604      -8.36733130
Na      10.87340882      20.13428354      -4.58577037     -10.40616363      -8.27318646       0.66637026       0.09204061      -1.00990822      -0.04693222
Na      15.87348680      19.14307424       0.56188289       0.15474199     -13.52236846      -2.28045143      -2.09030123       2.10788952       3.84330463
Na      72.06808358     -31.84002420      18.31355710     126.74435368     -30.58713996      76.34567064       4.46042937      -1.77145702       6.47125994
Na      17.69891900      25.68917387       4.92479480       2.75703666       1.00111207       5.76161870      -4.01732048       0.25356006       1.99571272
Na    -571.71159621     406.97771408     980.70552384   -1018.89249060     743.96806332    1752.23258956       7.00824167      -8.04964135     -11.43182447
Na      13.65247094      22.08867454       9.53133981      -4.00368484       4.30180914       2.30129469       0.97059552       0.11331972       0.03521283
Na      10.09394674      19.25009858      11.22839628       6.95468363       5.93966877      12.97410181       3.77574156      -9.23721197       2.38400011
Na      22.46675726     -14.31678965       1.53411286      35.10504903    -224.47766205     -48.38616625      -1.02136963      -0.81196520       0.92804158
Na      19.97087072      26.22633798      22.27116400      15.54109284      -7.41772566      -1.12698779      -1.89485450      -1.31938774       1.43661137
Na      12.46982352      24.30767051      21.11312610     -10.20243093      -1.26863200       3.37107665      -0.07898900       0.74589785       1.07733905
Na      -3.97071627      19.69813209      19.32078894     -16.96642003      -0.45717034     -29.52119989       0.36877413      -1.37910683      -1.17907750
Na      12.38328465      32.24098590      19.59510621       8.14913829      13.10445416     -21.39878074      -5.40284126       0.90604600       0.04781665
Na      15.21376709      24.11386613      -3.13710934      -3.00694525      -0.93245027      -6.38874050      -0.11264976       0.42419568       1.06244269
Na      13.53272750      28.72117079       6.10080716      -7.34414948      17.50391617       3.00741494       0.06588219       0.58331255       1.71479865
Na       8.84088888      31.64519803      13.79737786       2.44349978       8.37271311      -1.45785952     -14.19517226       3.26057850      20.74912021
Na     469.83436091     333.77434300    -966.68001984    2019.97666879    1191.69213381   -4423.56457969       1.62995719      -7.52304261     -10.26714005
Na      13.55512268      22.41771769       6.70193845       1.03231608       2.46101782       2.68732934      -2.58784084       1.26884847       0.86281606
Na      14.32379133      25.90336617      10.15314185       2.75983146       3.46029743       2.68898882       0.17098014      -0.88144095       0.57059114
Na      11.00505124      23.01621031      11.32266850       0.98803180      -1.92554371      -1.39728807       0.75068625       1.05519572       0.45452201
Na      10.91299807      25.11178345      16.09115001      -6.03188763     -11.10470475       2.93639838      -9.04005429     -14.46502723      10.51275900
Na       8.64472182      21.58334592      20.33338071      -4.78257820       1.66752755       4.96722078       4.84685363       8.37270312      -3.63098667
Na      13.60206986      26.60169298      17.86835148       3.81720245       1.25091055       5.34381676      -3.62297918       3.00494536      -0.95690212
Na      13.26577000      22.80288716      18.13029844       6.94749525      -5.74223366     -22.14431147      -2.73384235       0.28761373       1.31546359
Na      15.08248562      23.80852994      19.62516822     -17.57600035      -6.96794166      -7.22660564    -257.82066894     -43.39546076      25.57446981
Na      16.07049614      -0.06186224      -1.02053775     -12.33338545      13.74985591     -13.47422783      -1.31356905       4.70501191      -0.64018211
Na      17.17339777       1.78208053      -0.67447067     -11.83951371       1.51396472       2.02766687     -36.33672318      29.54103805     -18.29638613
Na      14.85888544       4.93884023      -0.32796106       1.81744225      17.71400115      -1.98855662       0.11332230      -3.43833880       0.43059688
Na      19.47888043       6.15789529       2.07162223       1.34900271       3.25370731       1.61987411      -0.39559559       1.34895434       0.31713080
Na      15.41300489      -0.42852431       1.39481795     -15.87240188      -0.88886456       4.26892700      -8.12815448      -0.32497107      -1.14110118
Na      16.58480392       4.60323513      10.40341298       0.23226080     -13.07202329       8.24535679       0.21566447       0.35596781       0.56347905
Na      15.69147969       0.63177974       7.74558407       1.43774098       7.26508153      -4.60049118       1.88980260       3.42999694      -0.73352935
Na      20.26439999      -0.28662061      10.76766312       1.10204780      -0.46366663     -15.25565317      -1.13707436       0.05297248      -0.02984469
Na    -147.40434255      46.60876539      12.64121888    -589.50732486     180.22142112      -1.15098809      -4.60398592      -3.78612297      -0.87256988
Na      15.61326089       2.09047223      19.19569315      -4.56873530     -14.19270821      -3.47078624       2.61758775      -0.10938577      -1.46945159
Na      16.13214679      -5.99627650      16.42563937       3.15657282       1.34907116     -18.79311930       3.13698955       2.72096263      -1.41456139
Na      16.21762899       1.75961839      21.63554724      -1.96051781       3.13173693      -5.31954776       1.38682700      -1.64473671       1.64118491
Na      17.33175275       2.87038377      -4.69742259       1.96228900       2.21476163      -8.90294097      -1.57724497      -0.76823656       2.96625809
Na      16.35045271       5.37385936      -1.51871290       2.61623665      -3.75503146     -11.03460364       1.58135588       0.42905913      -1.23708723
Na      13.53294465       6.38838499       1.94657031     -15.21581212       7.60389829      -1.30101490       1.44533333      -0.56625225      -0.82942743
Na      15.34188851       8.41251147       3.39552577     -21.28341228       3.13567427       4.05719891      -1.99466392      -3.09710923       0.76838696
Na      13.33155092       6.23617838       5.84727284       1.44659671      -1.19689236       4.62576826       2.04407742       2.09285680      -1.95161446
Na      18.37924309       7.14233466       6.44052235      -5.64862587      -0.14920046       8.83314478       1.08997834       0.37344281      11.76096147
Na      13.10323447       3.09302203      11.72407992      -7.16597869       1.78245441      -0.61337196      -0.42107137       0.10403487       0.38524048
Na      18.18219190       6.53822179      13.32261796       5.74422739      -3.13114861      -5.65913611      -2.25070584     -27.67154287       4.01401546
Na       6.09414397       2.27622517      11.48440202      -8.86039067      -3.27655260       5.59587277       0.63156455      -1.81813740       1.04681239
Na      18.05025608       7.56330139      20.51051982     -10.21455971      -0.56027071      -2.44727257       0.25177994      -1.44459837      -1.06416839
Na      17.80414287       4.94785283      15.64919762      -4.50640370     -13.54970923      -4.40987479       4.88669110       0.06775873       3.67036689
Na      17.48407020       8.26026889      29.11773866     -31.41274175      -0.48358150      12.82832105      -1.20264182      -0.31876406       0.91702171
Na      18.89984085       8.43952083      -3.04612132      16.72478128      29.65216534       6.77568399     113.61435241     339.64135054      51.35374118
Na      17.70096795      10.93954478      -1.15794266       4.87573916      -7.41439967     -11.44198224       0.72407981      -3.17196885      -0.42624147
Na      17.00283936       7.05740815       5.23978811       5.93962049      -6.48759864      10.60349414      -7.52457899      -1.77593146      -3.49558255
Na      16.18350713      13.96796953       1.51338657      -2.26116554       9.71888644     -12.63837995      -7.28310872      -5.54009414       0.80016293
Na      15.61513645       8.85476465       6.33562116      39.20491610     -72.27803404     -20.38969659      -0.18253657       0.38012757       1.96891684
Na      16.82806600      10.05618191       3.30522124     -49.66610866     -22.02353278     -52.18977742       2.12727007       2.18921457       1.84659729
Na      14.56766362       9.88575000      13.18134535       7.05285794       9.62975359       7.14927961       1.32180459       1.14355771      -0.04894832
Na      23.31950132      15.08644218      11.28702990      14.47480147      18.17349338       4.43444325      -0.58305936       2.39417841      -2.96223589
Na      17.93154232      14.85441584       8.82744137       7.33270153      14.67588276     -21.91399847       8.12304788       8.24246166       1.22784791
Na      15.11828930      12.43250316      16.85550702      -5.83989885       8.34292846      -5.18445331      -0.30333210       5.75944412       0.75540613
Na      13.31304515       3.06484257      19.28349619     -33.12271824     -42.58958190     -52.54087258       2.54455084      -6.97218909      -6.08816959
Na      23.58394932      13.85589745      17.03800836      14.97200205       5.90686822      -5.35969483      -1.59673425       0.52150374      -1.43201932
Na      17.09869849      11.53844526      -5.06857386      -7.57657612       4.49526903      -2.55050167      -5.12696907       0.40604977      -0.29218766
Na      22.51848339      13.29383879      -0.81200533      29.40496573       3.70052914      -1.73280896      -0.09319210       0.15930606      -0.23362717
Na      13.42954420      14.78034923       1.88766024      -0.77296825       5.03907807       5.45217472       0.41142014       0.56638929       1.19973877
Na      11.08829170      13.46552556       6.05186962      -5.68755026       4.03039070       7.35793538      13.45857894      19.27507754      -1.24141126
Na      15.02402822      12.36657306       5.87234190      -6.05936568       0.55010491       4.99255715       0.35535137       0.87283232      -0.24485534
Na      22.47120965       9.96331009       9.33585692       4.86374121      -9.53219687      -2.68442030      -1.25802624      -1.41648781      -1.20223023
Na      15.23295216      15.91954359      11.46084121     -11.18867993       2.15130303      14.39916618       0.13246913      -0.30600909       1.13921307
Na      18.69580218       9.25218156      10.87637659       5.26638784       6.34014922       5.36068807      -0.17464179       0.03853118       0.17038154
Na      22.18778422       7.26610288      15.10869316       7.48985471     -17.96810556      -2.63620456      -6.41945838      -1.42033589     -11.99083961
Na      20.22673954      20.70718919      24.93525166      -6.21266059      26.43540890      14.02975309      -4.49908167      -5.44187986       1.41070707
Na      16.17927190      13.17852406      19.99269086      -1.75578449       1.87125933     -14.31009821     -21.62656745      22.48953230     -48.32266226
Na       7.76379828      22.06398361      39.01986043     -47.77485249      31.26868590      71.24228502      43.87669155      19.26543246      34.11978694
Na      19.06024288      18.62578598      -6.84443130      -7.99822530      -8.89447980     -14.59632944       0.21221268       1.60153279       3.33939357
Na      12.10107078      18.93652012       4.70230496       0.29379116       3.10626632      -1.97087418      -0.02380937       0.16133887      -0.90134381
Na     211.58777237     -19.28687456      45.56273799    1137.35114036    -138.13415841     144.78032889      -4.11632674       0.64201987      -8.94265145
Na      16.75501727      16.59425890       5.55222277      -7.12591345      -5.71587999       3.00684832       0.04548019      -0.19865777       0.31652915
Na      17.43697796      14.81944358       1.30446450      10.88095501      -1.01019742      -8.68824543       8.22662150       5.08067931      -2.46160142
Na      16.40961118      20.07362759       7.92924117       3.27520408      -1.65349034       2.15366304       0.50311681      -0.27039965       1.32487527
Na      19.93406082      17.19272823      10.01637730      -3.34604895       1.40297217      -2.36821449      -7.71499131      -2.76473501      -6.20523335
Na      20.30730917      20.33871356      13.01170503       0.00689244      -0.15740654      -7.52518815      -2.38181282      -3.07140127      -6.61317278
Na      14.44198298      10.68720846      17.18806963      -6.12059688       1.14377895       3.74322395      -0.89703433      -2.82214699       0.53639183
Na      14.98405132      15.39284382      18.62145387     -11.00321390       4.27423526      -0.28920745      -2.55646064      -2.78858250       2.39936870
Na      12.19117151       8.19234669      22.87728442       1.26737112      -6.38547619       5.72085045       0.05154488       0.73735099       0.38966419
Na      17.22933452      24.00119090      23.63698072      13.04034994       8.85194048      -4.78551902      -4.06127935       1.95304422       0.61305523
Na      17.05056588      17.99526493      -0.81031406       6.53136592      -9.01194812      -2.38058224       4.68947984      -5.40680984      -1.04187692
Na      16.93489242      20.20023230      -1.26401173      -1.52009375      -7.48604466      -0.90611739       4.60518943       4.54133731       0.71908617
Na      17.64560949      20.23783264       5.41791550       3.07484692      -6.54245651      12.24923520       0.99481400      -0.02089236      -0.83079613
Na      14.23829919      19.24939848       6.03046874      -2.99064941     -17.35401698      16.74257879      -1.24834131      -3.75911594       1.35288636
Na      16.41201794      18.73654280      11.29983729       2.26385147       7.61730114       8.31592427       2.61916126      -3.70522620      -1.94605479
Na      16.16558043      23.97207917       6.19208729     -16.79368924       5.85179995       2.94518393      -0.13588673      -1.42704145       0.41984582
Na      10.82805783      16.63129076      10.09178384      -7.57338545       5.89509717      -3.76420629       0.71130028      -0.17498233      -0.55950696
Na      20.42823020      23.31178621      13.10366465      -1.36112725      -5.75365541      -1.84373548       0.31777484       0.72300191      -0.88994327
Na      19.37681121      23.85503387      18.53813399       7.83929653       3.94178113      -0.04000454       0.11867205      -0.65988837       0.53714966
Na      17.96927766      18.74130812      27.36700328      14.56215952       9.21153825      -5.49993790      -0.93061177      -5.33088657      -1.07828116
Na      10.52512723      20.59635085      18.56441473       3.99267214      -4.00707076      -8.91666708      -0.60742120      -1.23939985       1.45427839
Na      18.40583311      13.64298547      30.62788077     -19.02196440     -18.31042144      22.67691320      12.25197183      -0.13430225       3.48649023
Na      17.27978847      26.18236679      -0.95169305       3.63204594      -4.96310862      -0.12512394       3.57551700       1.36992838       0.83001560
Na      19.43434624      25.05422207       1.91738812       8.39942796      -6.56072791       6.97355418       2.75701888      -0.47229080      -4.52576512
Na      17.41464585      23.61367392       1.20635081      -4.71634961      -5.07764267      -5.07398541      -3.02752810      -0.19449612       2.09979712
Na      17.17506893      28.70974823      11.75654764     -11.57824611       5.86238506       7.62633228       0.70712749       0.09517824      -0.59599416
Na      15.72698328      26.48183858       6.74270368       4.37389784      -2.79278604       4.03668974       2.89364837      -2.98785728      -4.85368447
Na      15.38590321      29.25005184      13.35434878      -3.65962521      -7.75044577      -5.14781603      -0.77654506       0.46967571       0.02525895
Na      12.64145152      28.16317838      10.38587110      -4.40734305      -7.86906413      -5.12052085      -0.43435587       0.06755412      -0.14335384
Na      18.73222412      26.23334659      12.40319375      -6.08092920      -2.12438285      -3.35584970      -0.10741216      -0.60996538       0.32833901
Na      35.46261539      36.07529796      14.23211645       6.38375147     -24.54609592       8.14389570      -1.42110704       0.60373200      -0.44910181
Na      23.97948587      26.87087979      29.26223665       6.50894582      26.27919973       2.39034041      -4.22807004      13.24311463      -9.83992450
Na      14.76636022      21.19071793      21.08682030      -4.79320212      -3.35616395       5.76226062       1.46092662       0.99877929       1.00878150
Na      12.40535713      12.10198624      21.41231591     -58.93569583    -114.59721812      17.23809809      14.71207992      -7.46410300      15.14986598
Na      20.46566792      -0.13327862       0.36628556       5.30450376       3.06359524       7.59771312      -1.08006438      -0.55654473      -0.25640212
Na      22.02222767       1.59269178       0.41440990      -1.09040554      -5.09103557       4.48665311      -0.13827185       1.72061120      -4.59450825
Na      16.91682400      -0.01071643       1.65328413      -1.76574411      -8.36970724      -4.00896094       8.93725361       2.88508248       2.08919251
Na      23.30596507       0.90851616       2.10952973      -3.77458696     -26.68261441     -17.83279274       5.50681613      -7.06895823      -3.73007834
Na      19.79914402      -2.04108585       4.33889249       5.62498002      -1.52860634       7.08343370       2.72554003       1.63284529       1.76196767
Na      22.45877616       0.49228585      10.45531824       2.46387673       2.22124573       5.29578378       1.65556192       0.50967329      -0.51535319
Na      21.40610081       4.41091614      11.43525363       6.04683810       7.69497901      -5.19768728      -0.72609482      -1.70016415      -2.01874865
Na      22.89641490      10.18520628      14.36410943       6.23135495      13.31876337       2.43463802      -4.15581357      -0.30457499      -2.04549995
Na      18.96614568       0.44275766      16.76271528      -9.74982660      10.03513645      -2.51412355      -0.09169686      -0.26345434      -0.02686023
Na      34.37291437      -2.99551133      28.75107335      22.75462244       4.40018851      11.56131082      -0.22731683      -0.29469452       0.34050183
Na      20.83038919       2.65484488      21.63285904      -9.49737497      -0.30578395       2.57491023      -1.21430888      -0.15983045       2.56882700
Na      23.62387797       1.12876317      21.23082196       0.86801938      -3.41116386       0.94774036       1.97606875      -0.06583951       8.14874309
Na      21.48767328       6.26243442      -0.01463943     -26.11570589      -2.95947906     -48.26768990      -0.15218239       0.62076176      -1.50571177
Na      20.07201050      16.02343434       3.17947830     -14.93724635       2.88221103      -3.51247904      -1.27681599      -0.21398586      -0.02999154
Na      20.87647582       1.40870322       2.41448547       2.47983619      -2.98625961      -1.81543299      -6.96566688      -0.42435697      -0.73544194
Na      21.72149385       4.44045398       2.04975176      -8.22820308     -11.04159056      -0.08736320     -11.40362008      -0.35768830      11.59689993
Na      20.70252896       1.56094606       4.96537623      -3.15357916       3.57860949       0.10162768      -1.38296023       0.42312402       1.37962114
Na      22.61881295       7.75553051      13.57796451      -3.88008164       3.60596723      14.17441030       1.71656208       2.88504937      -6.37101554
Na      19.44013450       4.23013286       8.03681833       7.58080548      -3.38845650      -1.11732621      -0.71125246      -0.62826229       0.01749641
Na      24.40173626      10.82772986      15.19073343       5.68459338     -10.80497832      -3.24153063       2.56361949       3.23784777      -7.85865067
Na      21.77768514      -1.87563829      20.75768073     -18.37574614      -4.70630845       4.31886177       0.73126281      -0.35835092      -1.20019061
Na      30.48670203       8.99175278      -0.62008851      28.47521680     -27.81292855     -10.60147142       4.20177451       4.01188168       0.97850635
Na       4.23865685      55.28995513      33.09646520      24.33482027      58.50932407      31.38468281       0.25949181       0.11660338       0.29161558
Na      16.32120732       8.87725750      22.11820169     -15.00891213      10.42101028      -1.09578645      -2.04199028      -0.41421183      -0.01134852
Na      19.06722096       3.65133098       1.02460004       4.07765116      -6.47729603       8.16939972      -1.58155273       8.17696368       0.32212979
Na      20.79756835       9.56757657       2.61669561      -8.25062637      23.42924400       9.35914215       3.75189936      63.57703612      31.62761562
Na      16.33968107       8.82581819       1.46175581      13.43476647      -6.81285669       0.30751886       0.06843042      -0.81841604      -3.16929773
Na      20.46573547      11.30961518       6.46832547      -2.29826171      -4.16424656       1.27094258      -4.61529184      -1.26379257       1.35652974
Na      20.70207507       6.57818499       8.56651206      -1.82709077      -4.66034171       2.37249573       0.21324625      -0.48938333      -1.63868357
Na      25.17020792       9.83927377       9.95693528      17.58526753      -6.67825585       5.71665125       9.53682553      30.13628204      -1.76927884
Na      20.86914489       7.53401137      10.55805434       1.90236496      -0.54742027       1.16766204       0.02309124       0.57576092       2.49115294
Na      25.30282360      13.43265972      18.79870275       2.54075641       1.93506348      13.83255326      -3.62179771       2.29112855       2.68238334
Na      16.71340466       7.28013718      13.57400761     -20.60486954      -5.08820962     -17.37450928     -16.16817807      -0.66855217       3.52094818
Na      22.74038344       4.26413611      17.27210264      23.94188990     -22.39685633     -15.95176009      -0.68004962       4.79710009      -7.71343040
Na      18.47370716       3.32086542      13.39173597      -0.86929331      -6.02679060      -9.30203696       4.93175147     -22.80453738       2.19751711
Na      18.53314355       9.73127893      22.69919158      -8.43679477      -6.34756850      21.87557786      70.17023791      43.15622800     179.19480073
Na      21.48501438      10.22685943       0.14707461       5.76306291      -3.45592696       3.92869226       0.95896028       1.54392615       1.17690899
Na      24.59587410      13.57213744      -5.23011138      -7.45190777     -12.19498122      -4.39935428       0.80300446      -0.07033506      -0.09221979
Na      27.85542591       7.46590474      -2.60768711      -4.79068484      -5.95924699     -11.36792285      -0.43660968      -2.55790318      -2.07059458
Na      27.24894089      17.56648132      -6.49269363      -3.96097691      -6.59955720       6.50755386      -1.26117831      -1.74860909       2.26506787
Na      18.62824725      11.37200617       2.21053686      -2.48037836      -7.97432416      -9.54649779       1.61066572       0.13914605      -0.78517784
Na      19.82334089      14.49755834      12.03345969      -5.74035539       0.41959551       1.28629838      -0.25014727      -0.92822488      -0.26032576
Na      23.65755888       0.45611534      18.75833125       2.37048941      -6.13866986     -15.24978745       3.76033050      -3.04533420      -9.85171535
Na      23.07947371      14.37109423      13.06686665       4.04406009       8.55687542      -6.17579881       0.05618235      -1.87989619       3.75167186
Na      24.50877203      10.65167856      16.45475419      15.28524331     -19.69772485      12.88801125       1.17940381      -1.98565435      10.54510425
Na      16.43717690      22.11545346      14.79011133     -16.23476493      14.50128017      -5.64506942       2.52969255      -0.13385348      -5.30913739
Na      19.28777671       6.37218442      23.66955435     -11.86572772      -9.61222149      -4.59851942      -0.76694938      -9.22560988      -4.88576682
Na      26.18179322      11.95728683      28.03385764       7.39581142      -5.02377268       5.98812833       8.78120252       7.48180070      -3.25844127
Na      17.23472455      15.06148202      -1.85021957     -21.17483756       0.95320239       9.26896083     -58.64478068     -14.80478729       9.44610499
Na      16.89591632      17.51999116       1.84795984      -2.62925817      -0.59526817       1.44094658       0.85577105      -0.42953997       1.40161151
Na      20.60964909      15.17661063       0.14590728      -2.23881439       5.39369507       7.56678343      -4.78624413      -6.65472283      -4.34892743
Na      22.46318662      12.43471242       5.91574425      -5.97386211      -3.36546047       4.11527687     -12.24098272      18.11610070     -18.50533841
Na      24.00140396      25.42148745       7.58047554      22.83100158      38.79897031      22.12556040      -4.16922490       9.42975774      -7.72920370
Na      20.92573853      17.48478135      10.74302576     -30.12397509      22.81393178      18.96207555       6.52654779       1.17781672       4.21748663
Na      20.55126322      19.67119590       9.44907490      -5.52438179       8.70734764      -2.17168136      -0.36944149       0.04959927      -1.74412448
Na      48.50900061      49.92571761      14.91734813      37.30422471      65.08848254      23.67599213      -5.00124684       3.26799582       4.45528475
Na      16.30091591      19.97377178      13.08165749     -12.92350578       6.39777800      -7.92447116       0.43324159       0.38094413       3.97372991
Na      25.93738543      11.79524344      19.34710938       9.34875321       0.07523537      -7.91568297      -5.33968300      -3.54126827       0.59091622
Na      16.94592605      15.60978391      28.09857891      -2.12431595       6.49548299      10.89985091       2.47140663       2.42081658      -2.34024435
Na       6.98966692     -66.64029036     -60.17004160    -472.94588171   -2298.21286478   -2456.98053196      -0.35384738      -0.88268826       1.24922882
Na      21.99315274      22.49724706      -1.16102527      11.60834764       5.74115859      -1.95038929       7.78080374      -0.60374635       4.00125996
Na      20.28653975      23.08010673       3.24864263      12.58497083       5.27497040       2.93397728      -0.79865908      -1.85871718       0.89889289
Na       8.56233172      26.46532957       7.23120219     -18.93611065     -89.52345650       0.81575487      -0.50068694       0.70997165       0.02092663
Na      22.21667199      24.51822841       2.98623768     -12.11026627       4.69349628      -6.29397026       1.74518895      -0.01317576      -1.03864534
Na      22.83242355      20.54346381       7.46349764       7.32310788      -0.94091599      -3.31378663       0.38645928       0.36726221      -0.77211269
Na      25.21754705      30.89494107      16.18812143     -22.31925187      -6.35484159      -3.16104485       1.00297712      -0.14466255      -1.64205987
Na      19.36869080      22.05284142       8.30183223      -1.87934137      -3.36906594      -0.74609685      -0.23076323       0.48977160      -0.33844768
Na      23.92309341      24.73873138      12.11766666       7.20477571      -3.28385509      -0.98319080      -2.26615023       6.00669297      -0.20707785
Na      17.03712981      19.39505217      17.73535230      -7.60538514      -0.15447863       0.55915744      -0.52592464       0.42989783      -0.81429352
Na      22.24961809      21.82899767      16.11150432      -2.06583961      -6.44466368       8.81490453      12.74923306     -11.93143812      -1.73394638
Na      15.24969765      17.84514187      21.97984690     -11.73503510       6.39416619     -10.85048971      -0.34422862      -0.87530983       0.47695377
Na      24.39176919      17.64297284      21.18074383      -6.04526341      -0.28847460       2.16623658      -0.17088845       0.17638766      -0.74060670
Na     -83.45412238    -183.47701395    -164.61640467    -852.65307340   -1707.98690656   -1310.48679023      15.49300190      17.03890609      11.59319353
Na      23.49379126      28.54654037      -2.00755578      -3.50572593       7.38613342      -4.94852853      -4.72474938       5.75351918       5.17482108
Na      18.72208590      23.51328127      -0.65738903       1.94980823      -8.92752596      -0.61437692       0.33121752      -1.92842440       1.12659476
Na      18.63939667      25.62080458       3.22918132      -0.44882046      -2.85656205      -4.89801081      -4.34070221       0.39816004      -0.53910740
Na      20.50544697      17.45453382       0.63588591      -5.16378491       6.94009135     -13.52759559     -34.07799698      21.42905117      -2.11333147
Na      19.59199332      25.72805768       6.30441406      -6.41027695      -6.89282905      -3.78320609       1.36282450      -1.09675077       3.02074342
Na      18.66266386      27.34871632       8.65917776       1.68982752       0.63684677      -1.95458358      -0.44128437       0.07477817      -0.32980292
Na      22.20547473      27.41171304      15.58230103      -3.86150536       2.64571068      10.22442832       0.49961014       0.43739283       1.13249969
Na      20.77455745      24.99471965      16.16537906       5.05772923       9.35462247       0.95091200      11.75390736      14.92477499      11.03780962
Na      18.82367534      26.72386377      19.60044373      -9.70992162      14.73114853      -8.28252119      -1.12633803      -7.49053945      -1.69795590
Na      23.21711517      29.29086866      19.93592353      -6.56485805       9.60578330      -4.78881234      -6.37257044      -1.22918275       2.95991874
Na      21.09644433      20.42344949      27.06052655     -12.91625572     -10.43591214     -15.36033786       1.72307176       1.61224513       0.86471872
Na      25.33532476       1.90455326       0.18234546      -0.67954659      -2.02083708       4.32959395      -3.18423960      -3.11291677      -0.74520208
Na      25.55828076       6.66216894       3.52600065       1.00747890       9.94960078      12.11733245      -0.04417730       0.17748351       0.20371928
Na      20.82703025      -0.56264137       3.69448265       5.41906547       7.54442389       3.01167068       1.71974717       0.17530490      -0.95333849
Na      26.40652660      -1.15516894       3.17628468       4.41854038     -12.53775360      -8.68245758      -0.93684577      -0.03941678      -2.06342306
Na      27.04854188       1.39958291       7.31346819       1.16010747       4.79431758       2.89141453      -0.80870141       1.19462601      -0.24977980
Na      23.77668707       5.26924304       1.58355817      14.85624351      12.48379682     -20.43894933      22.44340415      20.62928766      18.60785428
Na      23.87015135      12.71415321      21.28244818      -4.40111053      74.98712511       9.31272522    -104.21693907      73.73940843    -155.45246785
Na      21.71640605       5.58519068      13.11285700      -7.90245176       1.09946193       5.56065622      -1.73826491      -0.29676719       0.94288696
Na      15.35650262      19.40238742      24.58215010     -24.90127506      45.42434412      29.67089128      -0.36351702      -0.21393918      -1.25564296
Na      23.87331602       5.00319959      14.79853567      -5.75784112       1.15223089      -3.35751082       1.22058942      -0.36477034      -0.50761382
Na      26.41724519       3.76319913      18.93020972       2.07533971       9.91816128      -0.47898600       2.74436281      -0.47848651      -4.64968105
Na      23.73971225      -7.00556850      19.92964789       7.46386287      -0.40256076      -4.28011659      -0.69783915       2.09707478       0.69339073
Na      23.45000019       7.30654393      -2.45003185       5.17302086       0.05439914      -5.17573949       0.78091073       0.44134199       0.90610571
Na      27.47926926       5.75239781      -0.16818236     -11.53473896     -12.92995140      -9.82086628      -0.04670765       1.97796266       0.57841007
Na      24.00407727       2.12057286       3.31330830      12.33517501      -3.33567055       7.42610805       4.83271160       3.10913911       3.68063998
Na      27.45415904       2.80481285       3.86248643      -2.48023466      -5.73939628      -3.64265282      -2.64485599      -1.72367226      -0.90317498
Na      29.41694824       2.53898290       6.43553264      -5.09198507      -1.96251933      -5.71680169       0.73960382       0.61587699       2.52216824
Na      25.01212781       7.44174930      11.15833790      -4.59154351      -8.33738837      12.82604616       2.78725354     -16.10681568      12.85203050
Na      21.80250144       2.65100147       6.81109152       4.93267185      -4.13558644      -6.41012314       0.01051107       0.29769224       0.83986337
Na      29.06108088       8.59014444      13.63811818     -12.82821108      13.85009043      -3.89889509       0.38306919      -1.78245846       0.05957269
Na      27.34072000       1.34206679      14.33705870      -7.75218690     -20.79186361      -0.88015760     -32.34086393     -54.57656980     -66.97472529
Na      24.24081565       3.07598437      20.81973178       7.23071612      -3.78614885      -1.40920576       3.19699286      -9.14052301       5.99079594
Na      24.92082877      -2.60888390      16.42627835       1.41130321     -15.92364813      -5.83426743       0.33723570       0.09023920       0.44447119
Na      18.58929264       8.53972014      31.66285411     -12.42155920      23.22922499      18.93840678      -1.31442202       3.74104107      -0.00132266
Na      28.83011332       5.55543450      -6.05742855      17.06312664      -4.88420540      -6.94424944       0.66707574       0.13550535       0.48083347
Na      26.91406405      16.24058225      -1.50852738      -8.14179033       4.20349768      -1.65905084      -0.88734663       1.69858913      -0.14531666
Na      25.52398671       9.67575998       7.43587924      79.49786499      42.96719867      24.01681533      -0.93765639       2.31465564      -3.63929478
Na      31.75493795      10.62320789       9.05457724       0.25365969      -6.12245664      11.81551116      -1.03309123       1.10634100       1.31299276
Na      21.92651423       7.63648401       2.40685904       9.72299037       4.42184282      -6.89950423       7.91936964      -7.76088374       1.70096913
Na      25.80382934       8.43729774       8.88740733       4.61301331      -7.87560827      -1.14009775      11.94267473      -1.71453768     -10.12084291
Na      25.45122745       9.51914623      13.15338070      -0.30004827       4.38540355       5.98850694       0.00957659      -0.32822486      -1.10739081
Na      26.81180622      12.65085862      11.91883428      -1.52124603       6.14301992      -7.59561389       0.33975906      -0.20445513      -2.99618917
Na      23.64488860       3.08080834      25.80081266     -44.38807480    -113.57062430     125.44280676      -2.68048259      -0.47593682      -1.91718615
Na      29.91196246      18.06105187       9.94483429      15.73288009      13.29334970     -46.75551439     -19.42047019       1.52718759      18.59207310
Na      19.30052022       7.86286009      27.17547945     -13.32443906      -7.56765689      -1.17306049      -0.41228285      -0.12344816       1.10043550
Na      29.86596963       9.67843082      25.71305536      -6.04555301      -0.32914467      -8.27131837      -2.78008885       1.31433797       1.53238356
Na      24.53649490      11.54325644      -2.58086582      -8.86087290      -2.09411821      -1.15684724       0.58092257      -0.78979918      -0.47446456
Na      34.61041935      17.99418925       6.14233396      32.48375472      30.89015913      14.06926689       1.23919557     -11.08229274      -2.03909462
Na      27.74720620      11.83457718       7.54236071      12.04936963       5.39430568      -4.70728620       0.17625539      -0.85538671       0.83133582
Na      27.40248161      13.98996719       6.07816612       5.57620372     -12.00155008      -8.98088532      -0.10679485      -1.96506073      -3.13877485
Na      19.96377345      13.29496560       4.74561402       4.17387774       4.68370237     -10.88728874      -0.69995859       0.60423915      -0.82457646
Na      27.01634746      15.58121289       7.54126564      -0.55917873       0.92421123      -7.54566505      -7.24753699       6.87026975      -5.24214866
Na      23.20444584       9.20592469       3.89293727       1.72733539      -5.52741187      -5.74193434      -0.86005278       0.50690448      -0.53059717
Na      26.88746720      14.52543576       9.76842207      -2.22739955       7.48581525     -14.47904541       0.38102317      -0.58811133       4.46600284
Na      28.08494093      17.76934502      19.23025126       9.93321772       0.78880447      -0.04234200      -0.99755696      -4.09565964       0.57865433
Na      26.65498467      12.52496179      13.86879956      -1.92212907      -2.85222042       1.59660998      -1.39639121       0.74863567       2.50780868
Na      27.67963078      10.63506384      22.80454304      -6.16980775     -35.65778755      -3.83367558     -15.96921259      -6.53254983      -4.96107514
Na      30.31267472      13.34671430      18.30067298       0.44735261     -10.60726693     -19.74895095      -4.50571033      -8.50965612       1.09026115
Na      28.03440606      23.16597171       1.60854480     -10.64560746       7.09998157       4.91709615      -0.08336704      -0.33363120       3.15071986
Na      18.36391003      38.27811332      22.19471047    -167.49947310     313.41143856     354.38383769     -61.37228347     -41.71174091    -193.42698533
Na      24.08316533      16.78570454       2.01602741      17.81270717       1.09663269       4.69633131       6.59439823       0.99175211       5.03892499
Na      25.32373445      23.05225165       2.89567248       3.72252141      -0.72566953      -4.13447781      68.57035747      50.46609006     -11.55662189
Na      22.00538749      16.90304946       3.24641987      -1.69806264      17.29516269      -8.50753078       0.53495225       1.33184474       1.41014771
Na      -3.74536601      17.13529109     -70.23618157       5.60619114       3.86279664     -20.64016248      -2.33548627       0.97161326      -4.39654495
Na      21.89343786      18.15154158      12.31863070      -6.77491356       1.75621615       4.56622999       1.62538695       1.59606434       0.04311785
Na      17.02049764      15.49210740      17.78301744       3.71143195       2.17667843      -2.52297497     -26.56075395      -0.43478969      14.32019018
Na     -68.96758051      62.43252486      48.67947286    -582.30019870     299.16574424     199.05967090       9.92011444      -3.86716781       9.70496889
Na      26.98340583      21.03045060      20.04128848      -1.20232344      15.09664276       0.65219679       0.90295498       0.63259459      -4.81790172
Na      29.26526781      10.59420134      31.08444120      -8.62382798    -122.15652157     157.63669004      -7.14231926      -9.22692991      -1.40984610
Na      34.19559986       3.42802258      34.73611704       0.23993311     -24.90443680      -5.30870554       7.18472261      -2.26622023     -17.96416161
Na      23.71767808      11.56218741      10.23187604     -10.46830788       8.32628781      29.60679990      -0.17919692       2.24605138       1.18091108
Na      26.43209128      24.29775454      -0.78649509      -3.11530225       1.50010686       0.90716418       2.84405486       3.61148322      -1.74832106
Na      25.72100364      22.83036858       0.44344837       8.81792345      28.93033696      -3.25915552       1.50126084       3.93595104       4.01517762
Na      29.63304466      19.25879150       9.22217135      -9.25567056       7.45875117      -3.33784076     -12.21268212      14.48653105       3.57244129
Na      -0.71425146      26.42937878      30.55010775     -30.52530068       6.40508324      41.25302923      -9.32875025      -2.23518666       4.98730497
Na      20.78535947      20.52842821      14.29926151      -7.09211014      -6.78919314       6.48414266       5.84988835      -0.64551852       3.38682924
Na      23.24438528      18.36785175      14.39003059      -2.98195019     -11.99292677       7.32484418      -3.45482263       0.25179979       1.94328299
Na      32.77571789      25.46885134      11.81174370       1.71369684       5.09393054      -1.59980203      -3.33666872       3.17122543      -0.28142479
Na      21.15348417      16.48003122      13.68463099     -12.30295155      -9.23685391       4.06747215       0.15203093      -1.89122129       1.39951732
Na      28.17593204      22.02317231      14.41645714     -28.57223294     -17.08582984      -4.17648229      -0.22969222       0.99207356       1.05020643
Na      21.19580435      19.23358606      19.76090763      -7.66779271       9.38632055      -8.37754181       7.19922958       8.46450387     -14.36139528
Na      16.89601708      42.45108235       8.65650859     -45.36363131      23.34372290     -56.38880756      -7.40747718      -8.41546736      -1.38088053
Na      21.15094396      19.90153983       0.07352317     -11.75339418      -9.85282344      11.52091795       0.39715729       0.49282921       4.32661818
Na      26.05710344      27.78035466      -1.05637309       0.44772770      -1.35774634       6.08267795      -0.72511210       1.15819370       3.62418315
Na      20.36944245      24.72723330      -0.15377966       2.99915540       2.42178765      -3.05564031       2.23014128       0.10392523       2.70292017
Na      26.73746591      24.90930898       4.81836858      10.93808902      -8.55754718      -0.48586527       0.10381411      -0.75989550      -0.33176709
Na      27.09763136      23.95219990       9.29953464      13.81316500       8.14430389       3.59996840      -0.04747257      -0.62936836       0.21513043
Na      24.58150499      31.13398246       6.43829498       1.74491544       1.79013962      -9.34366554       0.26357563       0.29013340      -0.21244360
Na      21.63936103      27.55966187      13.20323937      -1.16371452       2.73802379       1.71922773       0.15211516      -0.07655704      -0.54125927
Na      30.69181739      17.48701177       9.69707554      18.09240118     -31.00062599     -14.61806484      11.23971334     -22.32665553      15.21849620
Na      19.49931363      22.22928651      23.45135316     -48.15652440     -29.43022400      42.41721084      12.69940851     -19.73578851       0.59150926
Na      27.17559963      29.55583928      11.72095544      -6.63276492      17.12788429       0.89272134       1.41223570      11.62072425      -2.38493807
Na      19.09490061      20.19289383      18.56164263      -6.30499606      -0.31460340      10.63911077       0.86602906       1.03953504       0.55428591
Na      10.02001274      -6.45355421    -168.45260120     -27.38295981     -34.28405023    -407.55573085       0.57779155      -0.67801057       0.21537712
Na      12.52206160       5.42115379      22.04501385      -5.31786188      11.64308143      -9.13769001       0.82541910       1.59430354       0.94598534
Na       2.03117733      12.46078167      21.66962035       2.80590804      22.45906531     -27.64625999     -13.86178638      12.80812990       9.72910903
Na     128.03603915      27.02319121      99.09526224     226.91014849      60.43038038     132.44310949       0.80833202      -0.54701325       0.33627092
Na      -6.90618692       9.06902074      29.22343952     -20.25115958      16.80050402       1.89727433       6.44513537      -7.97669430      10.83476002
Na      83.45752019      19.91425839      37.45994489      69.71547294      -7.24363570      14.46556772      -8.48404099      12.32209735     -24.25761745
Na       5.45133856       1.59717326      24.01126580     -17.85147517      -3.83132940     -22.76421163       5.16849259       3.69232922       1.41749907
Na      -0.07175026       1.98566876      27.79943074      -6.42007945      -6.05156250     -10.17406190      -4.48372796       1.12273333       4.00699505
Na     -19.32672167     -16.67728231      53.34227671      60.91989128     -71.60143313     215.01046039    1121.17478746    1132.85088295     886.74307277
Na       3.93744493       5.22895064      23.83946225      -0.19081883      30.75089415     -40.19950681     -20.22379430     -13.17742773      -2.75012345
Na       1.27455609      -9.30420323      47.92323466      60.88769298     -22.99122964      37.31638512     -14.66796653      13.38306073      11.76276105
Na      -0.90252392       2.47476135      29.43409588     -10.39295431      -6.12789576      -9.07246990      -2.00095918       3.31312469       2.98495866
Na       6.23378763       0.92351745      32.60585635       9.54082535      -6.32380012       2.69655434      -3.32172217      -0.32391244       1.38860126
Na       9.10235163       5.22390290      26.29386570     -51.80082961      -9.37265219     -18.94984407     -14.19992042      -6.60054687      11.25177466
Na      -1.59212669      14.41076579      55.00037655      11.15999695      20.53313778      19.69952000       2.04608695       9.16753672       0.69703501
Na      -6.89495389       8.60965523      31.87234990     -12.65075916      15.02821539      -9.97452717       0.72015250      -0.87818632       0.30331775
Na      14.17063152      16.42997709      28.19103617     -12.55439535      18.68102075     -21.42693160      -1.63214997       1.55694946      -2.46180937
Na      17.08430722       5.97462751      33.37685739      -2.54349200      14.44795561       1.24660679      -1.85945584      -0.44287414      -0.05010458
Na       6.20664378      12.32854576      22.82871929       5.43098611      -4.54590404      -2.39004224       3.28402895       1.76954864      -0.23721831
Na      17.77485106      14.02920766      36.38077802       7.90629543       8.85715475      -7.35680108      -1.03853925      -3.03722370       0.72293573
Na       3.08170224       4.20430061      44.44595415       0.61863615     -20.52252010       9.13775361       3.59688459      -2.61619274      16.47377387
Na      11.53902759      -2.36022465      33.54858616       4.60505796     -14.64024843     -11.61841069       0.29004763       2.45479758      -4.27637143
Na      14.82013623       8.22773536      35.65806627      -3.56983046      -6.63211838      -3.05844662       0.03130066       1.05377043       0.38174915
Na      30.86087492      -2.60427085      30.65734223      47.52644814      -2.56592542      12.45646335       5.69090740       3.99414868       3.74422595
Na       3.25048222      15.19730288      35.93607441       9.93024825      19.31768914       6.43440910      13.79446318      -8.41354437      -5.14544296
Na       6.00358454     -13.40791615      43.52567998      68.92516556     -26.88385219      51.07364284       1.10985131       1.19668548      -1.87695006
Na      17.15759252      19.12144134      36.16295908      23.22013969      46.58735100      18.03241081       2.33949668      -2.26820936       0.03280785
Na     -18.23683850     -20.25516334      44.66872447    -246.24519091    -149.04069759     129.99960338      -1.75983491       1.25432330      -9.20803768
Na       8.62401852       5.88909759      24.37132543      -4.40076828       2.45627722     -11.65001571      -4.71814807      -2.71423145      -6.32639473
Na       5.32778426      14.37422444      28.09518773     -10.83626620     -10.47084598      -3.29681405       0.03538808      -0.07611046       4.69844530
Na      -1.45848351      10.67497410      38.58863622     -20.55711651      12.48099948       8.27907018       4.36283230       7.52327897       4.94533312
Na      12.74729874      -6.67012698      22.47548516      20.45984878     -49.05782107     -83.17314284       0.13722818      -0.09422040      -0.00809047
Na      22.42805744       3.96485054      59.32875792      36.16891957      11.92032783      21.73492660      49.19216415     -22.10536479     -72.74776923
Na      15.34615441      15.33638684      27.79116039       1.89512558     -24.95140735     -47.31513997       1.67932043       7.35360910      -5.30520911
Na       7.95887620       2.22696676      42.53211869     -10.70934033       3.45712371       1.27427350       4.01605092       7.09672476       3.68088932
Na       3.99471652       8.39604334      33.93990077       9.20420031      19.71040278      -9.88999503      13.66077837       9.13832613       1.02836406
Na      11.22923418       8.46942181      31.88775474      -8.65636172      -8.83978328       0.17581392      38.31415195     -21.88196126      19.03381855
Na       5.74325971      10.16761778      25.58941960      -6.29644067       1.35062527      -3.00832690     -30.56081805      16.74618383     -28.64065976
Na      14.10569729       7.80495426      32.26836925      14.27792295       3.71277559       8.56474180       0.83325607      -0.53816174      -0.87988845
Na       2.94450470       8.50749693      25.63457562      -0.04651138       5.80556247     -10.06666271       2.89963249      -1.87486552       1.01691076
Na      20.11544265       3.53020334      15.03695739      17.79968382      -8.45195229      -5.86737717       1.35311937       0.16193089       1.33377402
Na      12.06548569       0.54248102      22.97552624       3.35272477     -11.17158210      -1.17440865      -1.85451789       0.18539323      -0.77795038
Na       8.89220382      11.33373139      17.91424938       7.98971516      -8.86931886     -13.58810229      -0.57286689       2.54971210       0.71230875
Na    -469.05474129     728.01817232    1096.24386623  -11006.19057186   16663.42786749   24766.68169774      -0.01519472       3.89740907      -1.36036254
Na      13.30256965      -2.40544491      41.13014971       2.15384483      -8.15234957      -6.92362011       0.58190052      18.12665202      -0.81883420
Na      13.19608945      10.18866779      45.84802869      -0.02462112      14.55699093      44.31379878       2.72184442      -0.12780494      -1.13572233
Na      10.35880556      13.32539524      38.79366136      11.93726312      36.68703234       4.31951277       0.06831735       0.74105574      -0.23400794
Na      -8.26821420     -10.64424546      25.24876363     -18.30851397     -24.68930032      -8.30375894      -1.08070749      -1.44366941      -1.59107022
Na      12.13779809      12.89617748      31.83277817     -11.86879031       4.22360971      -8.99159268      -1.44792627      -1.34554179       3.48612419
S        0.03037130       4.82755064      20.99839893      -6.97101079      -5.31456015     -19.35971069      81.30347200      27.16397768     -21.59221925
S        1.68073687       5.17720540      28.83537540       4.29274632      -2.00592351      -4.54212626       0.80340393       0.67637353      -0.02588321
S        1.60241966      -1.57418487      25.95838409     -18.44333605     -25.70274443      -5.66316759      -2.70885407      -0.96254983      -4.80111166
S        1.92638542      15.78268721      33.91383690      18.13639976      25.31645859      -2.88623153       5.36443871       2.73674940      -4.75830223
S       10.54749424       2.36836509      29.12396935      -5.27854144       0.16706470      14.61444856      -1.40273777       1.61435799      -0.49567597
S        4.31431311       6.13562339      33.89619390      -7.48657716       2.47561513      -2.26812702      -1.35376449       0.30719273      -5.01096410
S        0.45320299      10.79172833      23.65674482       5.89152294       1.89813035      -3.27803946      14.91844946       2.45074293       9.76604488
S       12.84157441      37.39930512      38.95215011     -17.91211980      32.85118447     -46.23635367      -1.53768785       1.24761045      -5.09708867
S       -2.88733234     -15.40686124      29.99312159    -153.95727258     -63.44116916     -13.84481288       0.74387647       2.11125626      -1.14943534
S        8.87751861     -20.20099602      53.04219328      81.63159480     -67.72317431      23.41694161      -4.59906761      -7.62066957       0.26101370
S       13.10814820       8.59652732      27.35123920      45.13704885     -35.67854423       7.57478783       1.81080847      -1.14912526      -0.94038855
S        6.27873216      -0.98096087      41.26357208     -25.92418163      37.40458971     -14.74636899       4.69552265       9.70576393     -10.05283092
S       -9.50691493      24.83998601      28.53588780      28.76371902     103.20674716      -9.40792504     483.73327727      -1.98743260      46.95545414
S       -7.06882428       5.23831942      48.53232367      61.85948085      22.48865369     -10.85374341     -97.47181305      74.91326081      26.76999722
S       -2.49580018       9.90855308      45.38502432      -9.12310338     -12.46285809      29.13253194       2.25232073       0.71411437       0.67912337
S       -2.99609952       2.42991005      42.04120870      -6.85783588      -4.54534396      35.82930612      -9.61302378       6.00686742      -6.16543661
S       -0.80803262       0.17352290      21.32977303      16.67808388     -13.06136566     -12.84731155       1.31202368      -0.29707166      -0.41174187
S       -2.71288860      13.06146033      36.71398019     -30.17879229     -23.69133466      21.60134186       0.05841399       0.77930680      -6.34691308
S        5.39782664      10.50601528      19.24498672       7.04296246     -19.17754938      -5.76740861      -0.04115857      -1.68410741       0.99179686
S       -6.13092668       7.30761094      16.66888781     -49.36869977       1.71540164     -23.71154413       4.36502270      -0.57523425      18.82150614
S       -1.94716056       7.70760954      31.13420557       4.83099975      -8.28964851       0.94242103       7.43282697      -3.01863967       2.80241001
S        0.10596438      -0.32716138      24.55842018     -58.10587424    -129.05491096      14.10343560       1.42020359      -1.29890159       1.45836579
S        1.62938842      16.16144015      26.40818189     -13.16836795      33.20667914     -25.17893468       1.92306355      -0.13370164       0.05823605
S        5.52966470      12.38216760      40.87260219      79.47130304     -28.30580562      82.05867616       0.87088198      -0.01759895       0.94400148
S       30.98724322     102.15831663     129.25899727     251.92781748     532.39223415     620.24147387      -2.64486504       2.82163755       1.11647049
S        3.74346478       9.26219638      40.93994089      -3.01463356      -8.91644519       3.79665379      -0.59258887      -2.36357935      -0.16210654
S        1.75712535      18.60966859      29.64759805      12.96726795      32.63329514      -9.01658708       0.95175770      -1.76957286      -1.45889364
S       37.48562694      -4.31858335      48.34517997     234.15947056     -44.99372073     -32.75768628      13.57587322      -5.55322182      -0.29327387
S        8.99674445       9.39532672      31.61477690      33.03482273       9.30573938     -20.55374748     -84.16024593      24.27437105      19.65784223
S      -20.55799960      11.67556420      72.58752813    -119.11660801      -9.26052485      75.60980742     253.75833887    -211.90019830    -337.42197246
S        1.32414356       7.79846848      48.82580198      28.52690812      30.12452458      24.03595587       3.57143093      -1.77943812       1.99185195
S      137.82918757      56.32212513     155.04198495     299.75607975      88.54761068     398.27281880       0.83368332      -0.43108282       0.17444006
S        3.76251026       1.31153115      25.47152256      -7.07303490     -10.06089029      -1.29850998      -0.72503517       0.86122004       0.68600740
S        2.31796145      12.08281810      28.19206925       5.30473071      25.74669276      -4.56071880       0.93669677      -0.61426419       0.07319059
S       13.28446248      10.19551948      33.44986198       0.56163112      15.53391307      18.10256313      -8.30653745      -7.72665516     -12.03979004
S        2.79518358     -22.60492650      69.57754282    -367.63210974    -269.19699163    -198.48406043      -9.32818043       7.98925887      28.65530972
S       13.99671727      -0.12647209      25.92012412     -18.24444846     -10.42831290      13.92067034       3.81255189       3.49648530       0.57356680
S        7.18230129       7.95135000      25.58497162     -99.73459942     -34.46221324       7.15351618      16.03809518     -13.84742377      36.89272904
S        8.19384188      -2.64884189      44.44356333      22.58363970      21.20402183      37.70298421      15.97753724      -5.79943623       7.10277245
S        8.78067158       3.11323664      30.26016647     -10.59934896       2.34768880      -2.81203803       1.87735468       1.15686382      -1.35558915
S       20.56964968      -7.09557993      34.21810457      54.34836528       6.22949736     -56.08957702      -0.24218187      -0.76321990      -0.72680111
S     -149.79296558    -107.74631234     250.26008151    -397.88802979    -321.51389329     499.18623254      23.43295962      -3.57239404     -12.11522371
S        9.73670178      12.95116522      50.91680812      -7.38536254      37.80410105      59.07490395      -0.38079048      -1.45310232       2.20985068
S      124.20125370      14.28816602      87.82687951    1034.36302522      49.01886104     440.37554408      37.00763204      15.93170629      -7.53715268
S        8.50309717       4.44903311      34.34214131       3.39332546      40.98684422      -6.17595788      -0.26458883       0.44104240      -0.54296957
S       15.78684798       5.73168487      30.42435496       1.36448071      -8.59866514      -0.81292888       1.01507583      -0.61656303      -0.26157914
S        9.35729828       3.69964349      37.30494483       7.74674199     -19.26608328     169.00985084     276.78385832      97.36318413     548.11020380
S       13.90546056       8.52050440      18.21953175     -10.23877195      96.26674438    -121.74120376      -0.71989128      -0.03422064       0.24011564
S        6.96728836       3.35210831      23.31767658      21.67417073     -19.43500532       8.29131321       1.95511492       1.07622980      -1.15526781
S        5.93067237      13.50005682      31.87268807      12.29103885      22.35202450      26.59224942      -6.50930492      24.14924025       7.93863475
S       11.62462521      10.16050076      20.53553937       5.05129742      -3.78874280      -3.98398078      -0.16512467      -0.63394343       0.44041215
S       30.79365671       4.39433036      26.78589199      34.09092857     -44.21304955     -19.86022143       0.26327720       0.59371556       6.96088503
S      -18.62168935      11.70588497      20.19024786     -29.07933433     -13.63742907      52.41685473      -4.67759136      -2.90933007      -0.87706092
S       15.65993922      12.89485768      22.80801663      19.43417589      20.27278239     -18.38834208       4.20388849      12.82646242      -1.71343601
S        2.06723344     -10.34483907       8.48755851     -89.84039314     -86.12673998     -77.73671836      19.86023893       5.83388950     -40.08247181
S       14.25470985      13.99240144      28.45386925      10.38616188      27.52699515     -36.88005632      -8.13783503       1.76232961       1.33130772
S        9.07176702      12.14252380      27.16839950     -20.08746814     -52.81455265     -47.79128760     -10.07174158      24.48760639      -0.18255952
S        7.78213521      21.39295429      22.78207208     -43.00602850      87.69609772       0.72938030      21.39558136      -0.48156986      -4.85642983
S       -8.55093893      25.79323041      32.78213750     -25.59848316      40.19649219      21.76232313      -1.60268034      -0.91650363      -0.16920220
S       14.42157667      10.79681068      27.51473141     -23.21535767      49.05155721     -14.47579607      -1.31649215      -1.48382508       0.31018467
S        7.95874277       6.12336056      33.57390302      35.55337091      -2.50672825     -21.21029142      -0.07461678       2.22131081      -1.60077449
S       18.18411030      15.95070297      35.55081359      23.01642406       0.89632087     -12.54532004       0.01581389       3.12763701      -1.42588475
S        9.42127332      11.72164920      37.13890885     -11.19823387     -16.28269177      14.56014329      17.24650089       9.20909794      28.29810225
S       10.39552614      28.44854045      36.59189993      11.95898323      75.65795419     -46.19628458     -38.08766131      -1.28027633       2.76894621
Sb      -1.98653786       0.64918951      42.16272984     -58.28152909      60.12017739     -27.06222075      10.96822792      -7.73935988       5.05507967
Sb       5.96385164       6.54640067      29.53614313       1.97827707      33.73473275      12.37519885       1.43612083      -0.15515695      -0.84469614
Sb       2.48618564      24.16051336      29.02179825     -28.78961217      34.07142975      17.49556805       1.35740791      -2.03940706      -2.45145136
Sb       7.12903637       0.69293433      41.42623283      48.21456956     -49.71698875      51.59027909       0.18895052      -5.25703446      -1.76926722
Sb       6.65554972       8.43665553      24.07408558     104.08448396      -9.46041069      -0.74527836     -12.38818485      11.27009942     -38.96074057
Sb       4.69045411      10.42314455      29.32790183      10.74488229      -9.80166534     -12.17372617       0.50337035       1.19579528      -1.89441014
Sb      -1.27961887       4.78701502      31.86458796     -13.51623411     -56.16616134     -30.12625281      -9.19352905      -6.09594648       0.33117290
Sb       2.99654987       6.64746778      39.20900856      46.23030545      38.79633888     -38.47359287      -1.13957612       6.00198025      -0.92435223
Sb      16.74053142      -0.42676263      23.81022602      22.73091369      -6.71642955     -20.46907681      -0.46547768       0.02995099       0.15019584
Sb       9.64989966       4.50166736      26.67183741     -33.81218467     -27.42598337     -26.18924650      -4.18152515     -23.78184549      14.47090698
Sb       4.48391370      -4.71656360      31.19791151      85.33678370     -39.15189739     -43.24559976       0.13817915       0.32550414      -0.01332930
Sb      11.55395398       0.28601884      37.80866706      11.46710124     -23.03107489      24.64623049     139.18552373       3.77866677    -113.00273901
Sb       5.12717143       6.11305215      23.99837778      54.10452317      14.05085298       1.58354631      20.97780444      17.63567333       4.10017011
Sb      11.78517220      10.78381405      30.74102073      24.07881057      15.33566557      -5.53763078       2.46961783       0.46435401      -2.73463481
Sb       9.54400660       6.87966472      30.02514341      36.06998718     -20.14165076     -77.30941130      -1.57312286      -4.45934269      -4.04451400
Sb      10.78462918      15.15885071      31.81455477       6.97788249       7.15138465       1.16073748      43.26174911      14.87524545      63.58508517
Na      10.19196662      10.18436492      49.44057512      -0.64459882       6.80029953      27.67192639      -1.66121196      -2.85684233      -0.04043597
Na       0.54343095      20.95017616      55.10999890      13.60174808      14.47655349      31.85952677      -1.63796908      -6.11368254      -4.59597137
Na     -11.46368500     -13.85105658      29.64606843     -31.87140198     -48.52530723     -75.75359202       1.70310773      12.54487844      -1.17945605
Na       2.51106914      -0.63645567      44.46723828     -11.61784962     -24.32276915      10.38455925      -2.26656001      -8.26929862      -6.09409373
Na      14.33669526      12.06584484      49.84742758      20.43965285      59.19963015     -13.87776303      12.12774729     -30.15832527      -7.36417287
Na      -5.12991119      -2.01853936      39.39861579     -18.11153504     -25.82817250     -13.80441371      54.25736751       4.88770801       0.50272105
Na       1.02572976       6.69638817      41.17019228      18.61239161      39.48695132     -39.24008854      17.05490062     -22.42866083       7.13187753
Na       5.62521802      -3.58358967      53.88413790      17.61997019      -6.51508899       2.35520050       0.31584292      -0.74574116      -1.11147787
Na       5.09019593       8.51976481      61.11591759      42.86370997      10.09331467       3.89789093      21.61000787     -25.18580698     -37.47401773
Na     -71.63047299     -18.43612767      48.10985069    -284.50188370     -69.75145032     -24.01685183      -0.13106937      -0.88663023       0.16589654
Na       0.52640546       3.20551678      57.35766468     -19.08888589       5.67380640      59.57165472     -12.29266522       6.46088033       8.60162108
Na      86.82579614      20.30469731      84.78665069     554.70313471      -2.05460341     286.85947762      -4.26954746       5.29703737       4.81780968
Na      13.82005570      12.63360564      51.46447503     -20.07546181       6.12966236      43.16609107      27.75902698       0.65770808       3.07057999
Na       2.62967093      -4.80898759      40.92111131     117.84305030    -646.74863273     368.55985354       5.52046112      13.88392748       9.82084333
Na      15.15650042      11.62766012      33.09356308       1.35166856      -1.60339532     -42.32547273       4.15173594       2.41587138      -2.85967577
Na      32.88712837      -1.30402037      68.79170780      41.06400280     -39.36935781      66.17187657       0.32374570       0.43124075       0.59373224
Na      12.87000904      12.27942301      39.86969442      15.27837802      19.29920620     -19.83707295       0.36999263       0.80501270      -1.90083056
Na     -58.67994779      30.68559785     -35.09318529    -109.07613713      43.44229723    -148.80583723       0.75058647       0.12679079       0.35931737
Na      19.08652193       6.97272981      43.91226631      28.00791588     -12.86793960     -23.94903112       0.27056200       1.29859262       1.96564649
Na     -58.98618169      56.93248212     112.84982359    -217.90933036     174.95054331     212.98655747      -1.92615757      -6.83018442       2.11060267
Na     -65.18103007      21.07645417     -51.23062514    -280.26625335      58.98958505    -398.14186586       1.54986817      -3.12487175      -6.18977848
Na      12.47065104      14.28572434      55.71985671     -10.96218869       5.21228462      -1.50268405       2.10344236      -6.22973625       6.94434032
Na      38.99308999      -1.81250291      69.59686934      66.94843808      -4.14215228      44.45715514       0.92496907       1.79183303       0.22688995
Na      42.40328536      41.93604568      56.01441448     179.31973411     175.18879824      24.83982093       9.36306879     -17.73026340       0.51864592
Na      29.08442562      15.28667998      47.89037324     104.59231114      86.64989811     -58.55909210      -1.63573537       2.04329702      -0.57728826
Na      12.75268958       5.00048132      52.86721584     -21.79134148       4.07107298      25.03719276     -25.95580939      25.78750543      54.85022304
Na       8.48154186       2.64950691      45.12890582      -4.08334464      -1.25406249       0.05614741      -1.61355415       2.61704220       3.06608729
Na     -14.18494131      21.26884855      47.72255856     -73.87919886      16.74700613       5.89390019      -0.78336668       0.13212261       1.74052470
Na       2.18637467     -38.12619172      12.42876064      23.32757479     -80.68455134     -43.97246822      -0.22116646       1.99107343       0.82236167
Na     -28.15110788       6.46355817      68.67852370    -148.78574066      37.89407197      12.16377077       3.53149866      -5.67670472      15.76817156
Na       1.19045057      32.34601457      55.28891654     -23.50387708     101.60361099      26.27096765     -22.99599477      16.69083286      20.07857786
Na      11.21540163      28.13325335      35.44198611      15.28807665      77.98084569     -56.23142467      14.08916791      -8.95294795     -28.45148770
Na      16.05670242      13.70398623      50.47309187      16.81543316     -18.53352465      -2.66663904      -2.66881534      -2.06891423       0.63353530
Na       7.90664359      11.03828737      92.06907254     -17.90012640      51.27493610     173.06551900      -1.53268689      -0.36151364      -0.43515907
Na       4.86672339      10.17173444      57.86242300      11.11324967     -24.26852477       9.03045575       9.07565627      -8.11190927      13.08381737
Na       8.68319806       5.53518487      57.91245857     -27.89891416       9.21696005      31.34190619     -11.35230495      12.78454172       4.85504031
Na      11.51370103      -9.75963639     147.62674551    -127.46022318      88.90584289      70.70683440      -0.55993847      -6.90428460       1.46899144
Na      11.44482566       2.61631724      19.60773121     -20.92273475     -25.19713496     -40.63789822      -5.38188823      -3.30172161       1.58850600
Na      10.50112503      17.61149132      39.59209750      -1.57517420      28.45152477     -55.34432502      -1.26884624      -1.49450106      -1.02495868
Na     -63.60285730     128.14843660       8.36869341    -163.93451005     260.02246814    -114.82820190      -1.37379954       1.62497662       1.43490716
Na      21.05033564      38.78605419      63.49143594      29.52180385      56.73145175      29.75509074       9.89675492      -3.60002194      22.10870272
Na      75.67991921      57.22290157      -9.70997774     116.75886524      76.76134018     -87.40869691       3.41845372       1.16166105      -6.04605661
Na       4.53008644      13.98148800      44.97401663       5.56632439      -3.94960524     -16.31271292      -7.90600157      -1.40799864      -9.77549938
Na    -302.93114938      36.60949870      58.61433821   -1257.53799920     184.40928837     -57.66792076      -1.70689411      -0.93987426      -0.75969297
Na       7.71517866       6.47959029      52.06084221     -15.34144429       5.84715430      -3.02864884       2.54800358      -3.92835980      -7.49167678
Na      47.50893868      21.39319753      53.57937627      58.67593704     212.56673293     365.61873457      36.09830649       1.02121131       8.59400049
Na      12.49821555      24.09411075      64.29848016      34.21945218      51.26758206      43.88550316       0.70276029      -0.11310444       0.20035446
Na      13.91748507     -14.52058153      59.00888109     -27.90134058     -35.85978762      32.94628558     -26.78819249     -20.16047679      -4.32980680
S        4.29911643       1.45407204      41.09612833      14.62906952     -13.05927516       7.78906817       7.64117629      27.93424388      -4.80600932
S        6.42412502      -2.68210317      43.22521261      54.33216458     -10.09514540     -85.44151214      -5.86681199     -97.47846315     193.59596607
S        6.78743688      -5.88301148      46.26939511     -24.16876478    -111.72717081     -65.72775388     -15.96696585      -7.36152199     -31.05988579
S       22.88888521      16.70779901      40.23147538      27.67078171      41.02576253      -8.37815267      54.22667686     -61.31463235     -64.55561251
S        4.55435557      -0.96469527      57.10947828      -5.91762187      -9.34626591      39.09980643     180.53332352    -190.74904073    -140.95158229
S        6.51399612      11.81737253      46.02005892      23.53757950      66.09204395     -55.44286709       0.13667181      -0.54895806       1.36116033
S        6.71393797       3.80556826      47.99461018      69.23939022      19.49302464     -17.88127136     -84.79432993    -155.68716002     174.55105495
S        4.29098870       7.95184114      47.38519164       2.00534872      58.28231987      11.76353211     -31.92167786      11.22298076      13.16594431
S        1.70971566       5.98927421      71.88477139     -28.52525889     -11.99713826     112.24983678    -229.50588363    -134.30568012    -136.62878660
S      175.16903948     387.10397766     220.41374268     865.77671698    1987.73749460     861.89419528      10.24171318       3.69414173       5.24713262
S     -103.26245134     108.30966915     210.75528034    -663.38184437     418.79777292     641.01346459      -1.52968512       0.16844091      -1.20782484
S       69.99495066    -101.06876172     108.96760929     350.17067859    -557.69873026     281.25445291      22.38833556      21.47703564     -26.20541867
S     -613.93407651    -236.00355265     -47.35668415   -3483.92055404    -991.55622990    -257.32927824    -237.06919888     261.40042235     291.64246906
S     -183.07258571     457.24311705    -127.87808240    -974.48641685    2321.52605570    -953.00732242     -22.23793018     -12.97867531     -94.28415523
S        5.21042724      14.10169594      51.88928768      36.25271484      72.42499208      66.79369689      -3.27726993       1.14324263       4.66682400
S        1.86512698       2.38447610      56.61258013      32.14614540     -15.04353406      11.59515992      11.19542511      -8.26499599      -2.94458008
S       10.16162366      -7.57852354      39.09573336      33.02867525     -41.63298005     -47.82028408       5.58314477       6.18982879       8.29242227
S       88.96860184    -311.87941240     351.19270092     398.91000645   -1600.15256992    1526.99759597       0.97268974       3.72955015       3.60530437
S        5.75462267      19.69734502       6.66402785     -31.62189458    -109.55713365     -90.20285549      -1.32239733       9.12631922       3.12501856
S     -265.50156637     481.56267415     218.00752570    1662.13155473    8693.87320126    4307.91043625     -11.21661207       6.80725264       2.96042020
S      269.26132006      29.08024712    -120.98507554     712.51983434     532.01981982    -625.81086384       8.03331221      -5.53717434       3.20779373
S        6.19141827      22.63477200      43.37794755      -4.20080985     -22.48320640      51.89526350      -4.51685127      -0.80448750       4.93995800
S        2.48296825      30.99410691      41.60361298      -1.83014715      86.88908753       5.01500827      -2.45309782      -0.80261411      -1.01823042
S       -4.49523265      19.62016393      53.27450955      22.98165795      18.71211901      31.38048828      76.19394984     -14.85925680      69.43903054
S        2.83329090       6.76050174      49.65033950      68.36458827      65.60905548     122.95065980      -7.28661599      -0.17678083       4.74648011
S       12.12507086      26.22594100      52.40890627      37.52017352      59.93930714     101.47684795      -0.79354605       1.72186125      -0.59430334
S        4.28446804       8.81243488      44.32944717      12.42991125     -55.44337929     -45.38622287      -2.41995670       0.41591320      -3.89566223
S     -160.02064769     224.42373178    -119.07519410    -842.48466371    1098.59223898    -924.76421522     -27.59110722     -47.79463797       8.87426508
S       11.68784463      -2.36431763      15.40922351      34.13010348     -59.94626013    -167.44428176      -8.84359048       2.78042194      -6.27559429
S     -168.65073361     879.72480528     443.26924131    -882.14273330    4677.49082141    2839.99567264    -506.87101079     219.39078310       5.72270115
S      -14.64633467      35.09569390      26.88419047     -70.62854080     117.52787839    -134.50338985      -0.41399121       4.05063211       0.69063630
S       24.48304930      16.98869682      68.82247816      71.29693025     -39.89822176      39.43882585      -0.68215975       0.11387792      -0.95154581
S        8.18628591       7.56617440      44.01275067      -4.28536338      18.44623499       2.18721896      -0.54639027      -7.68636202       4.62648118
S        2.69795776      -3.63292890      53.60672759     -10.98524018     -10.11634690      26.33985360      -0.30704419      -1.21682990      -4.77959163
S       15.97895381       1.58793664      41.63440062      11.60420192      -0.28828804      14.87780451      -0.23802003       0.60260922       0.66837929
S        9.75186473       7.57347285      49.43735881     -58.69732872      -3.06889802     -35.08705581     -17.56510936     -20.72903519     -11.02326374
S       12.11367732       2.27634995      40.57322532      24.23046878      22.07961320     -27.24532989       1.38154192       2.78572718       3.70934002
S       23.82921029     -16.94392347      45.23414985      79.40715965      -4.72771245      48.77564768      -1.13777817       0.89501515       1.23690438
S       21.37303715     -11.73435041      45.51496578     161.47266668      -0.35891992     -42.23335375       0.19111010      -1.09692074      -4.46727326
S       13.76896107      -9.92812245      75.65767929     -38.69854497     -53.81397791     131.71595864      27.78669113     -49.83870724      -7.96462616
S        6.45794946       3.65698693      51.76626149      60.27342725      43.13411959       8.12712505      -7.53529605      19.59308539      -0.74284971
S     -120.73390386     -86.64894021    -128.52668868    -669.94282204    -405.92136368    -940.02963237       0.25484275       0.73795622      -1.43513159
S       12.90469758       5.61435935      49.19636209      24.11237245      11.60349146      27.69336667      -0.93903615      -1.43957908       5.00753063
S        8.64365982       0.33604139      50.58214047     -24.83890353      -3.54705395     -40.71757802      52.74875221       0.12156515      25.82716179
S        7.30200207      -0.38361132      59.34246980     -18.15359247       3.44660659      76.08339228       3.15885808       0.81581680       2.01775078
S       34.24463525     113.75012430       4.56988532     128.40483414     863.40941289    -358.99809269      -0.32609055      -8.12443052       6.39997993
S       11.48587690      11.14093872      65.32881452     -19.47537564      43.70504124      67.37417496      19.15127843       3.78343208      13.49460311
S       11.62936784      -6.95614781      56.87175349      22.65092879     -27.31077767      34.76530973      -2.64408281      -6.23410886       1.17035586
S      -65.31978146      48.52658381      -1.98688776    -114.62615483     -21.36241376     -63.83957392      -1.19386439      -4.54277668       1.26616869
S       24.05376292       6.83188727      46.53966821      67.90130109      10.02180384      -7.75576835      -6.36493680      -3.36136585       5.17485199
S       11.48235525      14.75630404      45.45751159      -5.19229859       3.58509425     -12.29812322      -4.01574054       0.56637936       2.72473522
S     -106.68691833      87.53294362      86.88006351    -321.73501044     196.96703238      65.93979724      -5.15332250       1.88871472       0.11781618
S      -21.62717155     109.18419689     -26.73437313    -101.22969286     216.30146086    -233.18086535       4.12917258     -11.17385693       2.41678181
S       17.86121870      14.83588774      39.27119514      53.68188052       8.97706791     -76.74127081      -0.53485366       0.16577085       2.05471271
S     -228.22255936       7.92918277    -106.49227661    -628.65610319     -31.81001592    -375.06501407      -6.70998804      -2.20711625     -10.60408010
S      -82.79256308     -58.70967078     -81.15975434    -537.28266566    -191.90998990    -229.53577599    -440.08172322     182.23970076     211.02344846
S      351.08344255    -760.64028579    -284.74275954    2023.04094901   -4579.23126792   -1880.12192474      20.05343294      11.11840692     -15.31548649
S       11.67724574       7.14535072      69.06224928       7.01165638     -12.22380573      28.03043189      -2.70138708       2.36869194      -0.34798589
S       18.11970841      15.54295030      45.95225223     -54.97410224     -44.96031565     -25.88872634      -1.08136219       5.78270454     -17.72139509
S      -15.50722873       4.55201305      52.00022243    -173.92192556     -22.08352609     -41.10520681      26.25316945     -28.42352468     -51.93159039
S       18.32193566      18.31329084      57.82760980      51.44688077      22.03055299       2.75714611      -3.28000797       1.15013779      -1.24643425
S       -3.08881154      35.83344046     -31.13411079     -85.16643871     128.98326230    -460.04479008      63.03947653      91.06332717     299.91705685
S       16.94874826      21.57158189      53.04298071      58.63416250      20.41749469     -33.16948981     188.99396217    -233.73710668    -273.75007283
S       15.17556083       2.63579496      55.76550020     -22.85717758      35.33252988      -1.35887000      -5.11816523      15.10683927     -11.90328053
Sb       4.88866193     -58.16920701      15.89315432      68.81115743   -1001.96501168    -861.80758102      23.02622326     -25.00566400     -30.62364443
Sb       7.14609520       4.55674639      47.10106380     -17.75158523      64.97628149     -72.62056710      86.14840062     148.56467942    -192.41216893
Sb       4.06531808      14.10077729      54.61746262      50.34407197      44.11325488     112.59371925      14.30465916     -20.79518712     -53.11623167
Sb      -6.14902205       4.19972803      48.45837019    -217.04479204      64.59787942    -106.08947708      78.38617670     -84.61803565      -5.43380563
Sb       0.03366362       7.63942547      40.97194751      -7.35191982      25.71024332     -17.01420857     -19.41300709      27.00580003      -9.79082838
Sb       8.68978552       6.67668573      46.58251323      19.33535923    -130.50978193     -60.84622392      96.16398973     -83.41555617     -34.93304381
Sb      -2.15587156       3.77742269      52.08702876      30.26813833     -45.77255131     101.87161466     -16.48196454      32.56799537     -35.56769105
Sb       9.08322881      11.73194909      53.14345313     -64.47095986    -123.54113698     -15.01549570   -1121.94815007   -1125.63100617    -890.97839974
Sb      16.17715231      34.72720049      47.56732233     217.28206299     356.67121806      64.69018213      -0.65710967       9.51108864       1.80384155
Sb      13.22294665       0.58008526      45.18775057       3.49779182     -49.07458385      65.19129232      -2.20697274       7.74737795       3.76252423
Sb       7.06454809       0.74110967      50.20160065     -15.03588817      17.79396022      16.23584669     -77.67392128      78.83235149      20.12456297
Sb     -52.62937895     -53.22076411     137.62206870   -1185.96399101   -1172.78859946    1674.21099394      66.72596092     399.95520407      -7.67385099
Sb      26.26128716      18.34914642      47.99697781     101.15238369      31.68435180      42.87660311     -11.45424407      -1.03439361      -2.25779818
Sb      17.69568568       4.24957787      61.75400354     101.85905409     -39.41187945     124.78311133      -0.76705182      -9.92896511       8.23563309
Sb       4.41506627       9.44559125      55.54173238      31.12909964     -15.59866382      63.99304646      -8.40517448     -29.64647696     -17.03204101
Sb     -39.75390837    -100.05511108      41.96940428    -936.43967916   -2152.72016708    -223.60618785      -4.91492257      -2.61107776      -0.00255491
Na     -16.26181851     -74.41384312      47.82112851     -90.78637647    -186.67752812     -62.75737064       1.82617074      -6.99827015       4.29875913
Na      -4.01353719      17.82589164      60.77202208     -77.17794042      48.46057845      52.25044895      -3.32064645       6.74592662      -9.35720419
Na      12.97069635      -6.61404931      58.42420534      30.97204955     -36.09494790      30.15599200       2.53120359      -4.31369659       6.64767325
Na       2.52514302      11.80903307      33.64758588      31.18438936      37.40788743    -115.35752936      -2.34444270      -0.08573888       0.15423209
Na       5.65231782      14.83886533      73.26266105      -8.57303716      21.88586456      32.52461660       0.59713757      -7.43696744      -0.10209223
Na      13.42346447      19.10553466      47.03187196      62.58059911      31.51491283     -34.19495940       7.01263479       1.43110226       0.80900328
Na      49.00897200     581.54170833    -583.61714213     400.37269986     229.68977397    -465.95379790       4.95997199      14.05402073     -35.41050299
Na       5.88519754       7.36718389      69.29290291      32.37379222     -32.26488734       0.32353526      -7.29176713     -11.08340582       1.68797495
Na      -0.38754451      -8.04925398      36.75255001     -41.50761286     -23.40819460     -55.04021473       2.52114839       2.25599538      -1.48143862
Na       4.22285177       1.91037538      75.34159748       3.38146740      -2.27835058      37.83672909       1.65720002      -0.83122831       1.70663654
Na      -2.81347637      -4.19064410      64.61971094     -17.53914711     -11.55620195      -0.23358844       0.88643342       0.06812410      -0.96681738
Na     -84.21569415     -96.16459939     -18.11280563    -494.65217373    -577.47067270    -481.63951785      -2.04071909      -3.78256379      -1.13693331
Na     -46.55795907      -1.73341309      79.03003982    -163.64878970     -31.51375225      46.30953840      -1.50756955      -4.14813098       2.37228140
Na       4.87435986       8.89095376      61.77111642      16.43584973      28.55488326      36.96457353     -11.83293916      26.29288066      27.60959115
Na      -1.55406786      -7.27977509      32.39794937     -39.24044678     -38.57748965    -118.36830895       7.69628230       5.39634439       0.33876819
Na     -15.17889768       2.43316757      62.11953373     -58.59031739     -28.51813283      36.94685550      18.84351967      20.50685457      11.52122614
Na     -58.43198574       1.72376036     -85.99791676    -138.24356286     101.66097907    -454.54525985      30.73377357      50.98065756      67.84946358
Na      82.73160032     -70.76428377     128.72938219     277.92660138    -268.72679423     279.62499181       3.24321851       0.76019663       1.18698098
Na       5.46617988      22.49334372      39.22349874      17.70162682      20.89001323     -24.13389997      11.60684813     -18.44998942      36.05289578
Na      -0.85860113       8.07207427      67.45443414      -2.10880521      -1.21044593      -6.31571282      -2.32728197       2.10066811      -1.09551734
Na       8.49441691       2.76036082      69.38054207      21.70530958     -22.67336376       5.24282078     -11.36198515     -13.24611976      -7.31090328
Na      36.73573860     -43.91923601      64.24816591      68.04002630    -139.00072018      -9.25847851       5.31671327       3.57042818      -9.64050452
Na      15.63533899       4.56938361      77.38604483       3.51694070      -6.31978948      18.88518938      -0.49033892      -0.05468473       0.45139698
Na      -5.43386489      13.99016032      79.18231124     -38.04407487      25.96941157      65.49168470       0.35831607       2.87240185      -1.03185406
Na      41.37632364     -11.95759017     130.45617120     337.89544699     -68.04037220     393.27745929    1020.28562509    -649.55510070     748.82468664
Na    -146.93371252     -27.29218112     170.38925891    -513.08348131    -183.18157228     383.44188096      -0.98866209       0.59859546       1.51346755
Na      -9.95503654     -12.96167755      -3.73352492     -59.70885185     -33.69314566    -190.49068254       5.67165232      -9.41246818      -2.56125222
Na     100.41247728      -8.24691384      62.44015375     261.15872141     -45.89044436      -9.55309095      -2.58120181      14.47033556      -1.44621523
Na       7.29801707      12.90541055      65.47566130       8.09546933       8.55042253      16.22558845      -5.23597170      -3.62144635       9.12478768
Na      10.15341135       6.92043404      74.70374844       1.05622832      12.55614853       6.86002940      -5.30959578      -3.70237703       0.87070078
Na      10.32489610      12.82836098      77.73083818     189.51163111     206.54859152     339.32894417       1.47467353       3.47443427       2.29989488
Na      14.52251453       3.22104996      73.84795103      20.17392824       0.99209636       4.44697036       3.31402614       9.87561935      -7.30907352
Na     -10.81415372      57.07783518      86.61464104    -518.56424439     795.71021129     433.00429177       7.57399672     -14.04635290       4.48726238
Na    -288.88199488    -145.44392568     134.23760394   -1064.57417325    -480.14693598     226.63402700       3.11521807       0.97506369      -1.83656147
Na      15.78023295      32.56478223     122.17839084       8.34858522      35.21371206     108.14180982       3.91255073       0.74474526       3.07100003
Na      -7.33437340     -45.45619714      69.36726910     -89.16732759    -194.95447479     126.77214253       4.19624888      -5.31544028       2.31366613
Na      68.35174699     123.43390952      46.36849521     215.92793445     435.06777829     -54.86864050       2.66346989      -4.37777227      17.32136660
Na      40.49767561      -0.77731866      58.63979777     190.19209077       0.17698793     -53.93754318      -0.17280610      -0.06352453      -0.57996787
Na      10.84444364       5.77507927      15.17575595       4.21087050       2.48335619    -156.26813031       2.75194765      -0.35547276       1.23246050
Na       8.40846081      10.41865216      63.19001606      -6.61253960       2.40753044       5.05411207       0.70115539      -0.28664755       0.02411720
Na     -64.98831106      28.26458085      85.10001955     -80.89438827      25.38836980      39.90791342       3.88454517      -1.10632466       7.45901872
Na      15.46510673       5.51580694      64.08177711      19.40072836     -13.37162027      16.85693415       1.71232058       2.61425733      -0.46876474
Na      29.41479597      20.03432309      64.06874923     209.73769227     119.64069831     -16.13890682     -21.30687231     -43.34390173      -9.46049854
Na      14.44716447       3.75958879      64.39275815      -1.36962662     -12.15729457     -13.99211316      -3.12320219      -2.78676633      -1.44963660
Na       9.09080895       5.84342947      64.03380344       0.18468707      -6.75536645     -17.68866804       2.17093501      -2.06975844       0.44323693
Na      24.35968060      61.16196915      63.61097569      10.76629709      73.22393241      46.20734189      -1.81057751       0.26193410      -0.52674938
Na      25.80013191      10.91261051      47.99127475      31.68840427      37.37417199     -45.42774968      -1.51557821      -0.72269928      -0.13160812
Na       3.33429605       4.54872194      81.04512424     -22.09972368     -10.61124723      26.30600025       1.52758783      -0.27377967       0.40742268
S        0.72541190      -0.96084939      48.96486324       5.40288747      -0.52529322    -117.19855056      -1.45190577       3.79417826      -5.89685801
S        1.12615509       9.23867537      65.92089870      11.77621701      21.90251606      -9.53319878       0.22705425      -0.39505880      -2.32093866
S        4.82348182     -12.98252656      62.09420352      21.22977438     -52.30558275     -22.33429643     -12.58623452     -11.97068846      -2.83559085
S        6.76271010       0.98674172      67.43413632      15.00165511      12.74071977      -9.79175502      -0.63877493       0.13901741       0.84725442
S     -310.40338246     125.34530598      -6.99234311   -1270.47452070     457.70531956    -269.40086481       0.12566253       2.21254630      -1.67430488
S       -8.71445530       3.85527361      69.21286425     -66.90761321     -73.92081748      80.43040924       0.44581672       0.56018834       0.86405529
S       33.74865618      71.53214569    -116.02399912     159.54989014     360.38631816    -835.11677686      -1.50408321      -1.45368187       1.17238510
S      -68.39776978     -40.86927818      -9.76615736    -431.67528437    -285.13585997    -527.57896282      -4.61860460       3.15665502       1.68274669
S        3.88696251      -2.57045534      72.41737282      -3.35115429      -3.26961387     -19.79006375       2.23974873       1.06240782       0.23378923
S        3.16210461      10.59691717      78.67872288      -5.85158401      61.58689041      28.38720247      -2.34443447       4.30655091      -8.40020858
S      143.27756545     -58.11372877     151.62947362     538.88545677    -213.22482485     345.57933004     -10.61601498       7.74013014       2.17224370
S        4.53383800       1.05223866      78.97620168      -7.26031236      21.50390884      19.24917735      -0.63487198       0.26163314      -0.62097132
S        8.77655896      -2.06950717      65.21501651       0.48674777     -42.64005538      -1.91479032      -0.05330936      -0.65968425      -0.46643165
S        8.19230501       4.99423270      84.32944590      21.67417319       7.12791100      52.51761599      19.89190746      20.80783014      -4.54202078
S        4.32594179       6.30445297      63.78077813     -28.22952154      -4.26437492     -52.48513204      -8.26564355      -3.84796009      15.11233723
S       -0.16182007       2.90351291      73.27010059     -19.85369467      -7.94872961      14.17318447      24.60207121      14.93311039     -29.70450653
S     -439.38857365     250.16179547    -458.04890139   -4892.98884841    2958.24851107   -5785.65293844    -245.09847273     -45.05002068     125.86045677
S        8.22912326      36.38628740      65.02546156      32.75209698      88.59417495     -57.57227948      -0.84988792       1.05456194       4.47178761
S       -8.26728172      15.03766597      71.89780861     -48.20300584     -47.82580448     125.03794444     -86.90215810      46.24769739     -25.46371343
S        6.42276054       9.16365816      69.10341864       0.05820090     -19.99514401       4.93108156      10.57054883       6.23237795       0.03807096
S        9.31733441       4.23097967      69.12295757      61.29777575     -32.32902101      41.12460461       7.41734319      16.77267970      -6.47894976
S        2.07172944     -22.76705530      92.42798221      32.00672950    -206.88238842     205.53015419      -2.43011907       4.20419094      -0.13852730
S       -1.79029856       8.68946711      53.53521394     -23.82788042     -53.01885494     -14.36967869       1.07067263       0.20703668      -1.14106082
S        1.56032447       7.30085772      63.96639813     -12.18427271      -8.59802922      16.23105680       0.70473454       0.66761831       1.23445097
S        2.80971477       8.34749577      69.19850746     -14.22753436      -7.68650468      20.52281626       8.75423467      -7.20104208       4.14080346
S       -1.50931455      26.50663284      63.31950976     -23.08292314     -10.75899322     -23.12707612     -11.95012093      -4.06515630      -0.74042563
S        6.72271538       6.32330777      66.75785423     -25.39935889     -18.18769008      -6.60056994       1.84262521       0.60175408      -2.24031822
S       -1.51028845       8.46976529      72.42414892     -51.71081090     -38.29424586     -81.46158893      13.08929016      -7.09088525       1.65120052
S       -3.50819710       9.20778681      73.26371915     -84.67753269      22.47856315      23.27672143       1.55050319      11.83667248      -2.66876202
S      690.78681579     256.31245277     504.80557768    7732.55411862    2768.58328415    4923.91335313      -0.58459036       6.02087293       0.05753398
S       12.81121834      18.74375882      78.07778974      79.99454927      -9.22783950      65.17843051      -0.35492240       0.35744257       0.00483845
S        6.29960617      10.71189532      72.90338038       6.83292418      -5.17754634      -2.97034300       2.62502510      -4.29632825       2.14713036
S      -31.51924334    -231.06647838      35.70251057    -678.47202520   -1205.02912230      -3.03208396      -1.64172883       0.13271585       0.12036693
S        3.82011867     -11.74659506      80.77443373     -13.17498950     -20.78406037      57.88764463       4.11642657     -25.67448341       7.71001765
S       10.71053776      28.98649473      38.81383542    -323.87892601      14.89443002    -223.68797502    -118.70134203       2.81106905     132.77341782
S      101.18189022     285.83326676      50.25621794     418.91982597    1021.28254446      22.63512659     -29.30793273     -11.37099262      39.14640526
S      176.17552361     201.96497520     189.22083870     752.70521148     855.74241241     468.86486596      -1.43950301      -2.95413039       0.60467868
S       60.04484300      54.95293263      42.35447895     170.56338418     302.13993433     -26.04351677    -136.92871264     711.25215638     296.59852694
S      150.23898595     -30.78065054     287.47713369     525.89924443    -139.05085224     884.00722641       0.40031328      -0.80212491       1.19511310
S      101.16069584     104.96422146      69.44079714     433.73860407     392.14985165     120.22425628      44.54217349      71.87792446     -39.87683740
S        7.53633003      -3.36350877      68.96647851      -8.68671400     -14.69710775      -5.90557470       4.98252134       0.06332493     -39.04498342
S        6.94778168       5.73862500      75.37369797     -18.73681774      -4.77208166      -2.05476764      -0.79737979       0.79223145      -0.01523996
S       16.36311639      48.60111174      95.92403742    -103.86714426     212.57496561      37.40066518     -10.31011205       1.66991404      -9.02215278
S       11.11601225       7.99994600      80.20152087     -18.64050149      24.51496194      34.91290941       1.07346957       0.00005625      -0.42289496
S       12.50504091       6.87675255      74.85708664      -6.08227872       6.73545335      -2.31895244       7.68683421      -1.03713429      -7.78392466
S       11.89508365       5.67117249      76.81364556     -13.46377606      18.15515537      46.55362099    -112.21515171       5.72256427       8.18183139
S       12.08425915       9.45230352      74.00738031      30.07407362      10.83425494      18.75542303       0.17906025     -51.36579022     -38.39918458
S        8.66873391       3.56266263      73.77542076     -13.18039101      14.77738827      12.86188428      -5.72634561      -2.97660251       4.28152786
S       -4.63897977      11.80627514      73.21353414     -57.38973554      13.07719330      41.41988158       1.20638254     -16.77090893       9.78658648
S        0.59735933      12.12161369     103.13833837      39.75389437      -6.81948784     348.94923178      -2.29559854      -0.75825911       0.22639369
S      639.76248588    -531.69698460     200.28524451    5340.88912471   -5473.75683440    1278.65638971       4.19080273      -0.82142111       8.98053281
S      253.66660620      12.62690550     228.27545482     815.06388623     -38.37780941     461.35370431      15.06281913     -24.10433871      17.55032844
S       14.20930915       2.89964903      59.39507010      19.87732385     -19.99727353      -1.26972083      -0.63981488       0.29550829       1.14886119
S     -100.68642884      10.92799322      34.75897769    -208.30226103    -185.82331393    -158.74593851       4.98827887       5.49657480      15.45635807
S      184.50609084      79.10953823      91.25008923     545.47193758     219.19987440     210.97265341     -19.94740821      66.79697679      34.05315339
S       15.58969983      14.63328329      72.41913812       2.86723108      53.48232595     -14.75026055      12.52272829     -13.41948452       0.26340935
S      -10.59043394      15.28825219      98.83357175     -15.47934550       7.89476193     113.79219269      53.50962316      16.78860886      -2.80753659
S      381.24729971    -311.86219227    1000.73664766     305.44067943    -400.27730890    1946.47676870       7.99136703      20.79406597      34.47601769
S       21.31963645     -17.63679605      27.92968065     109.99199448    -370.09568576    -319.53234291      27.52707053     222.25680788      46.62026912
S        7.68941108       6.58541078      86.52552739     -18.81295045      -0.98186115      50.01029319       3.81628459      -0.84095967      -1.54519597
S      -17.26321170      -0.40167816      71.67270510     -23.53690043     -37.37791718       9.58950857      43.32213629      -3.11134791     -25.12073495
S       20.27330766      14.66772553      75.86291339      48.38544931     -26.33970595     -12.68765029       1.32175062       1.74070059       2.45193406
S        3.92229765      14.67529186      56.47612943      -8.55760292       4.83381952      10.48806156     -10.59077160      18.73590742      61.43979835
S        9.71185575      13.21395926      74.58234238      18.45950244      -6.35911374      14.52250973      -1.96872324     -16.01672204      -8.33761471
Sb       2.20094954       3.54667573      74.96234882      86.24716969      66.85601726      22.89405698      -6.68456002       3.57720766     -18.94242703
Sb      11.43906267      15.24093787      54.98491252     148.11506301     202.51108269     -47.32728817     -12.46140567      12.81576348     -11.08480673
Sb      11.16673268      19.01591810      59.16502149      75.19102155     107.81461984     -62.85331467       1.08893922      20.70134210      -6.24755360
Sb       2.41681143       6.47845095      72.37654819      48.78120407      -5.45702478      67.36291867     199.72511552     123.08888113     127.50794627
Sb       1.81725938       8.77683598      61.62713608      21.67447830       2.87918195      37.65382800      -3.19939511       2.97684259      10.19579282
Sb      -7.97856172       3.03396582      51.03707027    -329.97043219    -211.27359377    -223.94618187      31.69362831    -119.46369791      38.78934405
Sb       2.78536652      11.58352966      64.11331392      54.54918605      72.84957135      -2.72329112      -2.36631867       0.08052057       0.27954071
Sb       4.59692948      10.03690252      68.90288395      35.53408564      59.37046451      -7.06863069     -11.35643409       2.39272769      -0.32946069
Sb       6.45491077       9.27508990      43.17856059    -100.31084748    -184.31490102    -322.35013185       2.37905547      -3.76627500       5.67109184
Sb     -39.44976888     -42.69010201      23.71144457    -644.42498657    -770.35720365    -636.63279160     176.55881144    -266.42209074    -477.10951943
Sb       6.83566394      -2.55463854      62.73487609     -56.54443590     -43.34337026     -34.62249319     -23.22330311      33.26320966     -20.40148723
Sb      11.10945209       7.70036788      72.55593158      41.67368131      15.22634289      45.49188957     -59.68541639     -18.55508134      47.18773704
Sb      39.56790444      -5.33630174      55.80239588     614.09649895    -539.26646436     234.42731802       3.13844127      -7.65772010     -20.45436940
Sb      18.88208346      25.65566923      58.19986356      26.35233780     118.35607968      91.83603732      11.56871692       8.85238665      10.57519267
Sb     -14.95387737       8.59213022      79.62244466    -346.11668630     226.08502985     467.45999692     -20.14916861     -22.54277617     -21.60071603
Sb       9.83083190      10.35387913      72.45784270     -15.45849170     -22.02500661       3.47786636       1.80918446     -11.77537175      19.52362383
Na       8.58746276      18.93650481      25.44481056     -10.51980276     -10.54298562     -11.89374961      -1.99290270      -0.43909672      -1.85281364
Na      -0.26097955      27.95746811      30.36839067    -101.27462548      24.34362922     -10.37570050      -3.71393447      -9.24395929      11.85478172
Na       1.06626309      18.24080392      36.96312654     -24.57207579      47.80472136     -29.55214945      -4.37451676       3.77704822       0.12388396
Na      -6.21181821      24.83051348      22.93143718     -21.11784874      41.94829518     -24.51801800       0.02803564      -0.77554950       0.34804991
Na      19.43610346      27.55270778      29.58227113      17.78297487     -10.89521072      -8.07753723       7.97928892      -0.45856153      -2.64448696
Na       2.93277476      17.49944045      18.05474090       1.18303079      20.80271373       8.74361149      -3.35580630      -2.81520973      -0.06376147
Na      -4.32384640      14.53324597      31.86728557     -10.40016894       2.48248604     -22.45834377     -49.67785501      52.18041919     -73.00561154
Na      -1.13970996      14.34059131      38.08539752     -32.49580348     -33.55963952     -37.35181501      11.21623831     -14.85759141       3.07919162
Na      10.68740213      12.79262298      34.66427970      40.84130770       1.56657991      -6.33070296      -5.19907823     -15.09880505      -4.63193275
Na       0.27657018      15.29641221      34.81037109      -3.92773219      -5.59879890       4.13145610      -7.50954284      -2.60695940       1.63175816
Na       6.90793802      15.87031008      34.53275394       6.64817034      -4.25892079      -5.86024354      -1.95644816      -1.60650522      -0.89733681
Na     118.13941293   -2288.09463806   -1980.40358359     110.52492209   -2519.17390505   -2135.58618324      -3.92880253      15.97439716     -21.14722815
Na       3.06924138      27.17103816       4.25877030     -73.74926618      35.74843114    -141.69400465       1.32923157      -2.01029964       2.23439932
Na       6.92749299      -4.45821281       8.37377631      21.06124787     -50.43793568     -52.60570200       6.89139286       0.17997057      -4.18049150
Na      -6.56586944      30.38344596       2.72204702     -42.96038582      30.12807917    -227.64723394      -1.74535068       4.45816094       3.88177938
Na      21.82971845      20.86309957      37.10564522       3.61418949      -6.36609143      -2.97954542       6.41250603     -17.24905160      -0.68947943
Na      17.55469691      22.01641164      34.97449305      -4.12983789      -4.89471171      48.24303568       1.85263101      -0.61674934       0.68860338
Na     -10.73045841      31.78137362      26.60374549      -8.47787776       1.87373266      15.90444163       1.77778189       1.74497510       1.38465986
Na      32.43763317      56.93939304      18.15502700      86.78200725     219.35245618     -90.63243238      12.95023134      46.20155317     -50.11810911
Na       5.17520060      31.93616038      26.80940744      34.02550564     127.60331379    -166.37453719      -5.86174257      -4.62419928       9.81271054
Na      -0.11835626       5.35740849      42.97335799     -15.67012421    -107.54659891     102.94391873     -42.55703559     101.61224249     365.53197205
Na       6.74157741       9.17087437      48.14779949    -146.43932432     -70.34622451     141.66314901      -6.73310321       1.29828958      -2.30646690
Na      10.66376727      13.12095633      24.28595858     -19.44718000     -35.56591747     -45.07075369      -0.31203377       0.03380800      37.20299025
Na     -33.05275480       2.25935494    -144.59831956     -50.08470545     -17.76537353    -349.21492950       1.11992265       6.25404343       3.70386392
Na       2.69439135      13.84475363      32.47725390     -28.74860489      -2.71354760      27.42889902     -10.33930974       2.57174971      13.00839068
Na       4.59322608      28.93697524      36.30106821      -4.16444835      -4.88181949      -6.11691639      -0.13873463       1.66826277       0.43718757
Na       7.27161685      16.34678347      27.94688541       0.97235870       9.74098240      -3.07954184       1.85841981      -0.08475696       1.23096836
Na      12.20478727      18.50683759      30.35971787      19.60824509      -3.48398356      15.79819596       0.57388673       7.49396731       1.73278932
Na      -3.42559759      33.41053605      25.96715888     -14.83326278     -15.49117796     -12.44067605       3.22868745      -0.50642238      -5.69213681
Na      18.80909659      25.72959563      42.10721750      24.13484870      36.52426031      16.59615234      -6.20865637       3.31631975     -14.45615657
Na      13.61824865      18.27569512      28.48115975      -6.05031755      24.15346811       2.71459856       0.19390970     -10.19274738      21.16272672
Na     -52.44043375     -75.33216486      56.25127534    -198.73994241     -47.61293009      -4.16690317      11.63870818      29.05768546       7.37109487
Na     242.64824733    -427.19433847    -117.57700395     629.40381836    -508.78999370     -88.39791494      -0.18956320      -0.11654986       0.09447954
Na      14.79887260      21.49644383      41.28696067      -2.79722013       8.91156955      11.05641775      -2.82677292      -2.55903120     -11.88656614
Na      13.13647602      33.49131378      40.48914083      43.56997838      -3.56855492      18.94295240       1.70673748      -0.40528433       0.88970204
Na       8.66012486      18.86608588      21.18824823      28.02856771      38.27533175      -7.48132638      30.90366381      67.55772898       7.29227157
Na       6.23076385      29.48339229      28.46864987      -5.03678651      -0.84831844      -2.62524813       2.05716951       0.23911991      -0.99227794
Na      12.47425637      16.85744410      29.45249622    -100.83494655      47.68150996    -109.08095166    -967.48283587     615.32488495    -805.82651643
Na       9.12797614      20.32136282      27.63637972     -20.73228083     -18.02042861       0.22565010      -0.04155147       0.17910306       0.76174623
Na       9.78644579      26.02066032      25.48681474       6.67921327      -2.31230777     -16.86124297      -6.23782991     -19.45125968     -11.07161873
Na       6.02991987      20.65908926      27.13960037      -5.89483622      -0.78328174     -20.10267452       3.48605752     -14.52902172       3.47656509
Na      10.52064915      36.02538749      38.66905591      -8.79282847      13.33888167      24.39966457      -7.32171222      -4.49921723     -20.06876646
Na       0.84790095      24.00865253      33.04361396      -7.77756625      10.00515609      14.04857869     -10.38478525      13.39659323      14.70106441
Na      21.52842994      26.09681012      41.24339540      29.54173161      23.96148612      25.66498193       0.19405817      -0.10722976       0.91336883
Na       5.76723166      20.93224940      33.83129623      -9.75173332      17.28726250     -11.25033785       1.55316936       2.71491019      -1.60450010
Na      12.92005981      27.86369649      43.21869144      22.29256325     -10.19492555      10.63422909     -36.34617919       6.92621333     -11.69457324
Na       6.31020595      17.68827417      37.75026275     -11.36850691      -1.18937970     -10.88347778       0.62030432      -0.94748815      -0.17723799
Na      17.30847422      27.13687752      31.19710877      44.03042649      32.32139707      -5.09292026      -4.80472493       0.80429965       9.15739017
S        2.83528024      16.00374581      31.86283423      97.64573491       6.50978057     -46.39486972       0.58031764       3.67555785       0.25799443
S      313.34065023      48.23812483     107.27595284     689.17585393      22.81972530     270.42114662       0.30204046      -0.18535888       0.37544349
S        4.51519929      19.31693739      19.80856665      -8.99262916      19.34398542      -8.92569941     -19.04720238      42.47024288     130.21224664
S        4.71237911      19.73099527      25.97893724     -12.06474402       0.14840332      -4.53407150      -5.35794976       0.37733523      -5.83583790
S        8.16381511      18.12497102      20.88370358      -3.36400618      14.29498425    -110.83956184     -55.11733500     -19.92584001    -108.54256399
S        6.86752866      15.13487941      25.99740913       5.12047689      -0.63197439       0.58477148      -3.82635017      -0.28343462      -1.19259240
S        2.56073372      11.26810501      20.67091350      11.86847049     -16.27065271     -29.62139891       5.97709778      -8.57845343      -9.34040338
S        4.90777630      14.11657574      26.07103801      49.78434195      33.03382117       8.84673167       9.48241386      21.22973391      20.66474382
S        1.73917415      16.01029955      36.36270215      -6.94165691     -28.81209535     -38.38892067     -22.45404823     -11.69954497      -4.97810219
S      393.41280666   -1582.69628490    1045.20984934     553.04973425   -3230.23294490    3463.45661441     -13.40040348       7.65109252     -30.87626648
S       11.61921324      23.30149922      35.80975952      81.44028790     -30.93942161      33.79139238       0.05708782      -1.04134479       0.35043149
S        4.75472577      33.31483292      52.69119651       7.74699382      52.39622706      33.51802721       9.88708125       1.18995638      -2.09834935
S       -6.35913242      11.32130041      43.26404729     -14.89199610     -12.37262516      48.40063766       1.35914877       1.08309880       0.16880214
S       50.69324250      90.16022481    -242.55808660     472.12144706     160.46860651   -1396.32326943     -47.77759783      26.83179691      68.99018680
S       32.84017311      22.35950529     -11.53156390     767.14696088      41.11180101    -707.96807878      13.93858722      21.79492536       7.34073448
S       -2.25823374       9.47887601      37.42310857     -13.23121086     -54.06738839     -41.01292730      -1.93216928      -3.76262389      -4.47137714
S       66.59659800     -92.34559218     385.44892090     575.26305547     259.39626553    1574.57850711       2.75461416       0.64202750      28.97676077
S       64.24988902       9.93592323     101.39953694     403.07104478    -340.64587498     595.11612254       0.55235772       0.11967845       3.03567035
S       -1.91774832      23.54015699      18.90067305     -14.92183415     -16.05260252      17.84905551      -0.46536884      -0.72844875      -0.05223020
S        5.55275039      21.25592522      31.65453653      12.88110604     -15.27224434      20.06682630      16.91112228      10.15989608      15.89710573
S        6.39012380      20.52165889      23.46450403     -13.31774431      -1.78769799      -4.97396215      -1.33345595     -28.93343645      13.75692926
S        8.63583248      34.49605634      27.91706347       5.33652841      12.32327204      -2.37330554      -4.49699611       3.05544968       5.54718014
S        9.69735050      36.62535029      20.13523721      -6.80132839      23.55525595      -3.79539864      -6.33395790      -6.53978331       8.19830908
S       33.66879482     -40.65788778      75.03074063     -48.83999629    -284.78413211     151.04864922      -2.94656599      -1.81254616       2.22937104
S       -5.16019739      27.62013734      36.41872680     -58.61918726      39.10504607      -0.29462523       2.66136434       0.89067685      -3.64077545
S       -3.50715596      28.72659844      40.89967358     -62.83063204     -38.68627301      23.10276759      -5.83886825      -2.50504755      -4.80026848
S      -26.62522540      19.51529726      58.88445247     -85.25052928     -22.11516338     -28.18483933      21.80453863      24.15238341    -104.14230266
S        5.28402868      23.02423654      38.05838313      17.74886953       7.24995150     -14.65205065      -6.80712802      16.07247423     -39.64730648
S        8.20834253      30.88748443      33.74954031       6.51746949       9.46626490     -51.76219598      20.75411013     -16.66836670      63.64604450
S        4.58922429      31.97245583      36.85871390       2.93529420     -12.35713286     -54.29768215     -51.35864209    -413.19019038      30.87513723
S     1398.66844950  -17478.88204117  -12601.12555938    4533.16760039  -56811.94644522  -40914.21738923     -11.15149075     -22.19882651     -29.13850214
S      408.83122170      28.09792738     -51.23380942    1046.45620706      36.44270916    -179.61760786      15.88490212     -63.76285836     -14.34877466
S       10.98841803      16.08118106      27.65858266      44.82784704      32.60865607      -1.01577509       5.11643983       3.32115687      -2.68847878
S       10.29787823      11.30896662      27.56327825      10.07294490     -51.66487988      -7.82543154      21.86649560     -13.98155291       8.09276689
S       11.91604689      23.40502227      26.40054549     -16.07833499      41.38241201      36.71361060       1.43456635      -8.18300827       2.11562724
S       77.03931104     110.20767842      15.20735144     787.20891389     802.45664214    -201.46571160     -12.69134908      -9.20653450     -10.02584799
S       12.19086467      15.76352232      25.35680769       9.99593146       8.60589842       0.84725487      -1.49153610       1.15101915       3.84160950
S        8.04402975      22.38148375      29.42223808      23.82606455       9.40151528      10.32009451      -0.49730124      -0.95668907      -0.07911943
S        9.44181747      27.41944680      31.70920023      -8.80415455       3.27546129     -28.03146853       0.44365884       0.49353776       0.00114380
S        4.25572560      15.40559947      23.94912144      -5.65500954       7.80713944     -11.07792624       0.01059810       0.74435378      -1.56177018
S        0.56219999      25.24950842      29.84055756     -14.20889094      97.14082306     -12.30485816      -0.72358464      -6.85337507      -5.42965837
S       12.66562846      16.61820749      38.32930246     -15.81243302     -14.33198222      -5.99170863       1.23537195      -3.05438341       1.28694493
S        3.68188183      42.02478116      31.17150724      10.61928643      41.88489809     -31.30322528       8.86512076      -6.06911454     -13.77570115
S       10.07637883      28.82845613      60.31931261      15.69707708     108.15074269     143.06368005       1.11334593      -2.54603596       1.90739556
S        5.91523962      18.91221689      34.87824657     -14.03031903       9.66079439      -0.04108147       2.43983808      -5.04056470      -0.30885777
S       26.82998646      40.03445248       3.18660277     114.70367876     201.43520076    -234.60094839       1.23385072       0.57795313      -1.86700622
S        1.66752768      19.09343916      45.96116810     -10.99110262     -15.57756102      19.86291047       4.87574704      -6.98952285      -6.76442006
S       -5.51719123       0.48425735      50.03991648     -79.18912551     -86.64337334      64.13022652      -1.61947715       1.00301017       0.08524862
S       33.21237986       8.32800363      -2.15545801     -29.88301802       7.48553546     115.43878238      -0.31811771       0.35239298       0.05313632
S        9.62832872      24.14064781      44.97419335     103.70850164     -12.80200505      88.95359815      -1.78756422       9.05100613      -4.00669407
S       12.48588184      26.26038477      23.97521935       6.91639351      -9.66640243       1.89834744     -13.29793045       3.89738593      -1.41462661
S       29.91587679     -50.50195534      35.31619693     126.19675458    -631.62091887      53.07930859      28.00922687     -35.08118137     -50.89334501
S       24.33685930      39.83906321      27.99441106      94.22416047     112.84880178      17.09949129      -0.25543702      -5.76869763      -0.68335977
S        8.65822306      17.94796990      29.38002631      17.21461334     -94.69826436     -18.57217941      -1.55383345       1.47435072      -2.08409865
S       13.66089006      20.93938242      25.64306730     100.95896542     -26.31145628     -41.88839312      -5.66134511      -7.79564084      -3.24955810
S        8.39794460      24.13210507      33.71109631      -7.63083353      10.01760696      11.62331844       6.57588076       6.68150884     -10.28398895
S        4.19594089      27.27434533      38.16358196     -27.47894946      59.36056426     -25.70135723      -0.52717536      -1.23482119      -4.10106157
S        3.49814021      29.64557446      33.77439242     -48.21435658      17.89784048       5.55350136       1.06176308      -0.72762023      -0.64345544
S       21.52307197      35.39276782      28.33712257      41.50802690       9.88899159     -21.21826483       0.35670762      -5.33065406       0.20975396
S       28.75077823      19.62254383      27.05355426      21.07716917     -19.17326139      10.62833762       0.49149526      -0.32011359       2.87737415
S        1.47029922      18.33311705      43.34235239       4.08924801       3.85204681     -18.81893093       1.72686090       0.04458342      -4.44107744
S      -40.08369005    -137.38611089      60.86167856    -208.39516774    -796.21202058     166.38335448      -4.70045779       9.20349683      -8.30316243
S        6.47663378      26.46107298      42.15391962     -54.94106523     -12.65145157      39.09442327      53.41137333      74.80223891    -183.01530438
S       12.02407222      48.08006453      42.90769251     -49.67354995     108.70241408      -8.99677267       4.05322063       5.25275500       8.36694233
Sb      -2.60094166      10.66712493      43.25802816     -54.55011740     -48.31746006      55.20796071       1.54923562      -1.57963318      -0.93475192
Sb       0.87253881      20.15397942      25.21163116     -28.96191062      34.80058270      -8.77305839       1.83385222       1.36284616      -4.32335375
Sb       2.04462509      33.11914366      33.19258583      23.27012861      32.24325364       3.00162138      -0.65219099       2.44241955       1.61005479
Sb       4.45531386      20.59102899      35.68822133       8.45508924      40.61403320     -13.19951505      -2.28865219       1.69828308       3.91856175
Sb       3.36373946      23.46427237      26.21444320      12.14795245      20.72743112     -19.83579416       0.31342381      -0.38191976       0.81811066
Sb      -4.39774409      22.91740313      42.55498524     -35.20142855     -20.29267392     151.95300077       1.11222543      -6.23468520     -18.38959213
Sb      -0.63083019      20.86278773      41.83303152     -16.35881972     -15.75334572      94.89521179       6.66366091       5.34617296      -2.15009666
Sb       0.90353580      31.14277396      37.09843502    -407.51483615     903.44372749    -298.82946941       1.32376250       8.41606185      -1.96001472
Sb       4.59673474      28.41095239      23.47554763     -21.21393478      14.13236175     -18.63858985      -2.73934362      -5.24730722      -2.10403321
Sb      11.30804124      19.15866617      25.41273242     -52.56177501      15.02019068     -37.79853415       2.08301187      -1.39690583       0.34245700
Sb       4.80843595      18.40025254      32.35837224      50.70769765      -0.67766661       4.00381143      -1.23928752      -1.53752337       0.46736600
Sb       9.34849248      19.95317466      37.93449220     -17.40066950      -2.99341767       5.79794618      -5.90644601     -11.76538743      -9.41357524
Sb       9.91748308      14.82932370      30.51278795      -6.49490902    -410.36050850     228.48850534     -42.98176617     -20.07937869     -66.72050574
Sb      12.35963157      24.28166791      29.94780553      24.20374446      58.51139293      37.79248985       0.78221994      -0.79789708       0.55932861
Sb      10.38675391      19.25701279      33.43880607      23.76021878     -54.87450998     -12.44054531    -140.82561145     190.87461912     146.04061236
Sb    -125.16072197     176.69272439      13.12354230   -3625.65113344    3491.86628364    -657.22211151      -2.41777709      15.08714710     -10.17999408
Na       2.97513022      22.14129032      50.60887281      19.46365275      13.99192976      23.48559520       8.98376109      -1.97027993      -6.77210179
Na      -3.13742712      32.00936539      47.49778075     -19.13173851      14.83770595      15.54605492       7.13110560       2.67272113       6.85903734
Na     -11.13748487      15.49272015      15.95905506    -173.21333433     -35.72831963    -245.44530842      -7.64241944       0.40310521     -21.92879188
Na      -7.82239457      23.17730189      77.56748578     -40.91942505      25.45528022     109.03203252       0.28219855       6.55829467       7.03910704
Na      15.08091912      35.17012405      47.21787552     -10.62691713       2.75791408      19.02004061      17.95128917      -8.55339144       3.45331200
Na       7.22219390      21.89150632      38.61681274     -11.47655594      -8.60937898      -9.64823148     -41.50696552     -19.97029293     -35.76031903
Na      -8.96800174      20.29380433      50.15329665     -11.92235198       6.15150283      10.34760559      -1.00534983      -7.41970570      -2.21601528
Na      19.35052313       4.15130835      53.52983218     166.53599742     -51.96028186      39.93995445       0.01756219       1.32681973      -1.82212532
Na     -13.75468610      19.45527149      61.79636380    -107.31313435      39.85035609     126.84560758       3.85273225      20.24146326     -19.99769691
Na      -5.20982386      21.93282121      50.57491794       8.06794764      -3.78698946      15.27740218       8.68336217      -6.19035278      10.95208765
Na       4.89323836      17.27193536      51.46942229     -10.24014882      10.12881866     -18.38482198      -0.28604898      -0.10101097      -6.39277963
Na      -6.84710772      20.32801163      57.44832970     -38.97535024       1.69696239       8.70509563      -1.67134281      -4.44154461      -0.18246135
Na      35.54217047       2.39347108      -1.85773771      91.51731302     -79.69257902    -156.33884219      12.24596729      21.11394692      10.71604348
Na     -12.80870461      26.04631789      54.19245381     -49.38674935      18.87668686       0.74224833      -3.34976629      -7.23245663       0.56897495
Na       3.99950270      25.27336664      41.86713248      -6.02165964     -18.14606608     -27.27231842      -0.02554660      18.51431872      17.09005648
Na      17.89429254      27.73439666      29.96501731       7.28936238     -17.81687609     -38.87160414      -1.07366634      -1.43881363      -5.11257900
Na      18.74012818      32.75362783      45.58013315      12.59632811      52.12677276       5.17764770      -0.86715259      -0.58870688       0.94370917
Na     -30.56960107       9.31043628      25.95793014      -3.35642491     -15.13779788     -52.25084167      25.81935085     -44.35462409     -97.32890931
Na      19.87602112     388.89362575     342.83568439      96.34671174     253.72350659     172.35713517       3.44364531      12.63584323     -82.84814263
Na     -11.96730157      17.59553573      70.73331491     -54.93912612      -1.04584701      25.33686791      -4.31280624      -2.02966167       1.41785012
Na    -932.88971130    -989.26233686    -738.79409680  -10765.37711365  -11614.21161482   -9054.81090534       4.83375046      10.52738263       2.43423260
Na      24.66218660      14.75819790      48.07125361       8.58634713       7.83375948     -10.50496113      -8.75718606       9.20267808       5.06452183
Na      61.70251435       3.43532659      23.08079173     323.56764795    -270.11189765    -164.12699885       1.30492333       8.07419932      22.28261806
Na       9.37345288      31.33372139      50.40815997       6.82851390      12.69714996       5.23871943      -3.11732961       4.84230393       0.30972836
Na       9.12126063      14.58302300      46.21746346     -90.91229053      43.64960044     -16.24204272      -0.28863168      -0.21563757       0.54299243
Na       9.50454226      47.07773144      44.46762720     -28.58778579     -18.98805566       9.70947194       0.17974071      -5.82499800       2.00654299
Na      17.42950978      35.23104092      46.12314315      33.10497314      68.52367447      10.18783643       5.69080550       4.45651204      -5.97989235
Na       8.40991642      16.63433459      36.23014053       2.79200727      15.16736471     -29.22838468       1.28695887      -0.26464899       1.72590176
Na      12.77755907      34.77012978      47.31623223      10.90073673      26.61008109      -0.84514930      -6.04699395       1.12281148      -5.68055382
Na       4.47108287      31.51284915      56.68513109     -11.88976571      20.04185475      -1.28875112       3.69615160      -0.34070329     -19.50715024
Na       0.45559661      20.68351274      46.38148418      -4.77437517       2.18679667     -24.80686107     -15.69000775      -2.25152152       2.69805873
Na      13.52064842      19.72301122      59.07967085      35.13175053      23.01607463       4.44763085       1.51179883      11.09565010       3.91478697
Na      13.67588418      23.11300928      46.16691473      30.06659959      -2.16636133       3.58739262      -7.03257329      -7.71625278       0.64290521
Na       2.52609357      18.42912730      55.47889268     -11.44171267     -14.41358829       8.95866673      12.25415405     -23.87874154     -36.05688873
Na       1.43118176      39.47377034      45.22577988       6.22691820      74.31133394    -104.18686496       0.93938950      -1.01692789       0.55868502
Na      -6.03831882      12.83158819      47.69224416     -91.96890838      45.17062204     -34.37517922       5.00258041      11.17381296      -8.88742039
Na      11.45571405      22.25945825      44.97407060       1.13265831     -19.80903380       1.86662618      -4.15773462      -2.31864698      -5.53485266
Na      15.75864927      16.80014046      49.74875577      22.20915363       2.03993310      -6.25414000      -4.35071341      -4.33619398     -12.19941742
Na      12.25387614      23.72629905      45.13501593      13.43554180      10.90265753      16.86323744      -1.57877583       0.39031847      -1.07996598
Na     -66.85618140      30.84304852       0.78350926    -800.83232998      75.79131476    -435.82446780       2.23074768      -5.46914931       0.25860643
Na      15.87681145      23.99453676      35.15603998      17.62856540       8.13128961     -16.80453196       5.88288805       3.14859089       3.55940844
Na       9.33464731      48.41995544      45.95217678     -10.29584599      40.89551884     -18.02616959     -14.91003565       0.65725083      -2.46320067
Na      18.40776743      24.57151295      57.12629302       6.28970827      -2.58006513       3.42488808      -5.63784963     -12.29019701     -18.74001051
Na      23.52560846       9.99858542      50.46599923      24.59897942     -23.21549164      -2.10362933       7.34206957      -0.74743692      -3.56356173
Na      22.61190996      24.57609922      61.12300414      35.55594654       9.51260516      30.98841353      -1.02625394      -1.61921709       1.37742419
Na       7.56342322      27.64708980      48.54616927     -39.73634017      34.24542098     -12.32091541       7.95345598     -22.33545688     -25.96368739
Na       8.36097496      27.05417983      61.86640289      -4.74000626       8.64577730      20.08376498      -1.61002025      -2.28444966      -5.49941707
Na       7.27325887      18.21436201      50.35833783     -15.77709435     -17.67940050      -1.23989769      -3.26585533      -9.57138265      -0.24527570
S        0.00595658      18.95357497      39.53366319     -12.82688693      -3.12806860       7.41818790       2.36502623       0.91107947       1.61727691
S        3.59824665      23.48836063      64.91948036     -19.99675699     -79.16737254      51.96521292      -2.58481019       0.67250382      -3.35055179
S        2.76368409      25.88060985      42.17976407       0.87558908      24.65832979     -37.13275572      12.50251845    -740.70759056    -317.71154714
S        7.67775253      22.72990829      47.47479299      24.81229656       6.94528122      24.54411104       2.97405866      -4.33765039       8.54492733
S        4.49608454      23.70389395      46.21023471     -47.47099037      23.08915242     -21.34779117       6.36667252      15.01578654     -78.69685187
S      -11.06097860      -4.72747082      43.24945048     -26.24427531    -120.46987082    -152.85745755     -11.04278843      15.78704631      -7.07017858
S       -8.45420923      45.55809276      38.54091602     -70.70461467     154.41925027     -39.89332593      -6.61141273     -46.36181974      -9.47398397
S       -3.02982475      14.60661145      41.12870389     -18.24698012       8.14379324     -13.80458930      -0.86022449      -0.44573457       0.25141408
S       -5.44092595      19.80860225      52.44829382      14.00374008      39.95930889       5.12090341     -75.01875468      16.57577193     -68.00210696
S       62.14793173      54.21387529      89.35784390     397.46112462     217.80849503     175.32735649      82.30203461      14.09572479     -51.58546763
S        1.78965503      13.94341764      40.40101893     -24.09013392     -29.73532858      -4.02609697     -59.88220248      70.87390701      -8.93817327
S        7.48479354      19.99249462      51.02719569      11.24427396       4.57615557     -46.78389885       0.83904486       5.50628313       3.84130588
S        4.15016704      22.73262574      48.46471997     -37.50849276     -15.28908358      34.44859275     -41.89883598     -88.61135701      66.98158525
S        7.31998500      29.28028919      38.02897309    -100.08285709     103.48491020     -81.54141441      -0.60254238       3.43457048      -2.04519489
S       52.86621490     224.55708916     245.70673209     294.35430775    1069.58240907    1004.62725333      -1.79727179      11.89595472      16.77694127
S     -105.29279379      82.80668001     281.19274775    -570.83102412     381.84026597    1225.08438595      -2.15343992      -3.51194870       1.89934394
S        2.18609038      21.33273213      44.53883012      -4.25939909       3.84866477      -8.29579179       4.57112877      -1.85338604      -9.87633861
S        3.85773769      28.38579308      63.16707507      26.21234538      12.84237655     116.54783289     -29.69369278      28.43518659     -32.12678014
S       41.96170835     102.78885988     106.87875286     198.21683779     714.00978138     531.79037806     -28.09224121      39.44237544      19.07702929
S       10.57909896      28.99264752      46.14668591      20.22262911      17.50585493     -20.71391417       2.47813885      -2.63890992       0.93288434
S        2.14449880      21.38641450      35.72631695       4.96473955     -11.22704860     -81.46116213      -2.49818772      -0.36266898       0.19272358
S        5.79490129      32.48550658      45.43068132      42.71720275      -3.62816332       9.77790252      17.74284705     -31.00395470      74.09615672
S        1.69939839      21.31862873      51.75591896      16.66604352      -7.22509558      36.60161736      -5.82691129      -0.29899995       3.14221593
S       -5.00224517      27.61513978      45.41067127     -81.23661000      58.84653915     -13.34392159       1.96486036      -2.32272612       2.22724740
S       14.34804203      49.69102047      15.16443502       0.29126437     199.42347452    -197.57294851       3.47441977       1.50514205      -0.87766458
S       10.30573058      24.60239343      56.98615151      27.16204414       7.43827292      -1.28047107      -9.28059343      11.87186760      15.50852773
S        9.22942118      29.01503332      44.39803830      49.78648149      -6.69211713      -4.76805508       1.03424523      -4.90857351      -2.02142718
S        9.52004120      23.27871462      61.46893020      23.36538660       2.72896722     -31.76126449     -14.31547298      29.75149417     -18.65420078
S        4.45971015      24.13883626      49.77315249       0.40397938     -14.22246224     -40.38741631       3.87275106      14.69759806      22.38123556
S        8.99946001      17.30442667      59.89208552      27.80075965      -9.20887958      17.24601013      -6.70875353      -3.59928764      -1.61379932
S        5.55030988      22.57908884      66.75799421     -67.00567879       7.17481444     139.68745699       5.98170371     -17.39702654       8.42020209
S       20.14135590    -272.12462844      31.87053216     127.40582574   -1539.99632936     -89.29749658       1.05910329       0.79334318       0.78678400
S       13.18611585      11.42642291      37.35711777      -3.14020706      17.93041417     -26.02868082       6.78326324      13.45083241      -0.30591114
S       50.50247006      24.76631235      36.97734900     405.01998982       9.07876343     -89.65563723       0.58479958       1.81784382       0.02707077
S       13.77598613      13.32309895      50.01093189      -8.53982796     -50.07982502      47.18268584     -13.76540944      34.25273317     -11.43631002
S        7.62678655      19.71574794      48.82022402     -36.40595613       2.66384059      12.28430627       0.89924070       5.24467521      -2.23580932
S       18.23421688      24.85640774      28.43270771     -71.73115043      91.38663511     -69.19440505    -478.49682640      10.26050030     -64.70945237
S        9.46956314      17.78274314      51.03313453     -16.02661913      -5.26546592      32.99674742       0.64152604      -0.51609947      -1.27454025
S       15.18482639      16.38081807      39.72967273      16.69207869     -30.36935004      27.56254765       0.49382432      -3.14759571      -7.61336299
S       14.33427448      23.29309539      34.36249255      21.99855105      12.56174246     -64.40673935      -5.09577810      -2.75355007      -2.53504294
S        4.62681166      23.34839460      44.39526441     -20.72908412      11.67749203     -72.31326473       0.90154526      -3.87755878     -20.05064499
S        5.27959527      14.15449614      55.99040673      12.01133704     -34.01592567      20.73914677      49.56097346     -18.14001219      17.11991734
S       18.72438216       9.53968500      42.76122456      21.98745579     -49.52365331     -41.36597026      -7.81269602       5.51115028       2.60624173
S       23.00579179       6.88913827      73.76900117      -2.59321348      66.24378919      78.77645042    -246.87724405     140.18474247    -240.42972243
S        5.30576511       7.03297033      49.40451062    -109.37490356     -75.74272756      73.54142613     161.38163199     142.20338508     -59.31693795
S       14.36300450      18.77451371      57.86378702      13.70456080     -19.37523507     -15.60238276       9.71574633      -9.85812614      -4.76119083
S        9.08930525      16.60442764      57.77531433      -4.26653624      13.21663480      33.59549065       0.27917920       0.36634158       1.46394456
S        8.65245044      21.52536683      65.67784169      50.07720269     -31.01574543      98.46976710      -1.30905725      -0.57106181      -1.60003731
S      139.77099618     -73.68644735     -28.68513755     578.75795339    -409.14831180    -310.80515754      17.64973084       3.19321928     -15.22134814
S       10.99106586      29.49688654      43.06293520      12.62073803       9.21802524      24.88551453       7.35039735     -10.89066558      -6.37856366
S       15.18900147      21.86534206      42.99460613     -25.96876286     -12.61233789     -66.28195814      -1.79610926       5.50196106       9.78418129
S       21.83233466      18.79717202      48.15920905       9.86014044     -47.50063077     -10.35847341       2.03253041      -2.85361414       5.01287992
S        6.63040798      31.73736763      55.39542973      24.45397004     -18.67504447      57.63033920      21.32655242       4.65193064       6.41009341
S        7.05968331      33.33674084      53.68768935     -32.68029555      30.21768123      35.82958530      -3.21488997      -2.68905708      -1.48066585
S       19.73726586      31.87192644      49.89631938       3.83957647      46.36910364     -16.40311128     -43.89961751      10.48706721     -46.99152997
S        7.10703027      23.05472517      49.20604999     -54.10229436     -72.37581671      22.39226047      13.64493024      -7.54243490      14.88177688
S        7.64634828      27.81107209      53.84046650     -25.61758847      69.15881776      85.66549345       0.01831884       6.22040079      -1.72160228
S       46.95007663      48.52248592      52.16427253     135.06470780      50.58941152      -2.56255409       8.71181519     -12.90670366      -4.46195012
S       19.67604012      18.23999064      48.18779587     192.40432165    -193.85190538    -326.42887481       6.16638169      -5.77607976       2.59778802
S        8.30934392      -2.95408985      49.01472257     -65.99818948    -106.93219437      24.34110763      -4.04998012      15.34536013       8.09994963
S       13.65031622      26.96707082      50.05004798     -29.92287878      25.12320884     -72.96635803      -2.83824784      -0.55942798       1.35236825
S       12.20228568      25.45465808      57.10190700      -9.70908650     -11.66163661      34.48130537      14.73948436     -13.12934879       8.27893065
S        8.33417190      34.48414645      48.72872173       4.78852586     107.14944116      52.51212261     -44.80617298      63.13587144      20.70536546
S        3.56849900      22.06982513      55.26052306     -32.78612908      -8.46780589     -14.84219370      -0.37635837       0.60611404       0.78662052
Sb       0.63526315      16.31099696      58.26835468      28.67642034      56.66425076      35.17290381       5.51480180      13.83804768     -37.44680784
Sb      -1.93346854      19.11050108      38.47784552     -11.15852432      -3.27586100     -41.72099911      13.96327642     -19.41584059      18.45927083
Sb      -1.46258734      30.99365504      50.52395623      57.49717931      25.42559138      10.79167251      -2.17012342     -21.26260644     -20.61302911
Sb     -21.74799546      35.28874005      51.24789282    -417.72468401     242.69843228      63.59731856     129.15574010    -606.13232680     702.75423975
Sb       5.47728800      33.02660450      44.03978715      20.77411558      17.42422858      33.44199417      -6.05247376      36.33142338     -64.51666667
Sb       3.83476915      24.94220661      47.75111792     -27.36983953       0.83128502      -2.39706779     -60.00973772      96.50913915      10.77109178
Sb      -0.68179441      19.30365648      52.27261937       0.08151434     -61.56749072      66.40006241      27.11955025       0.29097949      12.55053496
Sb      -0.01693784      23.46895640      49.93304909    -141.89904648     -52.07635247      51.77198403       2.79973049       0.76215666       1.00302838
Sb       1.30869586      28.89071863      40.45552778     -65.38512895      35.49897609     -89.29570198     -16.45180129       1.25852693      20.49927203
Sb      10.91537808      20.68406951      46.44448391     -37.79319607      58.67203905       1.05289248       4.92466277      15.77878837       5.43041556
Sb       9.00989435      18.12954639      48.01597750     -33.30126028      69.45230792      25.74090963       0.75594105      -2.71105807       0.62143831
Sb      15.17217833      20.34915003      51.14014979     -16.03010745      77.30497624      32.45833899     -11.35845909      -8.56197750     -11.05663316
Sb       4.71294193      26.17105762      42.15947108      -1.57568119      62.60095046     -18.94919484      75.25212864       4.89979624      -2.01904756
Sb      13.20007199      24.52878360      41.07272442      52.93519120      -4.13944468     -49.93845539       0.63713283     -16.05286853       1.07975823
Sb       2.21715765      15.42450693      43.17065885     -11.88989300     -12.28989263       8.67542510       1.51038447       5.68812949       9.37342741
Sb      11.22167758      26.69826209      56.25981334      -9.17004448     -27.28915880     -33.11563795     -10.54315179      13.35632790     -11.93682183
Na      12.70621232      19.00964087      56.71101143     -14.35867015      -7.77527797       8.30669168       1.94986864      -1.49648905       0.95710306
Na       4.75552221      29.27885920      64.96947950      16.72920762      11.37047542     -18.14673716       2.24200236      10.24428314       8.28774912
Na      15.25673506      28.40586609      58.47318911      53.01322374      51.65766704      -3.14215989      -0.35824212      -0.18057424       0.32356746
Na       6.00237795      16.85561997      62.39995132      24.78616074       0.22592312       3.65470660      11.62997076      11.99992608       3.99395008
Na       5.18907403      39.30494416      63.09180793     -18.64508071      30.02606718      10.64882519       0.03950148       4.17318518       3.46644172
Na       1.90478772      21.15975372      56.84800503     -15.93150511     136.01676725     -98.21029066       4.48595395     -14.09703700       8.89514793
Na      -9.04808850      14.11980540      67.42905412     -29.40515116      -7.85125412       6.98544434      -1.82733025       2.86346639      -2.79978055
Na       0.83273450      12.60457748      70.14300657     -21.56087014      18.16216768       9.60442531      -2.72279426       0.93459394       0.61900873
Na      -2.03941811      15.06214322      65.66363262       3.44468784      39.73530406       5.78651721      -1.06241018       2.07130744      -0.09703734
Na      -5.77562301      19.09799132      69.82352594      -9.46829372      31.96510457      42.47023362      -2.56166144       1.82396513       5.21367191
Na      -7.17263724       8.75105186      64.16185285     -16.50199866      16.59849656     -18.49163807      12.89964053      14.25172464     -14.28890055
Na      11.12555345      16.45216756      63.97149700      12.09018819      -9.43029634      -7.12370051      -0.06397196      -3.48639515      -0.20386742
Na       8.56066278      28.06055904      62.58708748     -17.27272691      15.95795906      38.33929435       1.91029513       8.51075708       5.61198370
Na      -3.83832432      18.60703196      64.64039671     -27.58378547      -4.92341535       8.31535487       0.07764562       0.29665658       0.95636514
Na      52.62814567      32.72446241      20.36298608     196.78781503      72.43270568    -135.05341378      -2.38264529       9.18905215      -4.04512445
Na      71.45057450     144.13424301      95.73433630     120.84080376     419.39134480      57.74102677     -11.07241416       1.57374015       0.99932641
Na      15.61898850      21.31028550      57.69299729     -35.85737792     -36.42695706      12.05505350    -268.25633478    -153.73166876     359.31924440
Na       6.64474472      24.27679409      62.58360047      27.08255495      -9.80863607      31.20183031      -8.65916175     -22.58905349      -9.24556098
Na      16.80128390      28.74794022      61.73960529     -15.46264092       6.18451787      -1.74785767      -1.13694406      -2.82435898      -0.52500086
Na       7.86099192      11.90464926      72.92329209     -14.57707165      18.97827947      53.41755875    -245.29602631     235.26578300     364.30376820
Na      10.20536949      10.99039535      64.45994236      74.90430259     -22.92827532     -30.12192004     -19.56874495      -1.23599630     -11.46391810
Na      15.44888820      12.27212126      62.88199781      10.69702092     -44.91758579       7.06046056      -1.20388548      -2.25416604      -0.17473017
Na      15.01999784      17.38129417      72.10613025      11.85910982     -31.22401867      12.28251094       1.37538183       3.73103661      -3.06679143
Na      -4.25655628      22.92448429      62.73956224     -14.10361617     -10.91001121     -42.13532719       0.83719305       3.31368563      -2.36047929
Na       5.07394963      15.44398067      64.77226948      12.20670804      -3.01594296      27.03650482       1.04487005      -4.27994846      -4.68262089
Na     -33.64272810     156.93798006     126.73324764    -178.64234164     316.30746843     451.23610078     -19.56684358      23.58345468     -18.78114057
Na       5.40760991      19.82423016      75.62676447      -4.99479451      12.48114621      38.58625140      -4.47260244      -4.55018828       5.73391502
Na       2.56464191      21.03926388      62.00501207     -22.70379350       5.35471949       4.44905917       6.35344894       1.21804688       3.49802532
Na      34.17193759      39.34913780      77.74804791      95.93816370      83.40028615      13.07424010      -1.83296449       8.58143711      -2.64411047
Na      13.36599929      17.68825129      70.09103240      -5.84948860      15.17169387       8.24634279      -7.19538391      -2.35451242       3.29099745
Na       1.95555185      13.33125751      67.18281650      -0.78354535      -0.28123727       7.19756199       6.38450230       3.44708629      -1.57144951
Na   -4479.01077029    5515.04156826     969.75394835   -1701.06107171    2189.96615827     388.37882144       3.24617094      13.05662057     -13.68960656
Na       9.89331470      36.89088126      67.55315824       3.78584378      18.73360165       3.07699142       3.66718819       0.70206248      -2.15937485
Na      14.21826733      30.65854088      70.20626090       6.40594050      69.66133956     -17.58383146       2.59794437       8.94112652      -2.54432924
Na      11.96258693      30.45373555      73.42658842      16.03736349      12.09976630      16.55170238      -0.16183379      -1.21561864      -0.49281977
Na       6.35964346      19.59923416      62.72478652       4.78554225      12.79271566       5.61660360      -1.11610796       0.82020242       1.42890751
Na       5.47415128      26.62330873      63.03562528     -13.43936766      -8.43361098      13.56714393      -2.49980514      -7.14673750     -10.95091215
Na      13.42142453      17.96252267      63.22007541       3.03772074       6.50607199      -7.62114996      -7.72938351      -1.38735603       1.72607562
Na      13.20618464      19.19103178      60.76345881      10.12668261     -10.94093707     -30.43845435      -0.54497037      -2.12055652       5.27139835
Na       0.18175691      27.07050027      63.36986038     -13.32339991      10.16479599      -0.29260368      10.64953936       3.32027077      -0.57073753
Na      10.91623292      24.18004960      67.37428226      12.77136107      12.62484259       8.16572089      10.91633658      14.81572880      -8.57125387
Na      10.96689116      17.75367596      52.77810988      12.91470532     -39.29484113      -5.63315433       0.47139807      -2.91437364      -0.87490322
Na       4.28134480      31.85592471      57.75584159     -16.53302501      10.31339886      -7.27116858      -2.39894067      10.79534594      14.77029069
Na       7.20170818      30.62875554      72.51986353       4.40493729       5.57690708      15.16855481       5.18034246       0.04365713       1.82720785
Na       7.37579132      25.29891363      70.35452473     -19.64923426      11.29795801      12.54919769      -5.33932629      -1.08750264      37.18129625
Na       4.17863396      36.95694421      76.20178982     -10.96026989      27.41049854      22.04714119      -0.52200746      -1.03127312      -0.88965857
Na       6.53104139      14.02204439      75.13398615     -18.21828191       5.73233786       5.66107929     -45.81135381       4.69010356     -23.49147566
Na      16.62574344      23.01247563      66.54792657       1.45273415      -2.72684216      15.20486504     -39.33760571     -79.91832130     -58.10803132
S       12.37172607      15.60733822      58.15821627      62.24338093      50.58503455      58.60664158       0.34547263      -1.78251538      -1.67135102
S       23.07260425       1.58755767      71.76740942      67.04007366     -54.30710268      25.61559267       1.45670731       0.54768951       0.02198664
S       34.13736214      13.22703673      59.39668873     170.12037418    -231.36291527     -23.15362809      -1.40422644      -1.14402483      -0.27100816
S        6.91847405      15.50358074      60.76167768      21.98050426     -13.73363719     -20.06223508      -2.00268426       1.54541383      -4.15038638
S       62.16758633      40.15334975      34.32579984     987.60802095      84.95051329    -587.93475752      15.53184951      27.65877927     -12.77350551
S      -49.52053765      31.20641196      32.50201931    -591.21128763      94.97284018    -224.92642363     -21.30928834      16.07869088     -64.08094100
S       -1.55739153      12.04282658      51.03750143      52.62490096     -34.03471069     -62.91200120       1.45072097      -4.97733234      -3.08942921
S       -7.32704463      13.66878119      58.99907708     -98.17379588     -89.52223647     -34.47240698     113.39051433     -12.02219346     -32.24500850
S       12.16701460      12.31715012      67.44583861      41.49225441     -12.38752260      -1.49999900      -4.91996291     -13.05484937      -2.04904814
S        5.05594265      30.47879881      82.22585129       6.39456143       0.35844676      13.88662723       1.33587259      -2.20138160      -3.50977188
S        1.28924640      21.07535644      64.30408860       6.67066667      37.50767000     -33.33075714      21.70312443      42.77252377      11.77920910
S      436.02166741    -658.18822057      52.93792638    1305.46783887    -779.48878436   -1444.31599836      -0.65637837     -13.33657585      -6.01753442
S        8.98250113      14.66057763      74.51915125      -1.55953075      13.27487296      11.49357858      -4.36537911      10.73464407      -3.97621403
S      278.26962086    -134.85573844    -100.60300663       4.98810980    -293.85576363     190.07594624      -2.67520851      -3.49223084       0.61368845
S        0.13394900      17.12069173      62.11841584       1.68584521      -0.40929632     -11.98320584      -0.09068448       6.67547719       0.65233049
S       -1.30972556      20.18500343      72.67038769       2.44011163      12.98271027      -3.86575813       2.57933082       3.01037628      -4.94139653
S        2.53053031      23.96594121      51.29127693      24.85604647     -40.81732681     -20.23836546      -1.79961251       4.23790073       1.66568454
S      -14.68499018      -6.21804280      96.50300457     -64.27715099    -227.80603376     251.49232771      -2.88193296      50.29420589     -24.03531647
S      331.39188449    -121.24779907    -156.45397700    1914.37961796   -1093.91616389   -1384.09397366     -11.62895572      -0.21977011       2.30212029
S        7.57630040      22.82122277      67.08603761      -3.69563349     -13.05960660      -9.40862861      -0.63610940       0.75922616      -0.44071508
S       15.92068999      32.38524850      66.12479456      63.73292910      51.64105019      43.18775755     -10.31008503      -3.27439104       0.10004889
S        8.54983346      20.03924366      62.03149995      22.83031445     -20.77001051       0.84713896       2.49319916       0.46474041       0.16576947
S        8.34880428      13.63609520      55.75516008      45.87954139     -85.42062181     -62.69399871      -1.77700457       1.13588952       2.77785557
S        4.68429173      16.74331270      66.18252930      34.36944458     -54.26921931      12.14793213       7.78302079       6.25387073      -0.77695845
S        5.58848620      42.36041283      92.32736856       6.85245629     231.68219408     304.45565828      21.61573670      -9.61221377       3.75340745
S       -3.46537966      25.90952731      72.81210390     -40.41586905      27.51217366      -8.80950888       2.33960538      -0.89383651      -1.32697181
S        1.81551675      22.63949998      61.19896546      -6.75666929      -9.86865712      -1.06658094      -3.69374637       4.72381921      -3.01932579
S       30.33677070      18.35572294      71.32977688      36.27655656       5.22822701      32.10783298       0.92061936       0.31092746      -0.17748085
S       17.61770397      23.97405675      92.73902656     118.80195079     -25.67654504     166.50324118      -1.80132250      -5.30502051       5.39601813
S        6.61950251      16.68161303      72.85237934     -31.46778106     -20.82342400       1.65714303       7.19691542       0.99772436       1.07924895
S        0.69244131      17.75770974      66.33189612       7.48376853     -29.97243280      -1.35305906      -0.03884881      -0.08890008       0.60033910
S        6.07654939      18.28823176      85.98673251      44.61088520     -41.61677676      78.57882684       0.03537967      -0.35569098       0.70775725
S        6.61670013       7.63534167      59.15315249      48.56295904       9.99823290     -76.36405015     531.18599061     427.90049315    -725.40982161
S       73.21003066      21.47623080      57.33517648     684.98888475     169.89400486    -155.87644428     262.24653763     157.19871772    -355.50396713
S     -662.15017624     347.20256941     326.51472081   -2071.84482923     998.37526387     864.87350588      -1.34147823      -0.57098370      -1.23274474
S       30.77955680      -9.52077031      -0.45343772     266.09286228    -135.65705281    -327.32106489     -31.62938617      37.41916924     -13.83152236
S       10.01221884      26.40918004      61.10644028      10.98180794      37.81596194      39.02708801       6.36756456       0.44244478      -3.69984741
S       14.32074799      17.75199235      68.36949193     -26.11014855      14.95027239      24.33277913       5.36427367     -10.44405129     -16.87035016
S       30.68283402       3.09610372      54.33157336      52.45001894     -19.45141800      -7.62910771      23.26564072     -16.48783851     -24.81520080
S       65.19341183      17.29352565      76.93850543     174.54928712       1.05399242      70.09738078     150.65415707      85.33907035    -337.42453973
S       32.24553329       3.43625093      13.43615834     185.05641074     -19.37702664    -296.86045389       3.48057025       3.75360709      36.60334134
S       21.56899796      20.02054674      81.29946232       9.22811896     -10.48965939      -0.91208084       0.76817671       0.50491736       2.77289435
S       13.23950796      22.87609318      80.40646735      11.41700236      -9.79701348      97.25229556       4.96287595       5.91952070       2.18990612
S       28.46778752      20.44259828      78.19495984      31.72123965     -34.19209760      -0.05929448       2.46026662     -26.24342483     -14.22001018
S       12.07426807      15.32623537      66.01045909      -1.83691992     -45.48458816      -3.70291781     -10.96326140      -1.22436182      -1.45283089
S        1.60091110      24.15615056      75.60608768      -4.04479177     -40.15926137      20.54080179      22.97041650     -20.07686677      -9.15450299
S        6.21035013      22.36881467      77.58410269     -38.90937873      11.31966050      33.12153057      -1.22811901      -0.47469214       0.13822006
S     2503.76509747   -3487.58645355    -170.34657900    1187.48919288   -2070.46773089     -45.62154338      42.25811285      -1.85070006     -33.80624126
S       23.20792498      18.20148857      72.77936921      96.73361829     -22.47812184      82.89870657      -2.52177007      -0.18178077      -0.17663281
S        5.02632522      24.00283229      66.10631679     -41.35663274     -39.95631714      18.12193145       2.74401079      11.93834948     -12.74365523
S       15.56609947      30.13569198      56.68995915      24.73334500       9.01351859      62.25147052       5.28947189     -14.76418139      11.71640825
S       12.66023377      12.41818683      52.17692454     -38.74946724     -21.21830437    -138.54922513     -26.97039838      -6.85269152      17.20351585
S        5.96332535      28.43181447      48.12203146      -2.99484813      -0.01337283      15.57823310      -6.23304828       2.71080175      -2.77549961
S       17.31511903      27.71876533      64.97501902      24.82326925       7.35622838      33.46706859       0.36138699       1.61818151       0.25128359
S       10.08492818      22.12557689      62.16128540     -22.70877213     -12.81757206       3.23637728      14.81247289     -29.86463829      17.79128202
S       12.66609687      28.05349687      60.74562372      11.84365984      54.36406945     -24.52028908      -0.79128598       0.02721894       2.12756726
S      -39.96052422      13.80814654      32.93752391    -475.59730116     -76.55562314    -282.68994291       0.29090099       0.02993539      -0.63670567
S        1.66035696      27.62894132      76.19386629     -51.70598857      26.18282335      42.32127496       3.95861448      -0.59365436       1.18345710
S       14.80729850      26.84479344      65.67325413       5.42842897      -4.05708192      15.14731508       0.58301252      -1.92416385       0.70805631
S       16.99514109      26.26782499      77.15902826      15.72803778     -23.05052368     -12.24830424      -1.44055296       2.20465295       0.46147820
S       20.41263271      29.45933741      62.63342276      48.70988420       4.56430843     -16.02767157       0.05315678      -0.78285103      -0.98445236
S        8.84921402      32.67255530      80.97478509     -43.31110459      54.14647602      99.33802796     -26.83230064     -11.46240719       2.40067404
S       19.70677221      25.90949670      61.91516174     267.10055793    -151.24898791    -356.91839062      -0.16473140       1.95304048      -0.78909389
S        7.80080890      19.14448040      76.86791593     -34.61013579       3.73739442      17.47906107       0.10269103      13.36447940       0.46073933
Sb      -5.14563478      14.47039551      72.02257055     -36.43920310      56.39527551     -31.28015590       0.64203417       7.21176449      -1.48779192
Sb       0.08902813      15.21379802      61.56724766      44.47586521     -70.64021175     -25.69830697      -3.42681844     -11.62946161      10.41319690
Sb       1.14457264      37.33718257      72.54326790     -57.66955711      25.30417186      56.28766506      -1.10514715     -91.01251317     -52.17750866
Sb       9.03562848      15.64603672      65.62055864     133.61720131      16.18956641     -45.31934285       3.98463656       0.64900043      -0.66833281
Sb       7.47350015      17.09397068     -23.00638816     585.46365640     832.80885674    -812.45875212    -155.35509436     -77.69090725     343.66679859
Sb       4.73227549      27.44173069      64.13270480      37.71966165     151.34132004      63.24234047      24.47742601     -30.02111562      34.06403063
Sb      -5.26216123      22.31328964      64.86906377    -157.96411775     -21.41827537      -8.09108960      -8.82997230      -4.03735132      -0.20030996
Sb      10.36090781      22.62840950      67.83252533      79.02620664     -22.81803649     -27.97721752      -3.52495649      -9.90044648       8.37399872
Sb       5.87812839      35.60421085      61.78799684      -1.06865291      97.83808912      41.80472878      42.53709383      -2.84597610      33.10730942
Sb      11.59470421      14.56782096      63.25639916      36.51759992     -21.38242959      40.99634307      42.15908532      24.84124692      44.36011178
Sb       2.87308216      11.43423601      59.11445914      10.43568246      49.62378503     -16.52146248       1.43102911       4.04010514      -0.50604342
Sb      10.36410557      20.45586798      67.06049291     -26.35408337       5.10863181       2.91553723       1.49958180      -9.91428784      -7.00433879
Sb     -47.12344678      40.80993001       6.34658775    -777.97561103     121.47533340    -879.96690211     -13.46811019     -20.70499447       6.75855198
Sb      16.82580649      25.95292901      60.73194513      62.24935179      46.78830890      -9.13376181      -7.20569090      -3.64337641       2.22688018
Sb    -109.41039149     146.55453803    -141.99106565   -2862.60794322    3095.69365015   -5104.62444759       4.29484131       2.80920944       2.37552269
Sb      13.68948098      28.85404676      70.76919220      28.69338411       9.36247578      12.12970828      -3.25062804      -8.91971136       3.38852485
Na      34.02669580       4.02553793      25.62099305      16.37421639      -5.48186323      -3.82768640      -4.47769349       6.92703940      -8.13274789
Na      17.70046262      14.86985396      24.14216093     -13.10374499      39.09922146     -15.86123665    -180.92908842     263.21671701     464.46684252
Na       5.80435369      -9.66781758      28.46065656     -48.31897762     -27.40082350      12.42953248       1.59478539       1.98988130       4.91275164
Na       9.95070340       0.79237504      23.03911493     -13.77545557     -12.63540366     -24.10198782       3.69162616       7.57642318       1.50001243
Na      30.49993893       3.88728982      24.90345918      30.04422815     -32.04006503     -15.74223080      -1.27040629      -1.75712761      -6.14868913
Na      21.88836098       4.02327494      18.89181553      16.68708795       2.90815114      -7.74765810     -14.92395270      19.89750661     -14.21478300
Na      17.14609191       3.43778323      38.53056237       2.36178771      -0.49273994       0.84520192     -12.55817007     -15.57236042      11.74204281
Na     131.11061588    -152.84255046     183.08079232     375.41847846    -543.56787907     490.45570568      -5.73032936       1.76745641      -3.03586055
Na     -22.11426611     -26.57338708      62.14581762    -139.85629134     -84.09771675      80.27077421      -0.70653264       0.06691749       0.39356736
Na      18.91696151       7.68537634      24.46510176      15.14584578       5.39317960     -40.26038035      -2.99236249       7.56878484       3.01081913
Na      34.72899708      -9.49503381      20.99066601       6.73151980       5.73581966     -11.12237723       6.17299917       2.29737552       1.91513435
Na      15.03708214      -1.26532999      36.23457393     -10.68428160     -26.21042830      10.58263569       9.00746655      -9.35263683      -3.42833667
Na      24.63228480      11.12573142      22.26283045     -24.84403320     -32.19759233     -21.55836753       0.95419390      -2.60549212       1.96778491
Na      19.94193555       7.37340158      34.99355702      -6.13323180      -1.92750961       5.23810422      -0.45164852       1.71415522       2.74688157
Na      18.04720633       3.06936363      33.19172854      -9.62175303     -14.51681823      17.20678692      -3.68968947       3.43784898       2.44760509
Na      25.38015351       6.61247940      28.92696141     -26.77774547     -53.24164392     -11.93737150       1.59410553       3.48869511       2.56358269
Na      31.59950015      10.26749772      31.21027812      15.61213517     -12.44238935      13.88433352      -0.64177620      -0.47302291       0.32613629
Na      16.39894058       4.07153441      14.86830228      -9.35549817     -15.56978387     -33.28598496      -6.71420829      -2.82751034      -0.68954469
Na      41.10550130      18.77592218      38.31471719      41.52498319      15.42402887      24.51000780       0.74765817       3.55761270      -0.07412822
Na      15.70127541       3.90436923      44.41427596     -11.28639963     -33.50500757      15.63653103      -0.85797832       0.05956562       1.04847434
Na      12.15677747      12.82293240      47.31024175      67.63070136     -44.06800259      40.98942022      -0.47987551      10.63873338      -3.05423660
Na      27.53593166       5.55376394      36.49109621      15.68514381      -1.70797214     -25.49935076       3.80450235      -0.17786300      -1.71609722
Na      29.71870398       6.88605553      36.48041254       1.47642344      65.47592542     -18.42341381      -2.58257225      -9.93062539      52.70483897
Na      12.79363085      20.65680620      28.70230735     -32.73738971      24.98306669      -4.46907941       0.58943262       1.78266721      -1.15386647
Na      -3.87230083      13.90458747       2.31598037      -0.42846076       9.62793909       8.39110107       1.24479438       0.72343115       1.62275109
Na      27.06836033      18.94995694      31.97654291      14.81638934      22.25001962       8.35540011       1.64236259      -1.77275716      -0.80452969
Na      20.31844070     -26.12021509      48.68255632     -19.12155746     -19.73337831      34.46280727       1.64871769      -3.82484337      -9.13300656
Na      45.34954422      40.20406558      30.51874957     199.95457606     328.53933102     -17.44712745     -10.31471341      -8.32468694     -12.60929253
Na      21.95821225      16.31198807      30.41933370      -7.38949358     -11.81428894       7.18782466      -0.90426508      -0.79290265       0.50301719
Na      34.38371207       1.97938002      43.39714912      60.39559387       8.71306397      15.56337740      -1.72865082       0.08189041       2.22241465
Na      22.04817949       3.96347789      41.06791774       9.99236661       0.30227682      60.13852586      -0.11751498       4.87547674      -0.07560520
Na      29.44440296      -6.19062923      55.84580591       0.19459261       0.74621867      32.38647722     -36.17843343       0.64164767     -25.32921256
Na      19.43124699       5.92822904      25.82437691     -19.84516628     -22.61839471     -40.48446102       0.93849502      -4.22612520       3.41671580
Na      22.89753758       2.00617230      40.80441782       7.52968920      -1.35186550      -7.33320443      10.11603778       3.56326114       2.68239607
Na      24.45037316       1.97122097      37.30884552      17.05154757     -45.56836047      28.69040076      -2.15591062      -5.55328428      -6.32038538
Na      27.65614101       1.15545163      36.24986743      -3.04034822     -22.40118841     -17.25207788      -2.92844401      -1.35912856      -1.96888073
Na      18.85264459      17.52674423      22.03516206     -25.37076432      10.83768720     -21.49444555       1.42495507       3.98523005       3.76987593
Na      24.92086708       6.51974801      26.85961143      -3.37499383      -3.60305452     -14.76702768      -0.30595180       9.14541493      -3.66252190
Na      24.56453114       1.52995648      27.02295195      -3.34070193      -4.92020792      -1.71694236       2.12056049      -1.57485202      -0.21365627
Na      21.01177603       4.20507398      28.65865767      -9.10149623       0.92252783       1.54051928       4.37481792       1.12373067      -0.17550450
Na      41.85120860      -8.91899707      75.80112206      63.79781450     -58.21534798     234.27676466     -25.72040173      47.28019184       7.68446903
Na      29.67311099      11.33450149      30.97497878      40.85075834      12.65942474      25.66621449       4.50044819       7.78219073      -1.26709456
Na      19.81912944      10.69933179      29.19553537      -1.95119386     -19.47078227     -24.82099949     -15.47052284       2.13899439      13.92793042
Na      20.17908465       7.07558718      40.94022409     -17.36126839       3.49723222      -3.76461095       9.87054662       6.05883978     -15.67263846
Na      25.64121119       6.50569506      37.77999400       1.07505589      68.68541977      18.86689620     -76.41195039     764.36378756      83.15658400
Na      26.80860089      15.25210753      39.10159850      41.34912720      24.49215512       1.88241144      -5.30009336       6.80190922       9.23843190
Na      19.26455710       5.17372481      36.21951335      -1.50333734      -3.72258123     -18.20053875       5.13971040       0.22533593      -3.63577132
Na      17.30754392      11.46699855      31.45232572       1.34022993      -0.54791483     -22.89901090      10.06715555      -3.50047845      15.30950975
S       10.59160177      -1.19589029      24.87248784     -21.06532768     -13.83567891       2.98495328       4.06471774       6.34684123     -22.43489218
S       24.53527020       3.38524587      34.23151601      39.83597585      -7.22768394     -20.53616764       4.11467208      -8.51923623      -0.83164371
S       16.61259412      12.70925625      20.93366525     -70.20559919      29.02931466      -2.94429152      22.82074827     -15.29860992      56.58807073
S       16.47608222      -0.84749968      27.85578764     -13.88020397     -23.45556192     -11.01525346       2.21054202       0.46425429       3.91340335
S       10.61426684      -1.30937246      26.62088909     -46.78923884      56.23741916     -34.06212789    -104.55880716     392.51667071    -117.87139831
S       28.33188249       6.50882671      22.57875417      74.26521155      10.95426449     -37.93837035       1.28917024       0.63759412       0.15953806
S        9.61242979       7.22542929      25.49797711     -28.22761274      12.64916193      -0.50366826       2.19813192       9.06390707       0.60561875
S       22.64833644       1.15154313      28.32866531       3.23971807     -21.87520803     -20.66644635      -0.15286020       0.47746100       0.15917953
S       11.82405163      16.98162874      30.18921730    -135.08461759      68.16253931     -60.62073125     -53.71788763       9.91269418      41.27183196
S       16.34035680      18.86694446      41.81054541     -21.71599959     -10.72154237      14.13740584     -11.51769291      -6.53424764     -54.80102051
S       21.43249984       0.98718091      40.32828698     -23.46548241       2.60579120      34.47038346      -9.08268924      -5.22655703      -2.30084181
S      -14.94030075      31.56071793     107.09046853    -310.26469537     266.11562065     544.26463623      15.31139657      -7.06233613     -10.98129921
S       24.62813970      21.01537916      37.95425357      44.25020004      52.50250818      -7.04493116      -7.10204419       6.95083298       1.27703022
S       27.54630676       8.52578868      39.12454578      25.16698592      25.15994383     -20.38897168      -4.00530513      -6.11458651       2.32215487
S        1.54606879      -5.56365515      32.02087247    -106.19931073    -152.39702740      37.99778777       9.53660239     -13.65518675     -14.45580779
S      623.63557948     670.45078655     -76.23254931     920.23820111     914.03087213    -478.82473634      -0.61691290       1.05280431      -4.16821078
S       17.30533632       2.67965526      24.93821252      -8.39512782     -38.51681478     -57.48373825      -3.68363410      -3.15992040     -12.62867515
S       16.65298926      13.28451818      30.21466681     -14.83574260      -5.85491485      13.60678540     -15.87947404      -2.32501047      -0.76445232
S       16.70052788      11.32955915      15.84827924     -18.71501478      10.95712142     -21.32088865       1.25048287      -2.58479178      -1.10437347
S       23.35403054       3.43576131      32.87121249      35.13221370     -76.81352630      15.25296279      12.54572538      -6.20263822       0.13070354
S       13.70915388      18.84470481      27.11616290      28.49746777       7.74232689      32.35838356      -0.08457642       6.71262572     -19.16042334
S       10.66292985      10.50322922      38.82952905    -132.41506632    -264.88076977      72.09964890       0.64663238      -0.91882163       0.46066738
S       14.65202079       1.83972389      26.30359909       1.32612960     -97.36515554     -27.26680916      -0.77594663       0.33365075       2.69592284
S       18.19343510      15.04193158      47.44630768     -20.11972207      13.28664476      67.01946704       0.81969070      -5.00361099      18.81531413
S       16.02335730      11.21261150      37.15219536     -12.85982321      10.31003635      22.23665918      -1.82505793      -0.39795975      -0.48002385
S       15.47913574      12.45335967      41.74856861     -26.84619631      -2.92821040      13.24264892      -1.91297300      -0.72731623       0.37235056
S       13.45782090      14.38475941      32.97913035     -33.72433358      -1.24139278     -17.17336970       3.10941761      -2.14266685       1.53690058
S    13135.39873237    4458.72433090   -5032.42024559   16160.79426805   -4052.33442779    4426.54695928       1.86017363      -0.72412567      -1.42104898
S       18.95966556       1.37010340      40.12277805      14.71999275     -11.05624510       2.84131946       1.41600099      -0.77569578       0.33670862
S        1.00698440      24.00620795      41.46433490    -122.99892654      10.85124604     -41.84431496     -13.07636841      -6.91594033      16.20010279
S       16.81507239       7.58293136      38.60490363      29.12610350     -21.39320340     -12.64807069      -5.25036539       6.22112917      16.96883334
S       20.22554494      17.34875247      27.73958546     -18.34541722       2.65158379      15.02536184       0.33122125       1.13314801       1.58994520
S       19.01484977      -0.11646171      20.08739239      -2.87858438       9.68045822      -5.83639166       1.11538038       7.61824527       1.85360106
S       25.13697502       8.62307850      30.54773164      -1.36491818     -19.99232844       2.26803879      -3.69056153      -1.38548088      -1.06287090
S       34.97010017      10.45775324      16.80197626       2.17767896      -0.77327449      -9.75040931       0.68882690      -2.04728443      -1.19534412
S       24.67460556      -1.03310630      33.01239163      -9.89082549      -9.50996055      -0.71051726      -0.18632334       1.46110298       0.98214412
S       29.62444767       8.20850525      20.61812445       2.80042817      -2.31080783     -26.35783083      -0.88577732      -0.18914473       0.06862041
S       35.24126747      11.81600637      26.92474487       4.07664206      25.11642725      15.70515130     -11.08230887       7.29040289       4.90533558
S       28.79511158       0.46824697      29.43012544      -0.28723877      13.15852688       2.78090320       7.45459340      11.02150939     -10.03213756
S       29.81959176       7.30329050      31.01924183      29.34556408     -58.65361558      42.07170489      -0.62633431       1.44220547      -0.63004256
S      -10.58357455      -0.59054535      36.53324836     -76.55954609      23.33668888      44.18191149      -1.62872287      -0.23562608      -0.27056304
S       26.21660802       6.42931234      39.76283880       7.39480152      92.89850945      57.93366471      97.42658136      30.70894868     -57.57436865
S       26.06524019       3.40690619      32.94654995      -1.25066970      -8.10859696       1.21242935      -3.71421293      -8.13971020      11.63901543
S       14.05705468     -53.67935542      15.93099620     -84.02383734    -206.17357590     -62.45399008      32.31719945       8.75280994       1.46649486
S       24.63015987      -3.06198585      30.13657337       9.14449794      -9.52777460      -9.33320290       7.62027613     -12.27729327       8.16203838
S       31.18550334       7.54737777      33.79974236      -7.05811323      -3.30705790     -20.76032466     -15.86088257     -11.64032998      -2.16086172
S       24.33604746       1.77710357      32.80406194      13.02304139     -20.64779872     -39.68892494      11.80108882      15.52501846      -4.73674426
S       25.83406084       7.91630854      46.26416572       3.01890367      57.89754240      47.67885750       4.78485222      -1.30788752       0.33654451
S       25.98414164       9.39938920      25.92816506      -2.57221735      36.52731069     -39.55218827     -57.15555952     -37.40828699     -21.15154005
S       15.26042144      12.93897299      27.50640915     -15.73368830       5.80399723     -20.84940551       9.55973267      -7.62542729      -6.79173646
S       30.48481755      14.47513794      20.14134548      29.45307529     -17.12612132     -55.09130778     204.61605160    -170.78359569    -338.19334766
S       36.18132300       7.64178303      47.15200028     -31.84828240     -11.62538442      17.82122444     -23.13178949      84.22116649      70.53913408
S       20.15591248       7.88860050      22.51409901       3.70069335      10.60154939      40.50400329      -1.87936924     -10.30408339      32.37967753
S       32.27056590      -1.59348571      19.49398271      64.73568798      -7.77591665     -11.84342110     423.44843383    -250.47896059    -105.62910338
S       25.20153314      10.44735466      26.23088708      -0.26494561      10.20996352      -4.00739751     -63.76376138      66.20852867      12.45147365
S       22.17879480       4.80516891      32.63832927       9.69883789     -41.36985058      14.48734864      19.48434955      -3.01303483     -40.16049816
S       21.57546751      21.17021393      39.63149820       7.59815456      13.72323378      22.92029807       2.14739104      -2.62529504       1.88750757
S       29.02158778       5.79664642      32.11354865      22.27122596     -23.73014192      -2.57461040       7.55795507       8.05465173       0.64128539
S       14.00948153     -21.55789465     110.52893569    -164.08645108    -449.44650364     504.12217192      -0.41946589      -0.06170700      -0.71641437
S       32.45936656      14.38347040      38.13836404      11.88709442      22.76478563     -49.10955275       2.16612697       0.96038330      -0.39160316
S       26.41110255      10.17666862      28.70715295      29.08978792      17.12358857     -43.30683157      -2.34568762      -7.84715710      -2.39710053
S       23.55493521      13.01701366      42.23076750      18.20711558      20.32976616      16.59197462     -10.41930065       2.83123838     -12.66167714
S       30.31164794      17.55381093      41.42746498      68.18645149      26.92061786     -11.37127865       2.75825260       1.48572795      -1.28190237
S       22.39089652       9.38007208      47.96422785      -4.66377603       7.64977434      25.70813893      -3.83975948     -23.02858102      15.01442338
Sb       6.64415116       2.35388307      53.82055957    -165.56329959     -15.58080364     213.07451136     -38.47554834      29.77658579      28.36826950
Sb      18.74800214       3.64711662      28.06529760      15.76973122     -11.37120646     -10.59482434       3.03981536      -2.11637087       6.34270547
Sb      13.21102990      14.04615650      30.10812754     -89.08877927       8.82847653     -83.68699421      -2.75084168       4.98234531       6.90736860
Sb      40.03170114      -5.70026635      40.21518971     722.87123946    -232.01047531    -251.89313122     -26.07263184      22.15578543      52.91239106
Sb      14.35304684       4.62822274      19.65497253     -21.25326164      -2.43095467     -65.81934536       7.84533735      12.72897269      -0.75883734
Sb     -78.61939133     -25.27941050     227.50149177   -2488.71157977    -428.47302830    5024.56417357      11.63472784      -2.51316138       0.18805312
Sb      23.10791339      11.22087443      31.95419503      48.88343424     -24.26715592      27.72913409     -30.91814338       0.96580954       6.86250277
Sb      17.39046402       6.95607618      36.99683976     -35.90029431       6.92764409      42.97004417       6.08775243      -5.63526521     -16.47635584
Sb      21.03272521      14.15269698      19.56021356      35.56208949      41.39093828     -60.93662247      -1.26573063      -1.83752825      -0.04642290
Sb      32.99795935       2.86888455      21.71701277       5.58007572      -5.80425156      10.40842982      -1.26187976      -7.36254548     -22.54730773
Sb      18.95197498       1.85286365      31.63080989     -39.71470814      65.53598047     -67.66932732       8.68042444      -0.67132884       3.93523301
Sb      24.85218069       3.57435131      38.64335040     -47.07208894     -44.32718376      -5.92821565       2.82140133       7.88862430       9.41865492
Sb      25.27377226       3.69554478      31.03636910      31.02473357      -5.12236665      14.94819189     -17.33966340      -1.54758443      -3.70154555
Sb      21.21452609       9.86471227      27.62380001     -35.44080489     -27.47973626     -29.10407979     -18.50702991    -208.43265046     -72.25539010
Sb      25.10879636       7.99656227      36.72059840     150.93965274     -27.79264191      12.92897729      -2.95157595      -8.19437491      -3.06721780
Sb      26.99914126      26.83914941     -33.99344452      63.43388129     363.27477515   -1644.17313328      60.44811070       6.94831162       7.05733761
Na      99.57148478      19.03890513      80.82816045     141.92688265      18.98911547      74.45980709       6.71642728      -3.35933013      -4.97717786
Na      15.87164822       7.90447478      48.68216496      -9.67108418     -46.66843555       6.23545448      -4.98794528       2.18486458       7.13282402
Na      33.26173837     -10.73108457      26.88769007      66.74212067     -62.89263479    -104.51735350      -4.86496291       9.82403986      -8.37001442
Na      -1.17869907       4.16489620      49.98255293    -420.48494154    -223.99189755     164.93750206      20.65804585       3.05659426       0.22497532
Na      23.95426015       9.44905593      45.63124265     -28.93720918       1.07034883       9.17334578      -1.32721152      -1.78627906       1.17164295
Na      16.71435922       0.39067222      46.20383406     -11.71211330     -32.79627862      19.13595057       0.78705537       1.35616860      -0.32890204
Na      12.43543913      -8.55976006      64.50291861      -7.68072206     -49.60122342      52.97514110     -17.37803976       9.86309391     -14.75905276
Na     -17.10820687     -66.54142141     -20.79271414     -72.28657980    -219.25673332    -235.71434060      36.46284433     -32.20091530      -1.48109490
Na      18.12043152      -3.93975986      46.29116258     -21.50750772     -40.95480461     -31.23746907      -3.13809735       2.69485965      -0.62011043
Na      14.69871965      10.20405501      55.01246399     -17.99840052       8.34277510     -14.71233443      -1.88526225      -2.39953039      -5.58358369
Na      12.34684389       7.04180544      55.27788775       1.97224232      25.38633048      13.90947478       0.18530909       0.28179074       0.64068319
Na      25.78686812       7.87841098      49.58114445      22.86993877      79.12305962     -20.89074607      -0.66681402      -0.95733720      -1.25208951
Na      27.06306789      18.96018904      28.30840999      22.50221991     -13.30958394     -82.46892189      -1.98281848      -0.86853655       1.52214645
Na      20.69749487       3.71777982      50.96038574       0.30883774       8.27399551     -11.38075236      18.18797801     134.94150042      -4.16587550
Na      20.20267999       9.20094314      44.25447725       7.93423222      21.53466273      14.21487264       5.18797206     -27.02202601      -2.26008939
Na      26.49930340       5.31304290      49.23603100     -13.20818820      21.33811522      -9.80668972      16.43450913      51.59475011     -26.70440075
Na      26.79702593       3.03597096      43.46215607       4.64716379      -7.42405236      -0.77667678       6.48036839       4.64720486       4.76081155
Na      39.52971246       7.71403702      39.50968570      24.77131409      -7.34887554      14.59581520       7.31631711       9.50576873      22.16112806
Na      25.50235507      13.85618867      47.57503918     -16.31284976       9.63205613      13.80008670       8.05485868      -8.60707742      -3.53179106
Na      19.66759304       7.58526330      55.16955897      14.30433682       5.48624203      -3.06611516       0.25018711       0.67256163      -1.87418501
Na      21.37318770      11.31404440      53.67336379      -8.98419211      16.74984458      -9.45262491      -0.14982889       2.86615588      -0.89744402
Na      60.38616751      -7.89877108      67.99450942      70.37802964      32.48700254     143.22192983       0.11673665      -0.29482700      -0.24413359
Na      48.16815985      23.43542671      58.72818762      71.26525557      72.03508231      15.00036425     -27.67237378     -20.38806439     -36.86038062
Na      22.11550768      10.33092798      51.09134759      11.11006720       5.79848914       2.17495894      -4.47864563       0.31811984       2.05738943
Na      19.86167410      -1.32417566      44.74349042      17.25086550     -19.84809526      17.87569263      -0.14155327       2.65638864       1.66219410
Na      21.35635404      12.22067183      49.25611838      26.46539222      -2.57833951       9.37749453      -6.64537659      15.62615251      15.08457350
Na      26.56554703       4.04511902      45.44272290       6.36169518      22.60417784     -14.23953596       0.72514490       2.43756004       0.26725758
Na      15.35025788      -1.13579888      45.96359850     -56.52642749     -11.27038772      17.57844210      -0.50657532      -3.21954972       0.26688555
Na      36.46991864      22.44823701      -3.14097067    -725.74458716     386.36481089   -1970.89119295       4.43704305      -1.23721784       1.86673226
Na      24.84105237      -4.51346299      36.28103809      -7.00984289     -49.47170723     -78.65730095      -0.09345626       0.91597768       0.20175312
Na      33.22925765      20.74438529      30.54957476      69.05980855     172.06694665    -178.19700065     -17.92399659      -9.22184409     -19.59979543
Na      21.18768014       2.62727005      45.28585275      -4.44861775      40.45595842     -13.33396908      -4.53318300       5.14381045      31.12223234
Na      19.59841796      14.55685058      50.87823410      -5.63226781      -4.52613831       6.82266451       2.13311250      -1.15937321       1.99882974
Na      21.48938262       6.92416163      56.18234169      -3.55908010      12.83536524      16.23128638       1.76956992       0.90684580       0.24022917
Na      29.04762303      15.79506462      50.40842944      28.63972665      41.37598548      -4.84735131      -3.67262705       3.44087977       3.54117531
Na      34.00793793       2.95303535      54.86257170      18.23618687     -10.16114240      16.10384224      -5.07312504      -5.54718415     -22.11840220
Na      29.26744096       4.64890685      44.74103625       9.32147378     -22.97136119      19.54411900      -0.70563195       2.41932534      -3.05029404
Na      25.19801044      -0.89603626      49.43550114     -13.43773681     -39.17604079       1.40602488       0.37495881      -0.03443254      -0.31508810
Na      19.06526405      -1.35878502      54.32684325     -18.32922849     -28.25807727      77.77987597       2.39978673      -0.19231479       1.41609466
Na      20.23313815       8.46580232      38.92090304      -6.62863456     -10.04142438     -17.65674951       1.20807019       1.87094234      -2.06752672
Na      12.43002345      -3.44120048      44.88442847     -78.55852256     -48.51885696      11.07839147      -0.57718435       8.99010509      -1.12471233
Na      17.80894717       1.89420978      47.37832983     -13.79379394     -23.74311860       6.29738989       2.31879528       1.03926920       0.42671658
Na      21.28814504       7.36169041      48.77070451     -21.00220726     -21.00015927      -5.03079231     -19.40386441      23.96419034       5.14240233
Na      44.72712017      17.33883393      51.08646394      72.92629247      53.38556733      -8.65654319       1.75210014       2.95063807      10.89070689
Na      15.97592867      -0.47037395      49.34645613     -27.90785853     -30.03513292      -0.82806240      34.08164521      15.20531120     -39.28075277
Na      31.20880901       7.08385899      56.79203841      -6.05184129     -71.77586152       1.63313531       6.59077634      -2.58484467      -0.04522733
Na      17.71679280       8.62013634      49.51299821      34.07611586       1.74793613     -18.05208939     -13.34247517      -8.87150787      -3.06987827
Na      22.37086565      16.87068981      40.70138476     -45.18973138       7.64847380     -24.88063499    -116.33260720      26.35322004      94.15835644
S       35.19217129     -19.61807077     -19.61801397     223.18930532    -324.91959242    -601.49095236     -19.27044338      96.74891873     -19.71087375
S       17.63268337      -3.81434256      49.11178554     -15.01793656       4.65370806      -3.63606833       0.14829854       0.06890464      -0.65061339
S       49.97929870     -26.40249828      43.84819225     255.94740698    -301.87154478     -13.84626365      -4.23677748       1.13244901     -30.11111989
S      -37.88726980      15.33382775     -45.67528055    -527.16529696     128.53629629    -826.44636613       4.39100454       3.77523558      -1.06954659
S       -7.39214200      16.73655425       0.77016894    -249.18536362     111.91707842    -401.53315978     -22.45314435     -17.36034074      16.62219839
S       78.06334210     -77.28074005       2.21214868     505.31599969    -692.79082956    -377.52550706     -11.42899108     -55.39495331     -31.94861018
S       15.52214971       3.44932642      48.92736585     -10.45271634     -25.17141879       9.38515326     -46.54740610      13.57343285      33.24698411
S       65.94351870     -31.89180977     103.83725080     406.39524580    -280.76915325     520.70337959       0.08044125       0.13690268       0.40793976
S       53.96152400     -21.84822714      68.71956780     467.35650205    -219.34717062     234.67353696    -154.31217541      -9.20078200    -159.79785205
S       20.03323777      11.01873333      50.91769853      20.60186785      21.15629621     -12.63895590      -7.49808555     -11.80814970      -8.03397889
S       26.41140757       1.77145845      59.75847595      31.70673089     -50.79007693      60.14897393       0.25712699      -0.24615282      -0.36353860
S       23.98289904       6.05196039      40.30216594     -11.34951043      52.67459241    -143.56605397    -183.15244501      -6.81602798     -24.19211113
S       24.13507597      -0.79426365      64.06938108      27.81696601     -42.13285245     117.01425387      47.60022867      19.57322704       7.18641460
S       14.04792509      32.37282854     123.88947911     -93.83005812     202.84984788     398.15951702      -1.31462492      -1.17391229      -0.13764812
S       13.46405847      12.01934962      54.26801672      39.77318989     -14.33287905      98.83112873      -2.42230183       1.80138904      -4.88703984
S       19.46013344       0.05305405      57.10845628      26.41677940       7.36793757      -3.57421239       0.33418887      -0.06964280       0.21883375
S       18.02109428       4.48214749      37.73431105      -3.29909931       6.11998653     -20.10244961       9.49187878      13.57872096      -7.52076614
S       41.45947299    -109.38199994     -16.26518378      86.89813287    -289.50529101    -175.26072840      -0.64787143      -0.75994966      -0.25061842
S       14.60382140      22.30945012      26.15567027      -7.51758860      17.51113619     -58.33376243       6.81292448       5.75191483       3.67800495
S       41.32158851      16.04105056      42.87791510      71.72629177       4.49524755       7.42632840       0.37326972      -0.78250459       0.58415340
S       16.72416704       9.56224755      47.89814145     -22.99286976     -29.90577123      19.16644068       5.62728912       1.28024303      -3.14245616
S       16.63890463      11.98995068      46.84619375      -1.34386308     -23.35275616     -20.11136767      -2.12303096      -3.50431173       1.18582939
S       14.92927563       4.23798301      36.52401806      11.36697541     -14.18863644     -27.21833264       0.75651763       0.24560317      -0.06727689
S       11.55519408     -13.06489382      47.36818035      44.86976230    -133.44555016     -23.43231933      -0.37297173      -4.88312512       0.74099081
S       16.04761765       1.63285909      51.29705841      22.66698624     -55.74103986      32.48224294       9.09724790       6.28484563      -4.58073511
S       29.96520083      14.20101708      49.79101725      93.92714681      23.89554901     -37.47275965       6.65485511      -7.20307427      -0.11444540
S       -0.08919033      18.03492500      11.59327242    -161.10034881      78.91099390    -283.92403815      -1.91248495      -0.20678954       2.70813029
S       33.22790195      23.64472478      47.62963718     155.77419412    -115.27289455     -58.13988871      67.57494211     -28.90819689      -9.67289984
S       28.14905523     -10.17234651      47.67014952      33.95340716     -34.16486140      58.81864171       8.48971555      -0.38454570      -2.20359120
S       25.80560734      -3.68210696      58.40863384     104.14759326    -218.77671305     178.00858264      -3.57002899      -2.62587666      -1.57178650
S       24.14417774      10.45731408      53.07154858     -86.03550110     -67.88291267     -19.18427737       0.03838588       0.44253880       1.38992685
S       16.04154943      10.80394161      56.18413837      -3.81521698      19.65419572       6.44544996       3.95246067      -0.56659216       9.85116918
S       53.36750040       8.60846133      10.19408600      16.27117653     -22.48358695     -13.97492204     -21.06264440      -9.48833704       3.36282252
S        9.56790898       2.71084917     113.56989512     -94.55014647      -5.40224021     599.98880455      18.80324149     -26.89900070     -32.79638852
S       32.06740266       2.40355242      39.02987991     -30.32287124     -21.19366272     -10.01021333      -5.00424829      -4.79272705       8.35561804
S       35.86027722       6.47499308      46.84384782      82.12416700      50.28394656     -11.72355126     -58.35457239     -91.48463521      -2.09959423
S       22.46395732       0.94852431      44.16349868     -31.48401861     -45.85870403      62.77417713       1.92816970      -0.06102731      -4.22688850
S       19.96662138      16.16010120      41.32956693     -18.99391311      60.75396584      22.81803215      12.70860002     -11.77537965      86.83333946
S       27.49122840       2.52790489      38.42258647      33.91263671     -22.15743632     -74.17712303      -1.35868579       0.62130581      -0.73126875
S     -161.26884062      -9.78742382      33.05281221   -1957.37702738    -111.23318993      55.29105077     127.04041612    -149.00362760    -162.28382597
S       31.02296818       4.97879064      36.24703042      85.24305754       3.48469243     -49.94302310     -14.79031959       0.24127395      10.42242247
S       16.71704304      -8.47616126      73.92717873     -25.66490103     -22.20589526      50.14753172       0.46616845       4.55198933      10.46258787
S       20.43878000       6.48558421      50.45893469     -49.34072009      -6.79412993       4.02050172      -4.95296635       4.69115833      -6.65722098
S       26.64818222      13.71793543      75.29229396       8.58323028      51.13156929     169.75037706       4.49490405      -3.92245590       3.57788907
S       19.35295694      -6.25115275      42.84646656     -21.30819561      24.72184946    -112.82723258      78.38372310      20.61640596     -74.24759665
S       11.89192972      31.57143014      33.98805606    -183.02299636     608.06289892    -336.58397032       0.57875993      -0.29769588      -0.38150321
S       18.69634436       7.78886167      50.99751927     -10.49591292       4.94121457      -3.43249122      39.35378000     -37.89414288      18.69465925
S       34.77745634     -21.25243298      93.33993399     217.82979491    -359.50760563     755.84212354      15.09593448      -7.43606056      -2.02275058
S       19.56980485       8.60862257      41.62881454      -7.50347890       8.42308216     -19.03228741       3.34682796       2.94765133      -4.70956864
S       15.06209713      14.88776100      59.17492208     -63.36738697     -54.34919373      -2.61293351      27.95870847      18.66080068       2.78942909
S       30.17009750      14.33561368      46.15177893      88.20349873     -77.69016525      17.60059456       0.57279024      -2.39821442      -2.11905422
S       24.76750609      14.12971015      32.47660632      22.66224063      31.33161914     -55.88230629      51.46714115     -43.97073499      74.88181445
S       30.76397694       9.40862755      37.88319764      47.89247860      68.18685687     -43.71297072       0.46020747      -2.04459063       0.29250965
S       26.28476038      31.93682069      53.57016982    -149.74171564     350.99101980     -88.99826251      -9.87798550     -17.15585258      51.93948366
S       20.38923077      11.56608884      41.28571236     -66.32594981     -40.68637492     -30.57537744      -0.58871902      -2.40962860       0.48774279
S       17.50026036       9.55189658      24.04670408     -97.72993330      42.53742361    -253.28634613      -8.66939306      -0.02997017      14.19826771
S    -8828.54772633  -10079.91734014   11954.11287903   -7840.69841178   -7722.70007483    9075.93696047    -124.61236406    -172.13090033    -193.65100372
S       21.20633271       9.10518980      54.23122009      44.51113562     -33.93823359     -14.82243839       0.07125513      -1.66972345       2.27247663
S      232.71540587     148.29688478     212.24039228    1114.39897255     683.53202920     860.04553350      -1.80480434       5.71412274       6.08900646
S      494.77510369     -41.42536558     -19.72062402    2345.94329887    -275.40812597    -402.92339846      -0.37076353      -2.79411322       5.13362090
S       25.17412330      18.55021884      43.12181365      -8.98858126      38.52344259      33.09717753     193.41543950     -42.46377767      -4.40998725
S       30.70705984       8.43495844      59.47675960      10.61889945    -122.07166413      25.27666115      10.58267103      -6.02547676      -0.21578695
S       18.09139205      12.00241880      58.57652512     -29.96485252      -9.41409901      26.90274482       3.21314227     -14.80680256       4.10203400
S      384.13604837      -8.23462417     107.15901055    1947.12211125     -26.21475539     181.73080774       0.48909701       1.63317629       0.70925214
Sb      14.56791205       0.79973602      52.20147466      14.54160347      73.56543678    -101.48450115      -7.87786015      -5.98828655       4.01912155
Sb      24.49680214      18.67483421      43.18219487     149.73513345     628.33493178    -129.53829800    -197.39257609      17.34251020      20.06761927
Sb      16.65659718      19.20137631      48.13411997      35.75831925      51.37314000     -59.38345179     -12.16806012      -1.17679689       2.90391532
Sb    -221.76480650     -34.13297812     -65.79793435   -4001.27601207    -622.45310455   -2019.22791032      -7.11728682      -6.60024702      10.43220354
Sb      15.23907944       7.04663818      43.42226429      55.98882389       2.35739119     102.77787485      -7.46939916       1.24433766      27.79762135
Sb      19.70171230      10.65688991      48.69341395     -19.68587699      17.28190638      77.10009559      15.86263487      -6.12278720       1.18386526
Sb       9.01104425       8.28400576      46.44707505    -124.39126114     213.23842429    -101.71783753      23.86596290      78.06717958      -7.09369052
Sb      17.54954180      11.00555680      52.72541063      22.63010929     -63.21843522      41.46813968      99.12247150    -110.42076212     343.48436158
Sb      24.04407405      17.40422431      39.71448795      13.92002245      27.52264305     -12.80625406      44.62268309      24.55359283     -43.98926427
Sb      28.21968971      -0.80424745      44.23709217      95.53598922     -86.22183899      41.29715792       7.64306747      -4.41163261      -6.14442806
Sb    -190.76082709    4511.62067663    3320.88261400   -2593.20214631   55419.99720542   40170.80448346      11.82700459      -4.14807970      11.83399865
Sb      32.58717907      -0.35477624      57.59860223     489.69757614      38.80588714     484.06539538    -180.71985824     174.86313248     141.80760697
Sb      19.84122523       6.22638034      41.80834844     -30.98757421      -4.35821313     -11.58681281      -4.25863690     -17.13488901      24.30275606
Sb      22.18620259      11.14990677      48.43704110     -66.10277907       6.04484915     -16.05189002       5.38597100     -10.61822306      -2.36530420
Sb      22.66681268       7.74911669      50.03750619     -45.91271956       1.45796591      41.70603163     -12.72603401      -0.84448277       4.45927251
Sb      33.41548827       7.01642137      60.66979124     191.93883745    -129.22745670     230.37514517    -100.86631389     -15.37870665     -10.73429326
Na      33.70004071      11.48968388      51.62350801      30.37132927      -4.42188202      -2.11571553       1.42041174      -4.77057899      -2.04863103
Na      -2.40396100       7.92011224      69.67999402     -36.57817256     -23.98060815      23.67749439      15.65868423      22.79736602       5.24211860
Na      28.52928999      55.12228682       0.03489477      48.11619811     331.96709027    -365.38543644       7.08758707      -1.58358420       2.69290231
Na     768.83585276    -531.79945505    1184.03539364    3268.86342181   -2702.39840870    5191.51375396       4.50317738       9.59129170       3.78011917
Na      26.55385751      13.17448430      64.21429342      10.28618512      -2.42541285      14.02532679       2.18819808      -2.05933046       1.11458636
Na     -83.53554441     -32.40819340     123.97075556    -409.30953255     -43.04228736     232.94353094      -4.60126467      -3.57574213      -0.81385765
Na    -116.42781821      95.30230292     201.73177142    -356.14030691     251.88518852     367.97448694      18.44434867      18.50120122       0.44422064
Na      29.75168562      -3.30389887      75.25871955      -4.69430628      15.14292358      10.70033940     -19.30463414      13.27387409      -1.69648823
Na      14.61025010      15.10493315      65.38061328     -14.12615018      36.56786912       8.58632863      13.04734409     -14.99971546       0.94289441
Na      21.08880728       5.10928681      77.66924572     -16.31629783      -9.44600731     -11.80314341       0.85147880       0.45019193       0.01618393
Na      10.44228735     -19.59240964      74.38416690     -16.45868788     -48.46734656      14.86178243     -11.04444878      -0.64676674       3.34932781
Na     243.15320398    -107.57043891      -8.27400608       8.80784607      89.14523427     158.37056367   -1989.63358627    1794.44502598     665.27370350
Na      30.63909205      13.31220034      74.94777963      28.14918699      -1.45789043      33.17647383      -5.79622154      29.25070809      31.26045202
Na       5.19615452     -14.72335850      46.02063406     -37.38776924     -67.71822865     -66.72358556       6.64045253      -0.81677996      12.05535131
Na     -27.81795607      -2.61699387      58.75943013    -269.55767700     -36.63818366      61.15890811       0.13997330      -5.58164208      -2.47798259
Na      29.26920526       7.93266195      57.22233629       9.94690558     -25.35735925     -24.70980176      44.99595514     -36.68791997     -28.00274452
Na      32.99353833       8.15150321      49.98192384       9.96509094      -4.53156979     -37.74049524      -3.17767253      19.43479495       9.81853225
Na      19.23811299       5.49734013      57.44629852      10.12616492     -18.18492879     -21.76362671      -0.30400299      -0.52206828       0.22617093
Na      23.93464729      12.90145577      61.90817894     -47.46285569       4.35199900     -31.86646148     -30.44700398      -9.91532851     -30.74923006
Na       4.68358781     -45.53694553     124.42590720     -44.14193820    -134.78125414     162.52190271      13.54436919       2.37091244      23.45819253
Na      33.66754058      -8.19912762     148.42655087      35.98377033    -140.84834979     318.87526429       5.17791873       8.19043495      -0.79314777
Na      31.88416724      16.43262237      67.10070690      19.67771844      14.57722790     -12.11209989      -9.43443943      -1.35397084       5.18098979
Na      35.37736778       6.65583589      63.15629664      35.63632223       5.30417197       1.33449207      11.94392498      -4.62137726      16.45452276
Na      37.57103951       3.61942551      56.14760572     157.75549387     116.17584830     -96.84890352      -3.78488544       3.41373622      -0.46642527
Na      96.97134071     -14.36951284     -38.06137350     227.54383651     -47.65002588    -314.03195841     -43.85520751     -18.83829648     -34.49579938
Na     265.07627886     -49.02604214     253.42948275     249.82090488    -122.70420751     163.31958449       0.19704998      26.71815653     -16.32178127
Na      22.60882370       9.20277359      59.18487544      -4.10360502      30.04892609       2.65916987      -3.48214154       3.58387306       0.75277334
Na     -52.99047304      39.98820852      23.01047788    -222.86418269     123.34609852    -112.17701186       0.15400779     -19.48831829       0.50897477
Na      21.51899684      15.97920925      60.63783128      -0.42100540      15.23136713      26.78139250       7.68833853       3.06518680      -5.68184145
Na      47.64152314      30.55833757      80.76357546     220.64080595     275.13415725     102.31625934      39.05507011     -21.75833852     -35.85708886
Na     -81.47554987     -10.28055415    -142.57907727    -270.16435527     -35.48935439    -583.44577147      -1.46159984      -0.76782411     -12.27071691
Na      23.00589883      -1.28012451      63.92256034     -29.73855405     -19.62492171      -4.22148352     -49.70832496     -19.74020632      -6.53885799
Na      28.11652998       7.40142357      70.90224980      15.28841797      -2.73136163       6.50148785       8.53591921      -9.71120308      -6.46137789
Na      26.00112830       4.25732497      64.99547062     -10.35882961       5.60190480     -10.46917361       0.38535974       2.42806848       2.48403419
Na      20.09072799      12.97849811      68.99277062       3.03572853       8.84871539      -3.39674300      -4.57400440       3.86666569       3.81636736
Na      -7.07391237       4.98563325      33.68036965    -139.04830562      45.34813244    -125.00479450     -22.52267376      11.05943241      39.95367152
Na      18.08515495       7.71095004      61.75619124     -40.37415891       5.36083750      28.79520351       2.10986620       4.14391243       0.85500961
Na      28.98868797       4.80486364      62.91151839      16.59929195      -2.25327038      -3.35373555       0.66176829       0.27808793       0.16472125
Na      27.61059514      10.09697340      56.90033323      19.34456025       5.37079664     -11.55335503     -13.00422101      29.39265010     -38.72787193
Na      13.95298580       8.26427827      40.41832603     -28.97133525      -9.89856621     -47.28148546       4.33107449      -1.02265876       6.12688822
Na     -81.79102067    -204.61450872     110.52052505    -221.55601046    -472.62400925     357.50214023      -5.13542689       0.71281515       2.22251535
Na      23.70423966       5.79616840      61.10136807      13.90046219     -39.44269436       6.23024999       0.15826892      -0.16497709      -1.12357756
Na      10.70720883       4.10899329      59.89150646     -34.48655479      -9.06234613     -15.66364662     -10.22184140       5.54586720      -8.24756259
Na      19.52506151       6.33752132      69.69852326      -8.77926113       3.97521263       6.45089944       0.02657517       0.10332858       0.60462873
Na      14.57392979     -22.83060101      47.15173467     -68.83665992    -103.82183712     -93.17367867     -22.24640977      -3.36618747      -6.24891392
Na      24.22719588      -1.09656871      97.80026170      27.58793295      -8.07857946     129.20168810      -1.48643456      -3.98783151      -5.62839536
Na       3.58818048      47.26007468      11.21115110      12.92329886     151.42674379    -197.60298428       2.00145728       0.99544896      -2.66144766
Na      15.02407603       9.04530941      60.00991603     -16.88848322       9.80208060     -23.04846592      12.77642238      -5.39470699       0.59532312
S       10.48287503      -5.39788344      58.95757038      -2.42914301     -51.13671285       3.85874453       0.89422004      -0.79678479       3.13194878
S      111.65848231     145.05385242    -109.82518362     348.61137269     585.50222611    -668.56325818      35.33904413     130.24885459      88.48364050
S       18.92317919      -1.90434825      87.82065508       4.49100195       2.83001342      51.25734144       1.24225173      -0.96509113       0.75299614
S       38.00647256      -0.80037068      82.22253090      24.62718738      30.80756951      57.99830441      -4.14123414     -19.10180903      -5.29881079
S       11.51167528     -16.06547285      71.53974558      -7.33442820     -83.14518637       9.34815546       1.10103318       3.26481785      -0.22768683
S       33.99355140      32.28986038     670.63759233      29.98977772     122.66800446    2350.08463984      -0.14409228      -1.15302642      -1.38218134
S       63.54180635      35.97375640    -141.92789570     150.44764902     105.58360575    -704.89722966    -474.25480458    -419.58658121     662.07907802
S      519.17318343     -68.84989196     194.32277560    1972.72894985    -329.96448784     527.49694207     -10.97059255      -1.70235848      13.08024635
S       21.22975353     -13.99702690      57.66797664      18.39937179     -74.79657175      -9.60024085    -264.05506076      16.58706058      54.37462872
S       18.62810094      11.92454900      77.02819649      35.96291973      19.45079854      21.49554372       0.11457849       0.47596453       0.13082186
S     -437.37134522    -139.63142989    -213.69760218   -1856.52052849    -470.48287746   -1127.28556129     -10.63140404     -35.99043059      11.21693336
S       20.34132175       1.42677218      75.08896963       8.32394638      33.16463111     -16.76611812      14.08683062      -4.15003715      -2.91567955
S       20.14097319       2.13449341      70.36621940     -26.62299344      12.25239548       0.81465949       0.31372965       1.56226239      -0.36960382
S       13.47429016       7.82268123      73.75459487     -39.46411120      27.49665904      14.10263436     -13.78952804       2.75763609       9.71368440
S        2.41502861      -7.24757641      73.48695309     -27.01530417     -20.57444246      -4.56398306       5.91908729      33.25896251      31.78159280
S       19.90252621      -0.77880444      72.26664165      19.07786348     -16.97611872       6.02437030       3.91982325      -0.41661849       2.56763520
S     -219.62083022      86.08907501     127.41625459    -839.75769024     339.49435500     155.00573343      -6.70427774      11.75963961       3.33073461
S       23.07601936      30.20619945      61.62881728      27.01314140     152.58197825      -8.60598721       0.00611942      -0.34241604       2.42940352
S       14.68437588      15.81636608      46.88619107     -45.46939688      63.69105016     -51.46862165      -0.47721317       0.84226122       0.97451554
S      208.07196796     142.55357488      31.97757616     647.46633910     623.31469131      23.42223882       1.78829900      -1.71618570      -0.93101623
S        3.88207967      59.83290859      63.48365087    -174.68656223     158.23168297      28.53415556       0.75850179       0.39477718       0.81750648
S       16.45860769      19.34138449      64.22678269    -104.38995520      24.48809135      44.07207715      -7.12994565       0.27775447      -3.05410427
S      -84.22506634     -34.59157102     -44.23940212    -343.10932949    -125.16489439    -367.24797787      33.58438237      24.93632379      22.07885581
S       18.40321074     -49.63260010     214.87289434      32.73950370    -231.88919688     703.46844357      19.55523955      27.86171955      -8.34264136
S       18.37441712       7.96348327      74.43674761      79.38691605      34.35255883      79.59726785      -5.04872479       3.02069743       0.38962064
S       17.55852148      18.73062001      72.88194918     -18.99570797      29.57482270      20.44355543       6.64094131       0.91852451       4.88376095
S     -130.92586448      29.19507774    -211.98636432    -664.95761315     143.88916641   -1101.50986901     -37.70034531     -55.85730293     -16.61331431
S       16.94897451       2.43492022      74.72440554     -26.12967417     -24.14036830      19.25966616      -9.94636583       6.14185266      -2.74591752
S        7.79259647      25.23892057      63.72392610     -45.26966609      49.98391722      24.99615643      32.68774997     -15.59476600      34.41478516
S       26.50369306       6.26509611      89.03209561      26.79885853     -33.18984493      52.28256973      -9.94923662      23.59604088      57.10588584
S       16.66454978     -27.30096688      30.34214637     316.87027196    -359.64297499    -727.18717621    -359.94529570     263.45624467     -89.52044101
S       16.17109002       8.72628603      74.30231022      -0.13483697      26.45799267       1.08550612       2.51383575      -0.56155863      -1.78492506
S       26.43010743      19.31731446      51.48015157      -0.97660155      79.08306620     -22.63853140     -23.91233469       2.03047719     -11.46008423
S      -67.36437416     -33.05609886      53.90871755    -547.95824589    -201.25923582     -27.99025967       0.84150518      -0.93394330       2.21055730
S       35.42203430       7.12930852      50.54747841     -26.41063949     121.84962424    -141.50905761    -149.85044027     554.74244025    -743.93486832
S       47.42269058       5.94182535      63.60019147     108.95340830      49.47559583      15.40302211      -0.38840150      -0.07770546      -0.01206592
S       33.33595382       6.15746905      49.70984819      -0.45771686     -23.77138367       0.09411026     -92.59508910    -177.77826452      58.14212143
S      -56.74916276     237.48029254     337.95772439    -522.99990152    1529.60217476    1789.69965172     -20.40182284      42.50214164      -4.85370621
S       46.92050317      -6.34043682      43.56715130      -0.59058212     -76.72318017     -75.07676034     -75.18335315      -4.90659503      35.05670543
S       41.06153652     -18.65772997      37.54729030      57.80072666     -60.86305885    -200.86014049      -7.73671092     -12.26292924      -1.28439155
S       31.45033085      11.85470725      70.17479762      31.03125522      31.67086760      14.57699682       2.99913314       1.07693189      -1.07730905
S       30.30619315      -1.97547217      74.64892154       6.13190100     -14.83451423      -3.47163326       7.40573992      14.94348334     -10.51056594
S       10.17844865       7.80126060      59.49285659    -138.23568525      20.08348586     -32.52587068     -12.17868809      -2.13309538      -3.13746621
S       12.35353789       8.11286069      71.75223353    -353.86318623      57.50640395    -111.69410566      59.02968852      19.77120718     -24.86974917
S       29.66115179       4.28994488      73.39868816       8.28086543      60.48456040      37.88912116      17.93446012      23.71156581     -31.89304916
S       32.34534596       8.43743771      71.60652444       5.53555208     -10.46105509      28.74494875      -9.37097598      -4.58170089     -10.69741157
S       20.98383648       8.11771490      72.86901890     -32.32640357      -3.47034093       4.93647656     -12.54460013      -2.48859238      -6.98051590
S       29.08822968       4.44028805      71.36559935      22.48717656      31.58747428       2.75422754      13.63412555      18.19898852      59.11596312
S       20.55116622     -14.15453186      59.54461299      18.17056890    -265.72669797      54.02102838     -15.47997252      70.59030352      -8.41645998
S        7.79088416      15.11127918      57.36177359     -86.76008392      32.70226546     -36.26726074      -2.24383869      -3.31518975      -2.11480775
S       10.14493171      27.67804845      51.74914721    -190.62503033     155.22882450    -238.91069279       5.53051008      -5.22105334       3.39261731
S       25.87574005       6.38421178      67.77980400       9.38500812     -33.30836453     -20.08424905     100.21191826     -71.02810945    -181.30260961
S       28.76113157      11.59268233      62.98617757      -0.82882886      11.11116430       6.28812979       1.38712637       1.18004496       1.06822245
S       36.57022485      14.27417230      61.70779786      69.50766735      43.30492265     -25.08576461       2.66040174      -5.35125508       2.83452699
S       22.21961975      14.65100521      57.26038382      -1.93027611     -13.15532593     -73.25922877     208.48165813     -31.39531515     -53.16404532
S       25.55850432      -1.20906163      68.65692347       5.06378691     -48.04439676      44.80477959      10.24166664       9.65043650       9.65654449
S       87.36131847      43.49682690     121.73896578     206.18069104      62.61668830     241.85325055    -196.93151539     157.32747576     357.77074659
S       24.84969016      12.21708513      79.15748658       6.37625719       1.42055973       6.51222722       3.93099536      19.66046854      20.61756718
S       22.68418513       8.77362031      73.00248057       3.28971788     -10.86897013      13.24131317       9.11267253       2.92531597      -2.79800354
S       27.32373214      10.69123959      75.86140112     -23.07444031      41.65938347      13.18557824       3.79913857       2.50517363      -1.06856235
S       29.25654731       7.15684901      72.74715883      24.90462679      42.39008718     -87.08371229     -37.33996823     -52.85064892       6.76051040
S       12.88810323      10.34739075      63.97334927      10.85722878      -1.50043092     -38.70092938      -0.96029861      -0.58692713       0.31068027
S       26.13719388      10.37279974      66.85747519       9.73704900       9.81560143     -12.47920134      -0.66189086      -1.67581853       1.31279687
S       25.89649696       7.52220134      78.19142663      22.16341372      13.61613001      33.37684219      -0.17297469      -1.53185958      -1.17529030
Sb      11.55620991      -0.03140082      78.38512146     -33.08399285       1.58288849      11.32947695       1.25461681      10.17549428      -4.33679037
Sb      76.44261416      78.40096734      84.68255056     875.92212776    1061.29336064     470.91272218       7.44027898     -19.19889873       1.60102252
Sb      13.80406737      16.12313873      65.45679170      -5.95388154       8.96054006       1.08787448      -7.25965863      19.01827173       1.67642777
Sb      15.08876927       5.31594669      71.76759474     -37.20959679       4.76955473       7.83891433      -2.55674869       2.70792293       1.61981063
Sb      17.53118800       7.05010185      56.00649697      18.78211471       0.44072348       9.97110267      -3.14495034      -0.21074699       0.31377773
Sb     -58.03464677    -168.10178927    -187.95172636    6234.23452126  -14691.74210394  -26470.07961702      -4.95009135      -0.48066269       1.94250416
Sb      -7.58477899     -33.42686528      49.54132156    -419.04575903    -550.43106834    -622.10051572     -94.08610198      88.59396909     -43.17207413
Sb      16.60116630      16.48042752      69.54876381    -126.79648473     101.77128499      -5.74149095      -4.98461400       1.99978154      -2.49160385
Sb      18.56454818       9.01797091      57.37550203     -67.39266724     -70.75337795     -84.53765387      -0.14688217       6.22724073       3.65769573
Sb      22.50363051      14.52688382      55.26673638     -33.44651512     269.35674442    -172.35708332     -25.63423996       3.88235918      18.51066945
Sb      17.75241028       4.27122859      66.37126045     -91.58841222      49.16688263       2.80188206      11.78451607       3.93716805       1.30455333
Sb      27.52976412       3.82390108      70.29582567      44.86689232      -1.02939993      35.72473371       7.32895176      -3.31484892      -1.53980700
Sb      28.92411985       5.51827029      54.57234893      52.69116326     -72.08140618     -94.31039584      -1.97171498       2.82355929      -3.96846133
Sb      27.03718392      14.22580522      53.24748684      12.40132939     187.15659803    -188.76452186     -82.08038027     125.95906659      27.54726332
Sb     -31.63350898       6.01993417      37.72688701    -569.03286861      -6.02626395    -321.99981430      68.14075954    -752.83083941     -80.72333467
Sb      23.70107801       6.51084061      74.45140837      39.42001597     -24.07891458      70.01276444     244.41814866    -150.26324898     258.53647972
Na     392.91268771     -17.53508798     -11.17181462     185.86581516     -77.83520617      25.78067121       1.14054549       3.48504980       4.17667831
Na      60.94555454      47.93869419       4.20254905     222.53732513      65.66467583    -121.77374827       1.04297622       0.47110163      -1.52394016
Na       9.17146118       7.08822893      22.20153896       3.00282298      -9.79730616      -1.65816398      -0.58900536      -0.67733886       2.62220553
Na       1.20615568      15.26897744      18.83532917     -69.67736394     -23.48997170     -64.85616091      -6.71469577      14.80134627      -4.13058040
Na     -79.40461316    -104.89540830       8.52496252    -191.41843236    -231.71390774      -8.58940960       1.73551481       3.48649622      -1.46720553
Na       7.94781689      14.61946243      22.07737635     -11.38038902       3.62515965       0.91150832      -2.50308112       2.38004349      -0.87033393
Na      20.86627872       6.74018107      33.43883421     -13.11801381      -6.50625195      10.72231058       2.89492498      -3.59196791      -1.22961915
Na      17.43955373      13.27934373      45.00177112       0.07985988     -15.99151868      30.18388899      -0.31784488      -0.34128861      -0.80111697
Na      20.33678424      18.08961695      38.55380231      24.42802204      20.16738690       0.03333088       5.56908484      48.12838193      -0.08047419
Na      15.81004355      18.40204916      33.47161517      -1.74066745      12.99983083       1.66739071       2.31789322      -1.47753328      -0.27377014
Na      14.11594422      25.65832128      36.34830818      25.61192381     -10.02487647      17.58991025      -3.33712474      -3.70549796       0.31850629
Na      20.33092632      22.39385495      38.27092487      24.77992206      22.70916541      17.86822793     -16.22915176       3.80951496      30.84679426
Na      36.79040124      31.14112167      14.54525961       6.04487584       9.31660440      -1.90311306      13.22263263      -0.90124191       1.47975189
Na      16.38401640      19.57542990      26.67721867      37.59769661     -13.59261492      11.09158612      -4.06389848       1.76895779       0.46722187
Na      25.51312199      16.48914442      32.03095785      29.94173342     -43.77169389      22.09258640       0.28683275      -5.45910104       5.63634197
Na       3.47508605     -27.28882607     271.94804408     -49.43727166    -103.60585863     440.81911302      -0.78821850       2.95552082      -0.63268981
Na      56.01033437     -11.25398663     123.58776079      29.13005021     -46.95320881     192.43451339       0.83721526      -0.54452599      -0.62532363
Na      18.15034007       9.47051098      13.63122496      -6.27295539      -5.22529937     -24.64895879      -0.54472004       8.08389122       2.17960347
Na      33.14896861      29.46129182      30.46549384     -13.69235991       0.51836150      14.66708226      -1.35754914      -0.16358542       0.20238885
Na      -9.83081185      32.14731745      28.97105444     -95.99462926      22.24738375     -22.67223778      -8.34150118      -2.86788296      -1.81916201
Na      24.08386470      31.61063963      46.88452030     -16.55435814     -11.18403450      46.24222559      -6.88697020       1.26502527      -1.34307565
Na      31.07980026      28.33856404      39.18411905       1.84955295      -2.91410742     -19.08100133      11.65776672      -5.52135267      -5.59813346
Na      34.04095545      17.97634496      27.48937383      29.95689292      -5.88977593     -25.75863051      11.59375817       0.03028054       5.39312505
Na      17.95735432      30.42004389      35.43669858       1.75525229       5.76429832       9.98422773      -0.65883302      -0.69583064       0.36474797
Na      -2.19290822      -7.08714852      49.55205260     -26.45732826     106.75606828      33.54499815      12.61744052       0.57537607       7.45601849
Na      13.19483670      35.95335132      52.24242587     -40.39507199      11.57018901       8.92031166      -0.25390303       1.63245498      -2.60057196
Na      27.39804256      12.87120585      19.89602066      23.42006244       7.47119118     -43.17153017       5.89808598       9.08284107       1.22391824
Na      22.68158413      18.40182527      28.06187635       1.37805083      26.48316438     -17.64390940       0.34126465      -0.06308864      -0.23243762
Na      17.19204090      25.60550682      29.95004641       3.32155208      -3.96437953      15.01366167      -8.49907732      -0.20882036       5.52008369
Na       4.23123451      39.01276797      34.85829385     -91.22664117      78.52128235     -46.19225920     -13.66236365     -25.71103589      15.32274669
Na      25.07999594      11.61050322      32.42418862      29.46889134     -16.82796139      -4.67237278      11.55701444      17.93804775      24.48788245
Na      27.73302406      13.12015893      44.99929733     -14.09582092      23.55987116      67.45789157       9.31319471       0.39351069      -2.92639901
Na      29.06357710      25.33146869      40.38144032      30.41602274       7.59856437       6.81535219      -2.63052318      10.63584461      -1.33423324
Na      24.93805171      33.37954958      27.92956430      -7.05798890      19.62996842     -16.08985132      -1.47496913      -5.24733998       4.85385434
Na      23.06712128      34.47111323      52.31753657      21.96586672      46.84850702      71.57879766      -2.79302348      -0.19251405      -5.56752125
Na      18.86564828      20.90731901      29.34903530     -52.89787044     -10.61999472      -0.26460042       0.56954675       5.95796569       5.39340546
Na      20.72844752      28.19384284      24.53317423      -1.49585530      -0.46513331      -5.15483930      -0.01685158       0.35669499      -0.44210892
Na     171.27989623     246.59100591    -361.40816985     292.68718760     443.69689509    -747.63729581       3.09474991      -1.75066523      -0.44905222
Na      33.04557237      16.51836327      27.77168499      17.75161696     -21.69769212      13.91190164       9.53104269      -8.59623675      25.19901988
Na      16.36703037      22.87572065      32.63359167     -21.17667445      -5.81904175      -4.45385463      -1.06360820       5.39948998      -0.02506131
Na     102.86821076     281.42373269     167.70270398     162.52895130     469.56012673     247.52069397      40.25945062      76.94908751      60.53074863
Na     -16.94177452     -80.97602669     107.18600777     -81.11695046    -188.73605621     154.99321375       4.77987903      -1.23344510       0.09103220
Na     159.52947601    -168.58646743     -52.49354434     101.72167130    -257.45754393     -80.19609051      44.85131879       0.53385464     -39.52026331
Na     119.23457338       6.45357781      89.40044246    1653.17395121     124.53241768    -139.38962959       3.75648306      -3.39125851      -1.50022660
Na      25.28942866      21.50604452      48.79060826      -2.20611357     -37.79987848      64.59634667      -8.53731147      -0.26217755      -7.85159029
Na      27.16976037      24.71215158      34.13864851     -61.78275848       3.82467969     -30.19849962    -795.63048362      25.09427065    -152.96198212
Na      29.72851278      29.21661475      38.14860477     200.12050095       8.49743623       8.43992357      -2.98084077      -3.15604079      -3.98753138
Na     600.78052196    1257.12759132   -1679.65644350    1925.11398585    7028.68094705   -8932.35921981     793.59761498     -25.67645458     153.41799009
S       15.93156357      14.72999219      21.78508556       1.04064682       3.82325726       6.83909102       0.63726638      -1.32927283       1.15730457
S       70.35256780      40.52384275      42.01127758     448.89318040     176.38897148     110.56179646       3.20242107       0.17186585       2.54022793
S       24.20408285      12.50909484      21.71914690      -6.56072553      17.87130549      -1.39383678     104.41281755     -70.82163318     150.91493493
S       18.40890151      15.44663045      17.35247137     -88.26714801      15.14318243    -193.66911222      37.27608435      -1.10555550       6.19311780
S      -43.87759964     -21.82831640     -15.18424542    -504.43758407    -340.44464055    -382.97719321      -2.03114854       3.12157754      -1.72932847
S       10.77598221      13.03592034      23.06017301       7.63287009      22.05584240     -52.96025127      19.99137163     -18.25076707     -13.32406069
S      -61.21385503     161.10073942     -29.03873209    -631.08812617    1211.10017973    -486.75458019       2.44480540       0.82793547      -1.71370472
S       34.69421544     -13.48527610     111.69977475     164.57596449    -270.19035680     664.04722352     103.31601753      34.95863910    -104.27602857
S       12.88580971      23.01436403      31.71362635     -19.10687203      61.15307463       3.34973378      -0.70212652      -1.75417972       1.21270705
S       18.66692444       9.36101221      48.48967167     -12.14484244     -47.01391376     -26.58684914      -6.08655801     -14.78427894      -1.77171939
S       25.43269153      20.56358255      32.38366177      62.85617735       1.17583659     -37.26681712      -8.31775358      -2.95127645       0.06195313
S       18.57560049      23.61135936      29.79971934      -4.95928824      53.58909462     -94.25610316      -4.96891980     -14.23589328      11.67335606
S       17.83032062       5.19372423      30.11061075     -71.18065827     -66.07756787     -27.24454694      -0.26035027       5.39681557       6.09279173
S       23.22297211       6.83125615      35.59843883     -29.72704982    -109.53015848     -32.26994198       0.34982818      11.11625674      -0.87757814
S        2.61561394     -10.05649287      47.60688881      78.33257669    -209.45818081     -22.06112873      18.68093528     -10.12675221      -4.10510131
S       16.88433840      20.57686431      38.12645162     -11.60524555       9.92442599     -13.78745449      -0.39210374       0.38784681      -0.54062975
S      -25.79002679      72.92944639     -49.59709740      10.72309971     117.64270840     -23.24159585       0.71433884      -1.41657251       0.17109227
S      -30.10441369     137.67185272    -107.43289656     -76.98261306     184.61623149     -18.99108685      -1.54120189      12.43533899      -8.49681248
S       13.98944312      25.98135153      23.35788164      -1.15017944      12.01538825      13.79089824      18.52545706      -1.95516279     -12.92485065
S      -20.36255334     104.10509200      13.42456473    -117.31362046     232.91691725     -12.90730180     -54.51871994     -31.95217195      29.23136871
S       23.02157431      14.96540302      19.94701091     -15.87252071    -127.25996607      56.69660770       3.61228198       1.20900164       0.93920684
S       36.60790995      80.12200476     505.05725133     168.43987045     663.92889084      -3.99167738       4.21618332      -0.41396728       3.57070594
S       15.47608603      31.28171024      28.47486218     -24.09626877     -40.41650383      29.12011202      -2.46283091      -1.00137663      -4.02881503
S       32.94808533      19.06586098      38.62969142      23.29222824      -8.10255992       3.80159092      12.36797518     -32.23031752     -98.70942300
S       18.43843030      22.79823946      23.08322198     -16.72769512       0.97755602     -86.06446036     -12.57667834    -101.00961429       1.14592105
S      -55.96789828       4.93673407     151.66416300    -346.92644864    -127.69908227     544.84242353       1.46206171       1.25498323      -4.25269747
S       17.44016253      29.47152100      30.52437963      19.34206362       2.34562974      -1.77207774     362.29409219    -258.89012550      75.38671592
S       22.35484673      24.86749653      28.92092829     -16.30670578      49.82320356     -16.15046447      -0.30270135      -0.10670247      -0.83030152
S       23.35310495      28.58651709      33.89150741      23.56699588       3.85090059      -7.17861521      -0.19582614      -2.22172349       4.89267039
S     -129.21402256     -21.77338399      -8.35842180    -799.06663123    -448.44167358    -339.96239298    1975.46191274   -1841.65595082    -628.44619059
S       14.54924935      16.46864555      30.58919778      24.59195706      -1.99329921     -22.37197802       1.26703180       1.44016902      -1.50965858
S       27.41017955      61.46309041     121.20285767      64.13953706     174.35156720     391.12474576     -41.90962304     -25.64228615     -34.68399223
S       20.63533875      18.45501350      21.06155694     -48.46360347      44.05299120     -24.09998922      -4.47281316      -7.80581080      13.68031105
S       32.50442963      16.55184207      26.52336504      30.20356201     -38.04904931     -60.53083704     -17.81810471     -10.12804565     -26.17741537
S       39.01900923      15.83263578       7.16948141      22.45802610     -31.21912435      -0.43308858      -1.54964928       1.12399085       0.81172415
S       34.40294090      71.78111965      79.81406007     470.93033957    2360.36351384    2299.83313229      -0.64962492      -2.95221576       2.28552519
S       23.93142090      14.60313404      29.19658533      18.82191977     -11.57191483       3.70924285      -2.63892622      -1.08733266       3.51442980
S       32.34421513      12.37538600      22.21980942      66.63405964     -54.54678518     -42.78413749      -8.30955869      15.61137035     -18.18554878
S       29.48536751      15.15304784      17.28729318      -6.50832542       6.92913897     -23.37337142      -9.24710428       6.84450866     -10.55838981
S       24.34832737      22.69660903      24.00739369     -30.61256448      20.96355130     -17.68591402      -0.09339710      -0.09728756      -0.62054752
S       16.41737926      20.05070089      29.67296296     -14.86029930      67.14627636     -16.82684867      -0.60580305     -26.23875188       7.17665003
S       41.70570203      -0.23030536      35.99388561     120.65630085    -131.29670532     -50.50380529      -5.76796691      -3.47747314      -4.82678306
S       13.06338801      14.37851633      44.57712973     -66.51617728      -5.55345903     234.79263176       3.98430162       0.76100174      -3.16663734
S       37.33272888      11.39606195      35.90409454      44.34356212     -24.17297462     -10.55150839     -17.75637949      -8.55900693     -29.02358025
S       34.95272662      12.09314180      31.35994797      47.68551227     -42.99457181      45.15110873       7.43085365     -24.67212115      -8.55083492
S       27.45008231      12.67764665      22.10928548       4.67098411     -16.96948064     -43.29747123      -1.59029880       5.41502619       1.54945526
S       27.09769235      15.49015584      36.91506533       9.18251283      21.10354510       9.42562940      -4.13714053      10.31854736     -15.95665778
S       32.22819850    -107.92896711      -5.23397917    -239.34889453    -329.62568228    -154.98586183      -0.00098303      -0.76556093       0.39728899
S       15.25453931      22.35040953      17.92118983     -26.17544393       2.48266294     -25.73515490      -1.06449318      -4.91063584       6.92760402
S       -5.68869920      73.25955720      66.69246188     -49.02844648      88.37421085      21.03388976       0.62166878       0.92162029       2.15161870
S       32.93755950      29.48813485       0.54479890      10.96608219     -33.05464351    -112.58645960      -1.14062247       0.76034537      -1.33470218
S     -133.08105304    -255.05413606     421.03732955    -454.45368758    -766.43440647    1066.57598252      21.40387702      44.01417754      41.38422036
S       41.10730685      24.58576262     149.89531548     -17.00988955    -150.23203893      24.77371426      22.27057122       0.44814408     -53.15427919
S      271.13942872     116.28241959       0.07698184     607.76350492     271.57579705     -96.65814339      -0.91046627      -0.57624362      -1.06181372
S       29.50678887      30.71173773      26.31855954      24.86704676       9.52484324      -6.48181715       6.69235745       1.35383633     -10.78594827
S      219.36701028      65.28651989    -103.96483401     374.63996194     238.13179915    -420.12484322    -109.10348814    -325.28714637     -59.14213589
S       28.32922783      10.37683519      33.96114855      35.87199824     -66.48289365     -14.07020604       1.37747068      -0.72569286       0.19733308
S       88.79769346       4.58921978       8.99744318     441.43865114    -135.63538945    -183.76988798      59.02922578      29.01347657      -9.08616962
S       22.37264139      26.15635923      30.60662042       0.76610997      -6.82389439     -35.03870720      -1.97339300      -0.78519570       0.20772920
S       32.05918235      22.51468461      39.81649766     -70.58728680       3.87290726     -25.63319028      -3.02013583      -1.11946076      -1.77593904
S       28.60535645      33.87536098      42.49476138      -6.82426586      11.31376278     -12.32320859      43.22444375    -110.32116317    -357.64912354
S       38.37365960      33.61195394      51.09886032      58.11941861      37.20743688      40.35203127      14.35219959       2.17730840       1.16332179
S       21.39220985      25.74433857      34.12417369      -5.12269826       3.36011581       5.04369096      -0.29233902      -0.97893562       0.77844302
S        4.63088132     -67.03086020     119.47055437    -500.47902243    -735.34397055     754.52703076      13.66533341     -42.05452373    -134.99789744
Sb      11.27268269      14.36006118      35.21160436     -43.07228378     -36.40320024     -55.77248892       5.40284274      13.36418894       6.34677018
Sb      24.97271618      10.78190504      31.21434794     297.36470671    -211.28694174     -62.32209038      19.08952392     -20.90304740     -27.82651227
Sb      14.58449613      29.16521549      36.73071529      62.20821729      77.47094378     133.53720275       9.21796336      17.32806883       7.51942014
Sb      10.85148627      26.50281377      26.93626738    -250.33426188     239.48165486    -138.28082578     105.08771916    -386.37647609     158.21994902
Sb       8.50670913      17.78459816      22.22136665     -52.81551881    -111.60077164      13.21286289      22.65473619     -40.13609038     107.06902363
Sb      14.46686104      24.74979174      25.32231785     -19.24859497      -9.57517083     -19.71944553       0.55316808      -0.75902358       1.60754961
Sb      24.41977272      16.00241443      23.19528156     467.42532573    -199.66052651    -200.12050210       0.36603649      -0.35237673       1.08616774
Sb       9.84470422      33.65126523      46.35592540    -179.17789777      71.37050288      29.42001824     -22.90901288      10.59835593      18.20367680
Sb      20.99932849      22.58875665      24.29857945      59.54370480     -24.83388850      13.24005124       8.77692256      11.33939131       2.76579183
Sb      26.75833876      21.19064854      22.12140909      46.18256846      69.81779461     -53.29152153      -1.05770501       0.22925662       5.05220848
Sb      21.70317008      19.59856833      32.89595721       6.40602842     101.46934993      30.94479959      -0.77748900       1.60203840       0.41107060
Sb      -0.95326491      41.85996597      53.01256135    -657.66834190     410.00788304     334.34523028      76.93651998    -120.40428741     -25.95363809
Sb      18.27560851      19.87402746      22.94075217       2.43034259     -41.95030915      -1.19515658      -1.18032758       6.03225512       0.73493003
Sb    -309.16680410      50.99855696     -73.75770597   -3301.95449566     291.79684208    -924.80701227       0.66424759      20.00194805      -0.48027959
Sb      20.45127926      22.62287800      31.94234637      11.24824349      54.92817504      -2.65140265       1.51076118      -0.39928021       0.50661141
Sb      22.77798526      16.92621578      49.16518661     -18.68379782    -244.93080965     213.39785512       1.70747484      -2.37611276      -0.13107685
Na      25.99086800      13.08093614      38.67144388      -5.88891854      -3.03383894     -31.04841529      -4.94992205      -3.37090674       6.87772318
Na      11.91849855      17.58230741      46.94873477     -31.02480503     -21.67734691      -9.59132172       0.95135018      -5.08510952      -0.83148431
Na       1.90502715      -5.70358443      45.75971634     -28.71901710     -75.34664330      30.32367485       0.65503654       9.23391947       0.44247971
Na      14.70517608      17.23424497      41.32554483       7.14986013       6.33299717     -18.65894893      -3.79572807       1.35039242       5.91285065
Na      21.26566819      33.12497268      45.24867909     -36.66331829      58.54653143     -41.83389085       2.21877166       4.82502541       2.29665742
Na     100.45538977      31.40680265      98.71393083     935.91759849      72.06372423     596.80682775     -26.64299321      43.28199255      31.59415780
Na      17.29804106      14.95757629      50.19568660       5.55590633      19.32338368       7.19883629       3.27544498       2.70020233      -1.73289277
Na      19.46625670       4.53889453      60.16361421       0.84130748     -21.00517580      -6.01321321      -0.74501666       0.89095503      -6.07070824
Na      22.30876348      21.82760201      62.03437985      24.92847804      15.75079424      -0.97642406      33.32603575      -2.43020864     -42.90439328
Na      19.28390043      12.45412361      48.47630751     -18.24219510      -3.06210082     -17.61025764      -5.10650643       8.89887671      -1.91769353
Na       5.06773844      15.39872519      58.14333968     -12.44959340     -11.73619444       8.79848059       0.14824009       0.32211366       0.11249901
Na      18.01557176      18.08966146      48.93355872     -16.74550552       6.24762457      -8.89763687      -3.42609869      -6.77418572       7.68138263
Na      22.82161426      26.58274042      39.38297194     -10.24010473     -28.28959676     -21.57844017     -54.61237599      -1.97561271      -3.93831205
Na       4.75411511      15.42620755      54.75080819     -10.46789457     -18.72121897      20.66791320       5.69900168      16.05169160     -11.56344829
Na       7.08373708      44.61607328      16.82696756     -37.21302554      75.24033700     -97.92359188      -8.31503929       1.57336285       5.02183169
Na      32.60344467      28.66054972      41.32484085       7.11594553      -5.74175351     -63.60698611      -9.08495944     -20.60633059       5.88814061
Na      21.09279784      23.01848756      47.15899484     -33.38339471      16.28550066     -22.59551689       3.15485035      -2.27761039      -2.52097028
Na      39.88956609      18.71432813      56.05446972     101.74835541     -41.38148067      73.76433785      -6.16093638      -0.58254681      -7.44040116
Na      22.16374116      27.84689330      43.75879118     -31.17838162      -7.31808567     -56.51111330      -2.23869083      -9.91186909      -4.50772971
Na     659.28347451    -388.98486718     731.20566209    5728.42470840   -3485.04869883    5203.03866505      -3.00807974      -1.72617343       1.35850150
Na      19.95665925      23.68777694      59.22259975       6.74329776       9.72674075       0.07704234      32.50706607      24.15917045      35.23299380
Na      47.11428247      80.78148274      23.06257740      63.84065030     225.80445033    -108.10170721      -3.27617229     113.86278237      -8.53428540
Na     -82.84840718    -113.73688200    -155.46271179    -520.50405586    -685.12484997    -933.88268909       0.53390892       0.87238582       1.10606407
Na     294.39993152      95.36391193     250.17609942     309.40459883      42.94680723     209.55292864      12.80982573      -4.29861666       6.85360108
Na      19.93617081      34.94025177      39.78348475     -15.88260891      73.75231978     -18.77577073       1.11183683      -0.65688106     -11.86067160
Na      23.82236121      30.00212482      45.38943596      -9.02588128      20.11720869     -22.53106144       7.27057832       1.41434451       4.92302552
Na      24.69025173      12.78447457      43.57181090     -12.52104345      -8.91019041       8.45207698       9.87477945       1.13582354       7.41439100
Na      23.14119174      17.09545500      52.84357520      14.42756402      -2.04065113      15.97902949       0.29145450      -0.26653958      -1.71429307
Na      53.85452024      -3.88603672      56.29861631     192.70812653    -191.31996347      49.97910878       1.39840773      -1.04943980       1.52818996
Na      25.97110003      12.17757218      61.43037468      -4.86731690     -25.55564798       1.06954432       4.43582220      -2.83293183      -3.92238248
Na      20.44210177      17.30632772      50.27632712      33.05119543     -19.98075254      12.70554066      -1.82618140       1.12299662       3.85403987
Na      24.19571293      29.44162150      56.16728230      16.21048885      96.48364295      55.26748946      -0.49723047      -6.65813584      -4.32557881
Na      21.33454660      38.87597873      62.44100017     -21.81916862     118.49904435      87.18277930      46.11361625      10.38803420       4.85715967
Na      25.21731761      18.17038651      50.01354408       6.57752855       6.80596459       0.75641850      -3.25377639      -2.13796397       2.15248918
Na      18.64614775      36.13782779      48.06397519     -10.37068522      -0.79491628      -9.64076344       0.30395763      -1.51936138       1.82430934
Na      30.09482531      21.23176067      46.33055428       0.19934158      12.62536407       1.00562836       8.16594323       8.11649357       6.26125276
Na      31.09439699      16.44543917      45.86012751      40.07519859     -45.90691863      25.45954272       0.68644147       0.97205840      -0.24940820
Na      25.88812353      18.20199884      55.67636652     -30.21038299     -11.58455215      53.41537094     -13.28293433       5.52359356       9.54833927
Na      22.41673721      22.54360673      37.08224254       5.59480266      11.00436410     -44.25023626      21.76410699       6.34008099      -0.17139642
Na      28.61459996      15.69361002      59.49640986      31.97953963     -65.25473653      89.31376357     -25.22878450      -9.62497147      11.13931898
Na      18.08625343      20.88012533      42.56873776     -16.39144136     -24.88337609     -45.57311401      -2.96793127     -10.88813837      -4.87830567
Na    -381.04659245      76.57602083     180.25342415    -624.59908621      65.94150665     217.33918056      17.71227098       2.01116049      24.10981631
Na      30.07149725      26.79605330      50.65129619      11.69860928      14.60820243     -19.43946473      11.72853390     -10.13375841       4.16454218
Na      25.20371829      16.88437845      61.92769314     -15.89689587      -0.86768886      11.30902938       4.76272407      -7.51604857       6.62592253
Na      24.32291102      13.47236978      56.52094598      18.39174728     -38.84877586      41.45880528      -5.23861908      -7.14081075      10.56359612
Na      24.72030349      28.20881605      60.95420450      35.63394195      31.80510889      25.91538606       1.46507001      -0.08057889      -0.60025258
Na      20.36125486      22.47306918      50.12422803     -13.90933305       4.83205047       1.30497851     -24.46239505     -22.63638182      10.76634404
Na      28.78320626      -2.89826841     -29.37699138      23.69938123    -148.84363930    -423.55688101       1.90991898       5.57453162       2.37681762
S       19.09875218      28.06531154      39.72576444      34.40655522     155.46722858     -16.67906698      -0.07599933      -0.53376406       0.13329932
S       12.06172840      22.43316688      38.89650583     -16.57749568      48.97023089     -56.20827893      28.69703658     -20.33058112     -53.18109698
S      144.87867606     178.15138090      89.66346241     784.03788487     934.92942443     231.68609975     -37.28518484      14.02276971     -22.01677919
S       25.19634986       6.08763873      40.45264437     158.86069365     -90.25107334     -72.69747665      89.08595390     -31.68438493      76.93926198
S      -63.31537296      73.96758888     101.45647432    -526.38517184     270.73490291     283.31108327      54.59012479     -16.30590406      -4.33446032
S       11.28333140      25.13800921      35.17992584     -37.81242682      14.99353695     -77.52574960      -0.10504236      -2.01002463       3.41831045
S       13.08539077      27.82404669      46.82778284      12.91769731       9.75909471       3.64563113      -0.95664776      -2.09335408       3.06805036
S       11.33542276       2.47790442      56.11567536      17.26916569     -39.98708647      29.79883636      37.44471040      23.95522199     -69.17060512
S       11.01429536       9.45769057      62.95948312     -27.62522541    -106.13670026     136.01745481       1.52799844      -1.92691799      -1.90571870
S       10.92648040      17.76682321      57.74516500       2.34515591      -9.21799834      -5.89962015      -1.30382642     -11.13048383      -5.08815016
S       18.48620262       8.85031617      50.18651756       1.70135967     -84.30187629       6.73704510      14.45909644      39.84663312     -17.25996971
S       17.65813856      23.53321668      58.60125602     -14.42097175      17.79618545      -3.23031665      -4.93371776       1.50387177       6.54089852
S       20.33559030       9.97354372      62.09731892     -48.52980365    -117.00079651     159.55270911     -50.37453319     -13.40751577     -34.28991952
S       21.09635035      17.02139574      57.30436082      -7.10315365     -20.09584075      20.20184652     -37.24034421     -52.90985169     -14.71637222
S       11.29844430      19.59176262      53.77665781     -11.67549601      -3.05758017     -18.48621277      -6.57226003       0.58095205      -3.22290345
S       24.17795959      14.96149854      50.79581781      13.44291089     -15.29221211     -34.67268366      -0.14453035       0.34486270      -1.26554915
S       87.92269845     -16.26631416     -26.71535081     332.92081808     -90.54118792    -296.92997037     -17.93980982     -45.74668792     -28.69836053
S       -9.92227953      31.56009472      63.55737563    -272.31871150       8.74452387     134.49135353       4.63606331       1.16395532       3.26519051
S      195.17394035     -54.87313787      74.84489264    1026.62428756    -543.17672612     149.59003836    -266.39362284    -182.44772632      39.35587016
S        9.91588681      19.35079223      42.67702236     -39.29484216      11.06738472     -77.51395150      -4.81796908       5.26313283       0.38632554
S       -0.48547001     -38.54407818      57.98447629     270.84692370    -427.29907872     264.81893824       3.53442570      -0.14766275       1.26362232
S       83.42321201      65.51357538      -1.06997952     670.06359765     285.74067050    -313.46497782      -4.82616978     -11.52672389     -24.84746841
S      -19.93073601      26.86843212    -130.05442735    -230.00392276       7.26521069    -786.88777529      -1.65379716      -0.38887008       1.63166741
S       17.28695938      11.30632149      51.80568867     -61.75696606    -144.79788624     -21.72465735    -103.23474097     113.99444903    -335.26579565
S       21.64358337      22.02132472      62.82494999      38.69292921     -45.74895685      15.55577374     -25.09038501      23.02543074      51.09614328
S        8.75428059      28.09091218      38.27333818     -10.14373821      16.57532433     -89.21875133      -3.76454745      -7.69215961       5.15013671
S       18.15640171      16.35391170      58.89067566      31.70844412     -25.00889530     -13.38546041      -5.44237961       6.94406614       3.56573326
S      -15.51975598      34.49541757      76.58359741    -887.84394332     365.60975430     477.06331085      34.03654212      24.37886273     -22.23151701
S       19.55659223      25.43692319      43.62806017      -7.77884623       6.60448388     -83.86229667       8.03722694       5.09089115       9.41333063
S       36.08557289     -10.12454505      54.60083629     241.74388534    -699.78083958      20.53593199      -1.16188041      -0.41568623      -0.59841250
S      -17.55145811      17.27970168      35.72174020    -250.85031855     -28.41621233    -132.47855244       6.24317619     -20.96866265      26.89124438
S       13.65160757      19.62701425      54.65477125      -8.31562935       0.91157462     -10.76017185      28.13158388     -15.81757088      -7.37095259
S        8.22423319      29.51939365      57.43228210      47.18598796      82.26023894     102.17411696      -0.96579977      -1.80034985       3.18590769
S       16.30680509      16.86225368      67.46662841       6.50252103     -51.28935476     161.19034533      -7.23972852       5.63098255       3.95087039
S        8.97083474      23.47675085      42.19229646    -119.93706166     -14.27493124     -46.11963307      -0.99004362       2.48277007       3.41767658
S       31.34227847       4.45124649      42.80046653      19.45493941    -105.58361992     -68.44891177      -7.81958671       4.24044539     -16.27464978
S       32.80968130      19.52225536      40.01246392      37.39025436     -60.60764291       1.38536981     488.04470959    -190.20440337      95.29299382
S       28.44829482      18.33589559      45.56845963      54.65856010     -15.24439847     -44.44832904      -1.42541675      -0.20722674      -0.48496563
S      -37.74875773     106.12390020    -104.86130315    -400.40295935     478.18350574    -901.59493694      -5.89601028      -6.70563534      -5.23292961
S       28.16552126      10.04471915      52.52755309      -0.03573573      10.17037419      56.92237014      -0.74699577      -5.30345473      -2.39573290
S       18.14741118      -3.50242985      70.38618643     -33.41070252      23.82200554      70.78640520      -0.15840281      -0.95520130      -1.44401187
S       15.71022829      19.70776344      55.57617167     -42.91794949      13.83404108      -6.24219218       2.76691761      -8.45154634      -8.27001709
S       39.41500428       2.10734886      57.21020318      31.08238023     -51.42988924       8.93367145     -34.46712427     -22.73173811      69.73831403
S       28.72912543      13.98940119      64.58915530       9.67931012     -31.18530343       2.50628111       1.22511451      -0.00716780      -0.30586812
S       25.86262494      16.54157269      57.46139861      21.99761928     -17.70401793      12.76927516       6.29348718      -2.37981105      -0.83158034
S       36.09547135      99.91276944    -126.03515189      45.38310688     447.69329115    -927.62079588      45.95050823      -3.95125949      14.79306640
S       15.70975894      23.42354836      46.50865559      -5.83636773      30.17121195      -5.81598964      40.39246159     -70.39516834       9.48289155
S       21.11643110      18.01819060      67.56036631      -2.78951209      40.94397027     -27.57732155      -1.62234470      -1.48116117      -4.19560625
S       58.32506466      56.40126104    -141.99067844     215.61469236     218.55121686   -1168.51485754      -4.02817593       2.72683147       6.83378946
S     -132.74579697     -94.54494673      80.01386974   -1484.77451783   -1195.35511289     445.12914675     -46.26496527      24.88658924       1.06946611
S       38.96175455      30.80993231      43.75016261       6.37832571      50.89222604      -8.67361221      -2.76865585       9.89927690      -0.01551505
S       31.27148785      12.12751882      50.13602892      17.04242017    -102.86175815     -46.41743886      -0.36738093       0.96061137      -0.54431365
S       30.87807078      27.95503418      27.47540245      15.18881359      12.34676529     -21.91748593       1.84187120       0.98093192       3.09018511
S       22.77630421       5.17098360      35.79693076     -13.97151977     -39.61467390      39.10232619      -5.58204404      -7.34668082       2.00811287
S       26.86981101     -19.32847349      97.59119924      29.59904881    -282.97110305     379.88442648     -38.55561698     -37.16697450     -21.02954664
S       28.91749599      18.00198212      49.77041324      46.11798885     -46.61889443      25.07756856       0.77620496       1.02824870       1.61964056
S       20.82657175      19.07591696      53.28224419       0.53454878      11.12879957      50.17561711      -1.14944034      -2.14973535      -0.41980349
S       29.12448688      12.20083637      67.47045785      92.05544695    -265.77189715     287.32835776      -5.90426981      -4.06592060       1.43264984
S       24.37070752      21.46700911      44.27708728     -59.82085123    -108.26432755    -150.03148823      -4.68975304      24.25265373      12.02900766
S      164.13738410     151.12537110     165.87837574     759.92422455     734.37735781     639.09940308     -12.10213130     -16.02682032      17.13067525
S       -3.98869809      -6.12249890     204.61760417    -185.29018892     -96.38866489     798.54313742     -68.11192867     -52.17942783       8.26762319
S       33.27254041      29.59202700      52.26249794     -14.45065207      43.29965193    -132.97667653      -5.91710535       3.97369267      -3.56682038
S       -9.72631080      35.10089389      31.81232143    -632.04658440     116.28870166    -421.07544586      -0.23316093      -4.44634286      -2.25840554
S       30.29878670      36.75770654      43.33723576     149.62508696     190.80253126    -248.22791860       2.61739222       0.34925741       1.39081563
Sb      20.22037307      22.19361239      70.97434168      77.31237460      92.96146388      85.30677367      -5.58799666       2.24120381      -2.52651616
Sb      16.69710697      19.08469256      43.30734158     -15.82514342      45.34029885       6.11637868       8.68488823       0.87941208      54.45569477
Sb      22.03879504      30.47552827      48.20529009     171.27437052       6.61252285      40.16860894       0.94003273       2.57175335       4.50212237
Sb      20.03994562      17.46602504      54.78772033      -5.35059869      -0.81032335      34.90443922       6.32159765     -11.03530497      13.16876620
Sb      20.20787241      12.66981322      59.40051110     -12.71314462     -62.43709143     264.86344491     -26.96739727      51.08004730      23.10063945
Sb      14.01404988      27.67331267      43.56208036     -57.75968950     132.74492892     -62.56809800      36.33027738     -10.21659538       4.08994831
Sb      11.83691040      24.56052538      50.51328230     -70.49450209       5.95846697       8.42160055     -24.92330019      -1.96856740      52.63064629
Sb      16.94741828      36.01924800      50.88385480    -338.54852049     609.71644804    -254.18199760      -6.59277478      -0.65187255      -9.07675562
Sb      15.67408048      52.57836638      19.55880945    -254.06851991     483.19528351    -481.80576527     259.13962099      46.90199459     -26.73331418
Sb      19.73357169      20.96907540      45.72737431     -33.83873600     -34.78749304       1.32711889     283.86051670      39.55268565     -96.22385835
Sb      20.06642553      10.73420369      44.56789148      10.94193908     -83.16818822     -79.84669446      -2.42320700      27.96944903       6.34521140
Sb      22.94880893      21.03135822      48.74895542      23.90500286     151.47113376      58.23083245       1.65341107      -5.02957133      -5.17779984
Sb      -0.66495353       9.15177728      58.38742490     285.36942199    -663.11216899    2187.80674145      68.01157691     171.10628752     249.30286610
Sb      25.33322855      25.70365504      42.54651754       0.84323572       0.90593336     -74.16180541      -0.33274770      -0.01509906       0.41555340
Sb      22.15149722      23.21118692      49.94808894      -4.04715884      42.39859190       0.43057130     116.34573024     -46.80634530      35.52777895
Sb      27.21046706      15.72522866      55.41044450      46.02411241    -100.21310196      67.97662953       2.77516607       1.50064259       3.03899251
Na      30.15384672      15.87804137      59.87712696       6.40354170     -13.10519741      20.09859736      23.30424375      -0.02180021      12.18477988
Na      27.25538046      25.64151023      59.50101975      27.31379207      -4.04552810      -6.24301154       4.27852602       2.49039977       4.62362490
Na      46.08887401      30.39513766      62.56594258      54.47459696      45.88595654     -18.77763973      -2.32554974      -1.58062570      -0.26015148
Na       2.04954627       4.56435666      72.84821859      -8.71608881      10.91441297      27.27126988      -6.59291211      -1.34686720      10.11236535
Na      24.37665018      25.10667082      54.68728907     -20.51132640      -1.51145818     -23.41816721      -2.64067820       1.39443233      -4.37125551
Na       4.45140138      14.52430245      76.48415641     -14.60836382      -3.99190659      39.17042810       3.04524958      -5.17008174      -1.81208259
Na      15.46729529      22.05859369      67.72852706      -2.11765125      -2.49093241       6.63711540      -1.58399062      -1.27719090       2.28957102
Na      17.05009238      13.92718237      62.81184927       9.21411396      -3.82856085     -51.51094040       4.61957903      -0.80760692      -4.53577883
Na      16.16182141      14.95543473      64.17258822       1.07097106       9.05337933       2.26575647       0.19508544       2.38570236       3.08426776
Na      10.08707257      11.62547374      68.75645503      -2.08072935      -1.50801567     -12.21412921      -0.06094823       1.90412974      -1.44923206
Na      14.03244860      13.80850655      70.24907179     -12.69832947      14.59953537      25.68385890       0.25939330      -0.12304884       0.19999644
Na      13.87336675      16.21751877      63.16531045      -3.09075579      -6.58234419     -14.98534714       0.94603522      -1.41750674      -4.76181892
Na      53.23141717     126.45139881      65.60369082     104.83115768     427.00681770      16.54495831      -0.93977074      -0.27094216      -0.10439405
Na      18.28088350      22.35150706      68.63556719      -8.31568713       7.81675347       2.91956870       0.00775445      -0.68171973       0.22956196
Na      18.47724370      21.26112766      63.36249715       6.39073627      -7.24984756      -4.47127559      -0.93773240      -0.19653501      -1.16893656
Na     -52.34443856      24.31078962      99.38699973    -273.95134203     -55.87758169      96.25360552       0.95703331       5.81244124       3.23501806
Na      18.95083777      48.48620446      28.21334668    -250.43730507     712.90327220    -556.68383055       2.53641576      -1.37900365      -0.99311741
Na      17.82454271      26.60679221      52.16062664      24.02147101     -15.08674473     -32.06890762       0.62584826      -0.53223396      -2.61195173
Na      23.36423313      23.68552299      58.44561941     -46.39654470      17.07813780      -1.31714642      -3.60987627       3.05581108       1.30214009
Na      14.44237723      15.81246165      72.52683915      -2.30045390     -27.81604861       5.34754715     -14.01861548       9.60836095       0.59862862
Na      18.06991932      28.07300485      71.43045666      -8.39062391      13.36549600       1.56338556      -3.48780686       0.26926960      -1.46172807
Na      23.42037015      25.00071663      65.82218326      -8.64708601       5.82486397      -8.06522444      -0.63566626       0.94022036      -0.31579577
Na      25.04382723      29.84401306      63.00166961      -3.80116772      22.53139669      -2.96750973       2.00629992       0.71147359      -0.28104592
Na      22.96900738      22.71139375      75.16225194       6.68944778       3.33772897       8.07706572      -0.91269130      -0.02268243       0.59763622
Na      25.79951680      28.20797912      53.49822190       0.28122188      36.85451200     -54.49271318      -0.09420960       0.43136751      -0.27415233
Na      28.34994491      21.62300224      78.91650802      25.85551515       5.71819476      68.30433806      -2.40462120      21.74039568      12.97744951
Na      19.85623439      22.74534825      65.34116073     -23.81652819     -14.36315616      54.39387546      -2.86062118       7.74653670      -3.65161211
Na       8.95542500      16.05287573      62.55215139     -34.55555408      -7.54779771       8.01940509       1.41903780       2.08503401       0.06061009
Na       6.41000425      35.24693072      52.09706175     -30.49388537      45.75954610     -22.02123730       1.27726552       3.94269257     -21.32934173
Na      33.32226599      17.60328919      73.16178072       7.00436487      -7.30741406     -14.41145645      -5.71714238       3.17757150      -3.07681699
Na      18.80060358      19.62129411      64.86780002       2.78917267      -0.65592797       1.72764107      -0.30955601      -1.40876765       3.45405877
Na      23.36046277      12.95784027      69.83420585      -3.30331589       2.14929186      -7.36461798       1.29157640       0.53031164       0.20354444
Na      24.84369570      34.75191311      69.23248231     -37.85078339      40.14055137       1.35916588     -27.00225776     -35.44525903      30.96926149
Na      21.95886575      17.93349303      69.35370601      14.29983974       6.26943519      37.68439671      -1.39223977      -6.58735766       3.87018412
Na      25.82969002      31.90166361      72.17793013      15.42527737       2.03208093       4.95797606       0.19490076      -5.48758174       2.38240371
Na      16.76998387      16.95886791      54.34645016      -5.75881814     -17.40827657     -15.98582232       2.04524535      -4.19156864       2.29960884
Na      17.85224718      27.10371354      59.26627820     -17.41609800       7.04144698      14.40022408       0.94041862       9.89090184      -1.86391874
Na      19.29929723      16.46507093      61.61561079      -8.91925615     -24.60573572      -1.67940257      -1.48634326      -0.79378581      -1.40614869
Na      31.29169939      19.39328622      61.84628633      36.29328878       0.39519416      11.28277684       2.88998362      -6.22984239       5.62528525
Na      30.79227989     -33.29473818      -9.45967859      24.07005412    -210.52649130    -257.35635700       2.28789998       2.74781038      -1.02635132
Na      17.75348056      23.39703444      62.00390888      -9.68411337      -3.49087291      -2.78149494       0.46701442       0.96432411       0.24741281
Na       4.70458557      47.07617558      59.86588698     -78.38999725      82.13166049      31.61648391       2.57610433       1.58563926      12.21791351
Na      22.79407505      23.03522854      67.25096454       2.58077796       8.55725105      15.91965399      -0.75176171      -1.05574756      -0.12697035
Na      30.37178483      16.08449658      69.60943882      10.35155591     -16.46351126      -3.66430549      -0.31343557       0.71766164       0.51829017
Na      25.95214359      22.72314782      67.47700917      12.97373094      -4.51466109      23.88274845      -0.17730337      -0.44124924       0.08901148
Na      42.18508532      35.01882182      68.85290659      89.73793813      46.54030971     -10.45288160       3.65183295      -0.86178210       0.54076364
Na      27.67999469      24.82453751      71.29725750       1.20969572      -9.09379925     -19.13916090      -8.35398868      -5.86776915      -0.49705830
Na      27.42304710      33.88574828      67.32489007       3.89505124      33.88744753      26.41468380      -1.27884652      -4.41837539      -0.70509556
S      -22.07062157      -3.83269723     123.88006549     -63.47341359     -35.21136589     157.44657664      -8.45430222       0.17023265       2.09623970
S       16.14614853      22.27300070      70.27187885       6.84625798       8.65022625      15.00521283       1.11810875       0.37326477       0.07173678
S       14.88896708      14.94589190      53.29631170     -28.31285292     -22.40678108     -34.57298079       0.74365360      -0.55861457      -1.87604504
S       28.39450973      11.27324765      79.59562939     -23.27615338     -25.43577553      72.41105088       0.48918010      -0.81363374       1.47995539
S       27.86863974      11.56715047      57.29017688      25.67053801      17.19475256       6.63207096      -0.52808472      20.95584327       2.14076754
S       14.83967757      18.67662978      62.69417036     -97.30819541     -17.49626178      15.63338867       8.66830575     -28.95748612      27.51919201
S       13.84858697      23.40066971      57.42620155      17.43696501      18.73495999     -13.22855233       2.87694227       7.68882947      -6.12693131
S       10.92069029      17.39997041      66.99411251      -8.03686453     -12.51612269      -9.51534903      -0.12291507      -0.93794802      -1.46739861
S       14.74149685      11.16536107      68.86206899     -22.81367595     -75.10828187      20.32624412       0.33421787       2.13435877      -0.33756550
S       21.72039264      26.13181343      74.47382918      -3.01045234     -13.54469123      -1.63114169     -11.36933808       6.26311150       3.60479195
S       24.21188085      26.61773051      68.18893081       2.08831268      48.72876059      23.58359642     -11.55092294      -8.67828920      -5.64501923
S       35.57974490       9.63612494      83.20368082     112.51699791     -62.54950149      11.51119023       0.16721447       0.03140636      -0.45196459
S       26.42394831      19.32266077      73.92363303       9.94958138      18.47137510      35.95694597      -2.99541627      -2.88835195       3.94221259
S       14.80846068       2.18558185      98.27174185      32.09766725    -180.63334418     179.17254807      36.30454636     -47.92252649     -27.98917243
S       16.74347479      25.65235334      74.59446978      13.37038318      13.99611143      15.92613593       3.75427029      -5.72591305       4.00855447
S       11.00074610      15.24798907      86.12555591       0.51254395     -36.91682893     128.08948893      -0.75426377       1.03528530       0.66824956
S       16.24979451      25.07361275      58.64526372       8.57252364      -8.91736250     -10.67419076       0.67709363      -3.15612738      -1.92064109
S       25.44624069      11.35244514      82.52350227      14.39286258     -78.58173874      37.98643020      -0.58445978      -0.74664663       0.97714542
S       29.12652634      20.86229076      61.59381960      49.76427215      41.57183471      67.76657241      -2.71113400       0.68665934      -2.79601852
S       21.04061948      21.05822958      65.05864542      -2.49939479      -8.13048331      16.88821063      13.43720730       1.22429941     -22.66934322
S       15.09554158      24.60115437      46.44165371      38.47336118     -19.52281598     -29.91969709     -33.50157579      77.66219043      -4.95425396
S        6.58254266     -26.43353550     115.64313569     -27.77872328    -263.75012293     363.88594118     -13.24135440      -2.08027868       2.63358016
S       17.56268970      25.98831903      62.74967724       8.81759978       5.17279176      -3.85631706       4.56057955      -0.68259877       2.59967940
S       19.47687098      22.41362522      60.64795945       9.56403142     -13.96561004      10.48863286      12.72662950      12.38834502      11.86778470
S        8.60652671      18.84815845      69.69312460      -4.88885513      -3.53081347      -1.43711123      -2.28052145      -2.75528558       1.08982321
S        4.43030689      23.42336555      84.94606874     -29.51269642     -23.59249157      44.07404587       7.86861355      -3.15691646       1.41474344
S       21.52055598      25.90479947      79.51238928      17.27405345      26.56620925      16.32286767       4.20164752       3.04661508       0.82388650
S       24.68360878      18.78769455      76.11125029       6.45204519      -1.80246489      10.26399741       7.38360774       2.86305518       5.09412620
S       14.28023572      14.60983500      77.16892069      22.80224412     -31.63837997       0.67131078      -1.01613044      -3.38745735       0.95925628
S       15.72479743      13.59964093      67.48415043      14.67209967     -88.71660940       6.87890072      -0.72130535      -2.96228974      -0.44724549
S       10.54859224      10.70958145      76.93894218    -122.49263006      13.42588814      20.58534306      15.73356038      -7.82893924       8.35383306
S       18.34268419      23.62499402      77.07558790      -3.12458181      -5.65994859       7.20290047       1.08838117       4.27766262      -1.12548484
S     -692.03185295     835.90190364    1595.81132651   -1023.90860764    1301.94473856    2410.60868852      19.42506805       5.47877113       4.11568642
S    -4424.55995307    5618.72994609   -6452.52117477   -9316.53208340   11835.72958237  -13697.58947019      32.95677059     -32.65934679      15.03109132
S       26.71543271      13.72698707      56.35952860       4.36366410     -42.54267936      -6.49109988      12.75320693      -8.84624197      13.11213964
S       29.78227802      25.69434622      69.50077690       9.55479210       1.00032824      21.27949672       2.19590471      -1.21743717      -2.39453845
S       33.59054612      17.21850378      53.39523611      32.77232476      29.80290218     -27.85079226      -0.11292379      -0.26774541       7.51441432
S       19.27732042      29.52293098      68.59759835     -34.57863059       4.60550167     -22.16389582      21.28953867      -7.55013062      31.04952543
S       17.66437599      13.78665930      69.92962292      20.37900392    -175.32127361      52.01593394       0.89794136       0.92703194      -0.60507928
S       20.94301503      20.68405982      62.47811425       5.60365237    -136.63997477     104.14192923     -15.95019705     -16.27206288       0.01821636
S       24.60891946      19.64588319      68.96967353      12.49987208     -18.18287877      11.41749876       9.24501300      -1.29784075      -6.49311276
S       27.33274766      16.21386280      80.82862805      19.56435297       3.28626121       8.45150825       0.05040527       0.68285790       0.12747991
S       35.25061199       9.69916934      26.42523353     -21.49294724     -85.40728854    -204.86140946      20.81058310     -20.82604844      28.16340921
S       34.65143682      24.88512779      84.26951481      49.03954466     -20.57806914      36.05309873      -1.11998424      -1.37426467       0.10609081
S       24.82619482      13.31844579      62.89945202     -50.70563587     -33.03184480      16.63941576      19.49907937      13.36094314      29.66376582
S       32.64067683      22.21508601      78.50362370       0.36422279      -1.24005511       8.04181544       1.95481380      -0.17820151      -0.23502530
S       21.88100667      21.22298324      71.80968056     -15.26591432       9.07271469      19.36191708       4.82943798      -0.16814622      -1.44967511
S       21.84772817      20.04984470      73.27501705       5.33779932      12.54522659      -1.50792884       0.47855046      -2.98645005       3.93883017
S       24.70832537      22.25081640      58.07399277      19.82892976      24.25066165     -60.18452757       3.19659697      -3.05130131      -1.00325276
S       30.40696085      19.23260290      60.08044358     -22.91745784     -43.88642555      72.17666623     -29.86765880     -24.97788755      96.27622837
S       26.16483663      33.11668611      49.63280461     -22.92409653     -71.43766973     -26.46550622     -32.14107155     -51.53120555      25.36740837
S       30.83844484      19.14220101      56.59223602       8.53524884     -45.88892312     -74.62645689     -10.19989140      16.88994865      37.47825426
S       12.80908234       7.68571267      49.26250961      20.32898036     -22.55622254     -38.50260665      -2.06187316       0.13097715      -1.74138939
S       19.80656702      40.08969750      58.79448657       6.29277421     112.77286221      13.94206972     -19.86910239     -67.78595661     -41.75619451
S       27.20000622      46.39630919      54.62703235      95.29031273     525.78282715     103.14411496      12.22113294      -3.24587973     -11.96760106
S       31.71663473      27.94350853      71.74320372       6.87017996       5.48874273      75.88322191      16.23739295       2.79364821       3.92366154
S       19.05134146      29.86451244      67.15014400       8.47804247      17.05933295      -9.99247603      -0.61159302       9.37757324     -35.58244557
S       27.18622346      26.61378551      78.18918655      26.45131745      43.79850865      19.39775786      -0.60978084       8.73745788       1.86127168
S       52.13863521     -16.70678557       7.00241264     160.94878498    -358.29892912    -334.44863783      23.94075393       0.82357069      23.85832914
S       34.03542503      19.03190165      78.76158567      20.88836529      11.15172740      -9.08631036       6.26711080      23.31884852     -11.68599375
S       30.35369908      27.29687649      71.13041810      -1.93940041      20.19483890      19.12801468     -12.68773543      -4.70677729      -6.97995290
S        9.47639538      25.29135591      68.17626596     -12.99117936     -23.41392118     -22.59775233      -6.93759202       3.81589132       1.77037221
S       16.61252742      18.99278843      75.97654124     -30.87651567     -41.17600332      71.60395188       2.03923409       1.40512387       1.42074786
S       24.40439325      23.01200866      73.49403603     -10.89656205       3.92253244      -0.38113454       1.98178800       3.30264173       0.23382276
Sb      15.88929904      19.86375689      71.93695167      -3.37308063      35.97786171     -22.99271651      -4.77908617      -2.28733506     -16.46789074
Sb      18.83539816      20.84278991      60.22515412     103.11315454      18.29879096     -88.08303697      -7.29582246     -19.12125713      -2.27599862
Sb      17.21693216      25.60394184      65.61195284       9.59953278     -20.64734304      32.79101619      -7.63482639       4.43213019      -9.67173482
Sb      17.87139370      18.12312148      71.08136884     -33.23729043       5.33624907      21.17311435     -12.16552929       8.46849458     -11.51822542
Sb      12.40330102      20.81034597      55.02831836      29.27428002     -32.23439606     -61.65409977     -18.42022292      26.70473643       1.66365898
Sb      22.03358557      27.63653019      60.45274831       6.23490876      30.62629329     -33.78185599      50.71577409     -51.88755763       8.56917985
Sb      12.60488404      18.56171568      65.60652665       9.39129255     -63.20477750      16.33595715      -0.24729933     -16.22468248      11.53097154
Sb      25.25489768      29.84254498      76.01703876     -31.64012404     -87.47143731      27.85608987       3.14556529      -0.13271853       1.78528871
Sb      21.41090987      25.86664174      52.08613822    -301.83860666    -102.53891028    -158.39428132      -0.32805585       0.85139182       0.72841433
Sb      22.31157894      16.32260013      57.85052392     -18.18240934      -9.85193863     -33.11688776      52.82459752      22.19860262      53.50758506
Sb      16.65185636      19.21595346      67.57394603    -149.04907343     119.70041071     -11.73972126      -2.12429506      -1.73827876       2.02419781
Sb      21.71365924      12.53633976      76.86086032     -21.08632059     -11.07000321      33.33969972      -4.10713927       0.75148061       3.32223035
Sb      20.13134582      18.77460348      63.04508062      40.81860769     -56.28332606      62.95800703       3.36787050      -0.26524433      -2.06033278
Sb      14.15811853      20.21271266      65.03811257    -281.38753035    -185.81001171      75.34360179      22.00642796       3.75691129       3.49918524
Sb      20.40992096      21.19472476      66.87610098     -15.90253414     -15.91472837      -6.02226507      -2.13878065      -1.07076602      12.68616435
Sb      11.98607266      32.14739092      61.08460837    -204.61507422      47.28734570     -34.29734652       4.34457973       2.19002687       4.03978775
Na       0.70204851       0.36162813      77.23779596      15.09344396      13.81183112      -1.29627906      -5.19958654       1.65820775       0.30118463
Na      10.16065264      10.89280723      70.78472027      27.27169151      -8.36663396      -7.92093834       1.69403017       2.02150138     -12.49533020
Na       1.99620088       2.24253636      77.27630556      -4.17664403       6.84104896       2.00446559       2.88285518      -0.26833877      -2.05081083
Na       5.82609177       0.80600334      73.05532294      -3.72871694     -11.84920946       4.21943383      -3.29350091      -4.12612464       1.21247173
Na      -1.93463762       4.33739913      82.50816498      -8.96774791      11.47952071       7.32146281       4.97594565       1.68461770       1.38022091
Na       3.58297122       6.94807534      82.45247992      -3.62279155       5.55098089       0.79077497     -19.63409147       7.54333872       1.53177304
Na      -1.83248575      -0.86609913      90.19804549       0.52881769       0.09567594      17.01579734       1.70409945       5.54355187      -8.18394686
Na      -0.29117070      -0.23146191      85.43022008     -14.23719631       3.62266281      -1.40836450      -0.26625010       0.15873992      -0.90919930
Na     -10.70863767      50.34630848      76.64231395     -28.83183173      87.21839923     -22.65581011      -3.28534898      -5.10038975      -2.75263146
Na      -0.85030287       3.90133374      92.70849376       2.11040461       0.56677835       1.27111011      -0.97053913      -0.79984172      -1.28579503
Na     -13.04698866      -2.05322167     100.38111753     -26.69475739      -8.42638882     -10.24573262      -4.27022596      -1.51442190       1.25667875
Na     102.31488222     -73.05991618      -1.39074596     187.13843318    -331.68274777    -328.91763921      -1.40131901       0.66835189      -1.14587034
Na       2.91682388       0.94879682      73.02628032       8.73699570      -2.30143270      -2.41086398      -4.99589354       5.34681586       2.39261524
Na      -0.65919732       4.73300598      73.89329327     -11.95365859      11.39234363      13.56517980      -4.90933034      12.88971858     -12.44316304
Na      -1.88742419       4.61168156      71.51940708     -11.68925069       4.76303872      -0.25121630       0.87063278       7.45043487       1.09506682
Na       5.80078486      -2.56874632      88.18398892      14.54642520       9.67022835      11.35240429       0.80030887       0.04188180       0.20724058
Na      -1.93087324       2.60881710      84.00746648       3.05278577     -13.42740699      -5.39185970       1.16971996      -1.35345249      -0.08544609
Na       1.88829976       5.56092760      86.11201029       5.36568003       1.98522702      -5.23765586      -0.01804236       0.26381557       0.74530681
Na       2.20775966       5.65227319      90.24784113      23.44959595      52.08741740       7.82983511      25.86860226     -21.64109265      24.72072130
Na       4.80883171       3.52775491      88.18819303      -1.06873391      -3.76138495       4.29957330      -5.95674885       5.34726539       1.30032514
Na     -86.14771393    -226.35113084      87.19480166      28.26317283    -280.81959289     -27.84186887       4.99113997      -0.07157092      -0.37313262
Na     -10.93594479       4.71881174      94.90882345      -3.60105368      -1.80366596     -13.47655175       0.03010048       1.72498937      -1.15757023
Na       0.55659125       4.23521913      99.13219326      -0.52443564      22.69903849       8.33065325       0.62530215       0.01001005      -0.14876521
Na      -0.80839720       4.90933492      88.89047263       0.87595749      -2.35847751       1.21713670       8.18938990      -8.48353465       6.05775684
Na       7.37363931      11.96592373      76.09591704      -0.77228264       4.41257992      17.19660184      -1.15754938      -5.16931751      -5.02016254
Na      -5.43615769       0.08986422      79.79666374      -8.75224611     -16.08501094      37.27431946       1.82463951      -0.25312032       0.46552601
Na      -0.62653059       4.79419674      74.74925902     -31.03612916     -49.08908046       4.35281062      -0.93967641       5.94272598       8.02176550
Na       3.45079456       9.58019572      80.19518758       7.47597393       0.04851672       7.48320911       0.64643464      -1.00997425       2.22283245
Na       3.35579389      14.03240122      83.61033634      -3.35313133      -1.36422364      -3.79640731      -0.99863272      -0.53474495       4.63351429
Na       7.98596538       2.52407345      78.31922761      -7.94980891      -8.22423033     -23.40287632      -0.85586655       1.96978822       4.19838326
Na       1.60283999      10.40832093      86.03610704       7.63080887      -4.33103819     -15.71288104       1.31440684       0.35912467       1.57158679
Na       1.27119426       8.80046588      92.95658910       2.90009461      16.80257123      40.69105772       6.31117332       0.31052090      -2.05737416
Na      -3.18916889       7.90897448      92.18364135      -3.42475767       5.01873834      -5.11673584      -0.63718043       0.72892966       5.09731968
Na       2.72372083       9.33061655      93.86191827       0.13947184       2.76488582      -0.93042133       2.61739358       1.98355386       1.74264716
Na       0.06664931       8.07752758      92.54858444     -10.90679430      -1.24859030       1.75650500      -7.12248752      -6.18388877      -4.01578203
Na      -2.38452306      12.22481776      99.99721372      -3.83910530       3.58096978       3.50193591       2.28418654      -0.65975221      -2.40574973
Na       6.21793416      10.44067492      75.36301402       5.85892655     -11.18375606       9.58450646       1.41551631       1.04174728      -6.93962500
Na      16.31023002      18.58469471      69.12599156      -2.70182964      25.09205994       9.74359540       6.78268876      -0.53628981       0.78276091
Na       2.98402971      13.53003177      74.27053190       4.69350411      20.82069611     -14.70845127      23.99895083      18.72794788      -1.39508952
Na       9.15771708     -25.03238184      36.91019276     -10.19320839    -111.81841533    -132.40202054    -280.12386785     -98.12106563    -548.68004877
Na      -2.71647849      15.17706202      89.38198458       4.84761041       9.34559948     -12.16138731      -1.73813025      -1.29829461       0.10788105
Na       0.19015162      18.45074950      84.93957309      -1.47145967     -14.71991953      -6.63519796       0.93111271      -3.87852658       3.12970910
Na      -4.85202546       9.42597234      86.57995835     -15.79979942       8.84674902     -23.29807169       0.47147060      -0.06615306      -0.17142231
Na       1.87522963      13.70176291      90.02175380      -1.51055416      -2.03747855      -3.89359431       0.38405427      -0.03867669       1.57349988
Na       1.74459072       8.23641289      96.73661338      -2.00682415      -4.46621139       2.13563835       4.73489339       3.03221801      13.06864644
Na       0.42039087      15.50271636      91.91076672       6.83496692      -2.92194103      -6.37237164       2.59914857      -0.01026784      -1.28789239
Na      -0.13209736      10.32137706      93.54128640       3.39624444     -16.21497066     -11.21286937      -3.68347385       1.17443947       0.26089827
Na       6.92148992      15.39728283      93.86770249      -1.81946131      -0.90482868      -2.93964329       1.38388977      -2.24642569       1.36533094
Na      -0.65375593      14.52595615      67.44517046      20.41337969       8.93259729      11.43736176       0.43267467       0.12600648       0.73607663
Na       5.83083601       1.82723636     102.65229533       5.70377447       6.76159070       4.29700082       1.54433493       2.79887590      -0.61715496
Na       1.13291199      18.93955099      77.01140539       3.86643761       9.69626762      -6.55416439       1.22489303      -1.72622075      -0.12914668
Na      -3.29785004      18.06557780      78.63177872       1.48398598      -4.44763095     -16.25766818       0.57179057      -0.40402496      -0.35946173
Na       2.77232515      17.74436097      81.40994399     -12.19790141       7.83589310       3.67282421     -15.13686023      10.54723641       7.36010116
Na      -1.87034812      20.36015237      80.42630171      -9.70726109       2.97808028       2.76315025      -0.51534829      -1.88030558       1.10867829
Na       2.23561187      13.70453873      87.98591604       7.43659225      -1.64542506       1.79727890       1.53721246      -0.56749160      -2.92508640
Na       3.81137888      16.70733036      92.09973008      -1.29130321     -10.63160301      -8.14454024       2.96218675      -5.49021846     -20.91659803
Na      -5.17435080      18.23316078      94.45666480       3.18355748      -1.64335471      -7.06236828      -0.85298877      -2.40449691      -1.23337875
Na       1.04043211      17.41252535      93.11327812     -13.78587098      -1.88899136      -8.56439810      -0.54885110      -1.02995198       0.42011235
Na       3.00385414      17.58372638      96.22585899      -4.27711895      -4.98489674       2.19823853      -0.63239518      -2.04087836       0.20026820
Na       2.69772859      20.44188926      96.10614584       0.52391847       5.74452859      -1.52991315       0.13779476       1.67541376       0.38603202
Na      11.47054260      20.67851160      75.57088239      -2.82893968       8.00839661      -0.72223878      -3.18784460       1.15669432       0.17812881
Na       7.14904056      32.58943465      84.57653065      -2.89110340       7.63951647      15.83475315     -19.46005926     -20.40764949       4.37088740
Na      -3.00444398      17.86288635      82.96621260      -6.45487707      -7.81278104      19.87275236      -2.57363912       0.14641227      -6.67291252
Na       5.99174456      17.01378344      70.91949047     -28.06742434     -35.08325434      14.24184504      -0.67123906       1.17009964      -6.06016605
Na      -0.85944961      22.64294869      79.80264740      18.46302211     -13.15287308      -2.21029108      -1.67673306       4.29330595       4.46558182
Na      -2.30701620      24.00597617      90.46769431       4.84740178       2.91982291       1.01492804       2.31986428      -1.13907764      -3.64132061
Na      -1.27500792      20.57830624      91.86991116     -13.34139623       2.34420426      16.90035124       0.37821039       1.60376193      -3.30304327
Na       1.54167547      23.16142265      89.01127000     -13.95136936       6.01132077      12.00397182      -0.07580969       2.63066861      -0.32839465
Na      -1.04464064      17.91979857      91.37838933       3.26951156     -12.49068064      -3.74756975      -0.57255166      -1.23724795      -1.32409607
Na      -1.14518957      21.72853471      95.18366962     -18.51900809      11.22172021      15.18343898       8.14865533      -9.62318001       7.10001795
Na      -3.14000760      23.31145122      97.29097219      -0.11252574       6.09865508       5.60432982       0.62731058       2.21053930       2.26723269
Na       1.86110485      23.56813039      95.66730969      -0.51843050       7.43443940       3.85774346      -0.66305851      -0.90064267      -0.76206800
Na       0.84290974      23.55947129      76.73738602     -17.18678063      -6.87766381       6.20343252     -13.13809359      -8.75259461      17.15866483
Na       6.61845326      24.86083415      73.77090016     -12.40728884      -1.44015218      13.54228467      -8.60520576       2.58354550      -1.33317061
Na       8.00859953      19.69037241      80.20189674      -0.22209986      -7.90673805      11.11224182      -0.28568570      -2.50753517      -3.17765637
Na       1.22197608      34.78375354      75.12301352     -19.58378299       6.75082550      -2.50918462       2.70402176       3.91418768      -1.62194606
Na       0.18727382      21.00802991      88.22672104      -7.14058597       0.79631005      19.30271113      -2.26809947       0.46798587       1.21118776
Na       3.09751429      21.24952349      85.78814648       1.85407347      -0.21440895      -4.72302912      -0.03802548       0.25361835      -1.35552063
Na      -4.67031021      22.37736170      91.24717656       0.17772067       0.74296182      -3.72283826      -0.66331784       0.10744507      -0.53602192
Na      -2.64181689      21.45360880      92.75179745      -1.37953418       5.95047497       1.02286937      -2.12747338       0.93774817      -0.83892350
Na       0.19313698      25.95211374      94.24058306       1.90287885      -1.80213984      -3.61154308      -0.86866550      -0.45991906      -0.46013417
Na       0.72416978      29.72001666      92.76174555      -0.54743082       1.31637184      -5.77949515      -0.07399179      -0.09100146       0.57128235
Na      -0.19329951      26.34579132      99.41615905       5.93780321       1.28831149       4.82105629       1.21368159      -1.51674228      -8.33402419
Na       2.00568447      29.48559092      99.37038430       5.80066331      -4.10030982       9.85376667       0.77275340       0.30117649      -0.16502527
Na       6.19284183       2.91699690      71.19912780       0.09752313      10.42910502       4.26502928      -4.05245764       4.02228578      -3.09526795
Na       8.21938377       1.04777647      77.21428102      34.19260970     -11.00272179       3.63347295       1.87971786      -4.98181146      -0.18370555
Na      -7.19904218      -0.48678555      60.34894853     -59.53667561      15.41116240    -153.30692897     -53.98267097      50.87362373      -6.85406603
Na       8.98981836       1.60323310      81.36589603       1.80765241     -16.26336716      20.08074938      -5.80764221       2.27754455       1.38885211
Na      -9.70321326      35.75815879     105.72640192      -9.02507054       4.94499738     -17.49568002       7.15486424       0.60937979      -8.82846584
Na       8.59729515       3.11722968      86.27128223       2.07117205       0.90789679       4.53723416       9.92340460      -6.09447518     -12.22716574
Na       4.38613847       2.51254581      84.05423464     -11.76884275       3.94644151       5.86016591      -0.16792113       1.62182986       2.03253745
Na      10.48571081       5.06021805      90.89404264       5.99975218       6.44973747      -6.29756677       0.96120366       1.66505512      -0.34520481
Na       4.65648885      -0.46378368      92.49385052      -4.69533554       3.46334766      -3.55493453      -5.19557558      -1.16709208      -0.49346813
Na      -2.10418171       4.66377803      96.53926427      -7.29395049      60.07146125      38.87820981       4.23046906       9.49756467      -0.87253511
Na       4.27899954      -0.87188751      96.54149542       4.24853079     -11.46149921      -8.59117971       0.56998018       0.73867903       0.45875229
Na       0.31320302       6.28926635      88.71033350      -9.35130376       6.03386186       1.19693038      -1.44421118       4.67853317      -3.18554235
Na       5.82570948       8.29631363      71.64988115      56.29033726      45.25395259      61.92305140       3.33417672       1.56834202      -1.34439238
Na       7.65342242      13.15817818      77.47040485      -7.49290955       5.13491739       2.48890352      -1.19325802       2.68901842       7.78533768
Na       3.46142791       8.65924439      81.18701433     -13.21369734      18.72870372      17.79432845       1.89201801      -4.72762662       6.18019426
Na       7.04050672      17.89234465      75.27944896      24.40046040       6.28910114     -21.40515385      -2.07115460       5.11531837     -16.77165474
Na       2.78944347       6.59841556      80.03149145       2.25285009       3.53978865      -0.92399625       1.59477094      -0.77346826       2.93426496
Na       5.64749738       6.35725459      86.39464353      -5.54525867       2.36108145      14.86073993      -5.62915901      -0.67615791      -1.04493992
Na       3.01380128      -6.20577849      93.02378861       5.44657598      -0.23347341       4.66324883       0.76677127      -0.30414180       0.73458869
Na       7.30162254       5.62007965      88.58721684       3.39941392      -1.00821025      -1.50486686       1.02879986      -1.06738270       1.95619649
Na       2.20710045      -0.80244307      90.41197369       3.35115785      -7.52687102      -0.84265814       2.03180795      -1.70243297      -0.42861461
Na       9.09595942       7.36649008      90.66836600       5.14098518       2.29248148      -2.77932965      -1.03744199       1.13107520       0.01016745
Na      22.16093020       8.60562351     147.01495628      13.13348989      24.31214683     141.39160839      -2.35879568      -4.87733968      -7.32207432
Na     -17.96634570       0.47601147      98.13911889   -1318.61519901    -222.53026179     367.33970183      11.45738917     -16.24057041      10.60630914
Na       9.29250273       8.83232264      77.15406785       4.46670548       3.26962274      -0.93240115      -1.60271327      -2.92324844       2.04963858
Na    -179.06387580     304.54512705     403.02162950    -149.57443531      29.82748585      18.95648346      -1.13120933      15.19197873     -14.63384571
Na       6.02380922       9.19172570      78.16344885       7.13337920      -0.40116846       4.30472040       3.79535220      -8.15870800       2.14105846
Na       7.41099076      12.90046602      84.29765758      -3.17793330      11.91655401      23.86626391       0.00437889      -0.53779922       0.14924435
Na       2.22565351       6.59723932      78.11239747     -10.42475277     -10.20494759      -1.77223150      -0.64031356       0.73292234      -1.54342616
Na      -2.03981304       5.94673565      88.13989488     -17.73719162     -16.08098961       4.92776210      -1.79415089     -14.33116267     -60.47985780
Na      -0.21302689       8.48863038      85.36520598     -17.17252401       1.65344627      -3.31168197       0.49848680      -4.34669796       4.11591361
Na       1.29395868      12.03463964      92.69325293       6.99238295      -1.29156769      -4.05708804       0.98400016       0.94659980      -0.21504594
Na       3.18093980       4.22741924      93.03722861       4.25479515      10.28003261      15.06036419       2.02586610      -2.79966993       0.98033909
Na      12.38681267      10.19232696      90.30955346       3.72261890      -2.88365588       7.06908760       0.06237382      -0.79119805       0.68902100
Na       6.16785096       5.77512403      95.29495140       1.01391702      -8.91308170       4.06847108      -0.26362473      -0.56851732      -1.07194384
Na       4.74691897       9.82783947      95.86292176       0.98607312       6.17611544      -3.66693851      -0.67170465      -3.83762402       2.20015464
Na      28.65156709      28.44745850      72.73908662      21.30691409     -10.23950863     -10.59589922      -1.15950695       3.97219372       1.19481650
Na      23.14219713      11.38449440      75.17469160       5.71495343       9.80817306      -2.64781515      -1.94348453      -7.47638705       2.92807705
Na      -2.35990104       4.47332962      85.43247960       1.51968388      -2.65628805       7.86800393       2.63100907       3.64403060      -3.61840592
Na      84.44433715     -47.89492165      26.48739356     639.34671099    -380.71304264    -414.90167979      99.92612746      18.36214465     110.02172405
Na       3.67813224      14.20946605      81.75879749       0.62516662       5.90692880      -7.49926712       0.68441034       1.05055793      -4.26823070
Na       6.65638638       9.84504370      85.48428833       6.84197467       6.54727766       0.01071695      -2.33247608      -0.31690255       0.78844087
Na       4.64244465       8.22424034      93.47011406      -4.50826790       0.24591253       5.82892922     -11.97162079       5.94496894       2.41114098
Na       5.09175927      17.18843742      94.10378392       1.38887808      -2.49261531      11.97751112       5.77344140       1.75463074      10.98168034
Na      13.80833641      42.86199214      56.33201926      36.69500125     108.11384281     -85.51103002       5.63824412      12.96207914       4.67150062
Na       6.75791888      12.33884793      89.44724544       2.92503324      -3.25993549     -15.93370821      -1.41259332       0.54255800       0.30295455
Na       2.72553534      18.81562828      94.30759821       3.87377582      26.37879204       3.30203300      -1.37143992       7.24247501       1.51307639
Na       4.21789918      14.37196557      92.03186551       5.48560775       0.03209430      -0.88873405     -20.76898771       9.21204019      -3.73978947
Na       3.88306988      24.83156164      67.30551266       1.77966866       2.86479312      26.76588302      -6.83943732       4.58018619       6.55976220
Na       8.91262016      10.07286480      85.45961596       4.76531196      14.77728007      14.17116790       1.44021774       1.54098701      -0.61862321
Na      10.65015492       3.59705464      74.85805463       3.59110461      19.11093525     -12.91571085       4.80880159       3.25443897       5.24531403
Na     192.59098537    -368.16546093    -240.85834614      87.02367739    -211.97918922    -110.28032019       1.44589156      -0.74466539       6.45213441
Na      -5.61127285      15.74090692      88.97306356      -9.92468039       0.85386114      -2.21259897      -0.55538443      -0.02490327       0.18781121
Na       3.10306658      21.61148953      89.54250665      -5.66429075      -4.15828261      15.64836835     -25.27325225     -16.97979637       8.16516682
Na       4.93080362      11.45238282      80.15440304     -22.21825168      -3.90953422     -23.09838684       1.69125622       2.63942423       1.99344071
Na       5.86870249      23.28337602      90.40566336     -17.56027025       4.83121822      -3.19910868      -1.04352872       3.82634485       1.22028922
Na      -3.31532982      16.16802603      82.22815924     -93.33099754     -49.53846277    -102.47353509      -1.41744710      -4.89104350      -1.57290925
Na       9.57511658      13.82783069      90.83705517      -4.39753556     -11.67964787      -0.04047631      -9.16058050       4.13695889       1.07385362
Na      10.03364199      22.00511807      92.25181073       0.39525171       0.86957544      -1.20570789       0.52435660      -0.20668248       0.39092972
Na      12.26924249      10.62507647      95.27840287      65.13264247    -119.23681807      40.21183564       0.35367560      -0.41762311       6.12558464
Na      15.90493874      13.33851915      78.67636408       0.90151319      19.03386085      -4.03975804       0.50710651      -0.54495889      -0.21781208
Na      19.98592486      24.66883854      79.79710111      -5.10585280      13.28504115      15.44942103      -2.62906560       0.59738744       0.47002387
Na       1.03890093      33.11605739      76.66970203       3.15646466     -10.06339829       4.15439849      -2.58620526       0.06591452       1.16933312
Na      17.51907823      48.37604199      82.82440909      -6.51628456      21.88825249     -65.66635849       8.91578759       4.03914422       3.36309464
Na       2.08664191      29.00486964      84.25672954      -1.18490736      16.04355723      11.31611581       0.25408777      -0.50892644      -0.87988599
Na      11.84964612      24.42008806      87.11308775       9.43972456      -1.85556722      -8.18607391       1.13080267       5.24319553      -0.71750745
Na       4.56074806      19.10128119      87.74939784      -1.45879360      -5.01709820      -1.46725170      -0.82452320      -1.61336357      -0.35942058
Na       5.81309806      17.91379659     104.47448860       8.14191749       4.01105922       8.87064430       0.58678745       0.74998960      -0.94825791
Na       1.25390111      20.14530398      92.51313238       3.23742721      -6.82726403       2.88598366       4.14590869       2.56797240      -1.60532354
Na       7.62145082      23.96045814      92.97337633       1.70728403      -0.96190453       2.36848398       0.35504371      -1.66202281       1.91211474
Na       6.38915358      21.67383176      96.46466684       4.68464535      -3.52470498       6.18248004      -2.70179525      -2.91289645      -3.58195225
Na       0.20266909      11.22766081      95.60125202      -4.06392567     -15.66315022       3.50787773       1.00385165       1.30523541       1.51966032
Na       2.58885778       9.56482109      72.44022600      15.81530654       0.46847334       4.26037382      36.97876534      19.30663354     -14.16494204
Na       4.89193230      18.00247258      79.96672005      20.56740596     -16.07223438     -12.96480065      10.53818242       0.73882368       6.10187134
Na       1.44632603      29.90086056      79.28804230      -0.69256712      -5.00069877       2.58541207      -0.35523941      -5.19005280       2.17154469
Na       2.88346193      24.38401956      84.61977816     -11.58557730       1.25905579       1.40343847      -7.95805009       5.18464200      -2.03887794
Na      -0.62058115      26.79613676      80.27921332       0.15958826       3.01776782      -8.41243774       1.20491690       0.81403762       2.05407407
Na       4.91108872      21.24951441      85.03119431      -1.58874141     -23.33050844      20.44057535       1.77362658      -3.44508849      -1.41819465
Na       4.73360845      22.24856275      87.74635595       4.12567476      -3.40926054      -1.07635056       4.67636998       2.94282413     -15.74465041
Na       8.41340900      25.42371017      84.06763154      26.26300679       6.01030469       4.27055688       1.71832108       0.27254411      -0.78899951
Na       2.86842977      26.43860555      94.82506626      -0.19499889       3.10242637      -1.16643044       0.45798191      -0.12333378      -1.04816174
Na       1.07534846      27.35562755      96.67537163       2.20205513       6.62149415       8.79728920       0.12547548       0.39838127      -0.48499236
Na      -2.72447358      27.06344477      97.78335283      -4.04976213      10.00106372       6.02711886       2.12245613      -4.62968272      -2.58114937
Na       6.12448519      27.27862331      93.90459967      -3.11078500      13.44130199     -22.24328365       0.16135431      -0.90679635       3.33065973
Na       6.46588465      -1.11227430      78.87761721       5.18464364       2.71340359       8.83355355       0.21666042       0.01586881      -0.16135798
Na      10.28957677      -0.29678755      72.32720475     -36.30056768      -2.48296494      20.73363276     -40.94018704       5.28074051      25.64386356
Na       4.59408704      -0.82927344      80.81879499      -3.85976308      14.94161426      10.25285152      -0.99690389       1.03622306      -0.17206774
Na      10.20029422       4.69946927      81.05944707      10.39997460      -2.99094993       9.66384222      22.41835443      13.58491722      11.68000849
Na       5.87171159      -1.59461774      82.94743806       6.43268849       7.31185073      -0.08153154       0.57887638       0.40333338       0.61399471
Na       9.51363305       0.85615540      84.43785168       7.27256248       2.90743664      11.16277583      -0.11759658       0.70123329       5.77448846
Na       3.32776186       2.17545460      85.96754867      -4.63453472      -5.61006179      -6.15370966      -1.07479983      -0.13061874       2.39065625
Na      10.67834236       4.57958907      86.65090575      -4.01705515       2.27302106      -3.25201628       0.68190314       1.74345487      -0.58266712
Na      10.77882884       3.04201125      91.19193749     -10.06028142       1.01062657       2.11910848       1.63971725      -3.24210807      -0.32056923
Na       9.31492364       3.53291818      95.27682167      -4.53112861       6.78073002      -6.60416790      -0.35742409       0.10109435       4.48728616
Na       7.45804943       1.48960627      95.37385949       6.43784070      -0.69353584      -8.72287676      -0.87034622       0.21507780      -0.89825165
Na      11.71777752       4.18443223      98.97932222      -0.35634759      18.08301562      -3.54474842      -0.36404945      -2.44342132      -0.99987505
Na       9.91489396       3.20587121      72.27565303     -22.90439354       6.93990347       9.89277981       5.41905863      -0.46047160      -2.66270991
Na      11.49112984       8.29906921      75.75688783       9.17679690      -0.33943354      -3.07448704      -1.59485666       6.83664108      12.19168060
Na       8.56228578       5.65253790      73.12683950       7.68418685       8.74641312      -9.14198706      -1.60152688       3.15711829      -1.58331477
Na      17.30984587      -4.36095488      81.85664604       8.01167294     -11.25936884      18.43970858      -1.19775016       0.30289075       0.10333598
Na       6.70630530       8.08858176      81.39322332       2.95471004     -10.94958558       0.96751638      14.18815799     -97.06354435      20.21182446
Na       9.93765696       1.53835314      80.05432838       4.34317343     -13.97117799     -14.04436647      -2.75239886       5.06575001      -6.77431542
Na       8.09584737       3.81365566      86.66597412      -1.09717348     -73.36921942      34.15457420     -10.89294107      14.91063773       8.83620601
Na       9.20732071       8.08442439      86.65808028      -2.53871023      13.52689381       2.93644940       3.21873801       0.95886088       1.32206003
Na       6.30423849       0.26296780      91.84210076       8.86536768      -0.58343648      -1.68748998       3.16405581       2.50910348      -2.49642591
Na       8.37112793       2.82097190      92.30870551      -6.75936764     -13.60509462     -11.27058919     -10.50951093     -20.98735243     -39.17202366
Na       8.10458752       0.82343593      99.93415457      -2.52172727     -11.65280156      -1.39749376       0.01226519      -1.19838151       1.20499408
Na       9.55969909       5.97913121      98.46945948      -2.92261102      -4.23821787       0.48534764      -0.25163492       0.17612469       0.29830146
Na       8.19006001       7.73853637      68.28731118     -21.17603580      -3.46865633       1.78621732      -1.31945824      -1.78441369       0.47436623
Na      13.47300423      17.82662988      85.01543949      -0.47600987      13.63350688      30.10090357       0.11115893       0.53872187      -0.57904585
Na      10.29350945       5.49759763      79.13960562      18.19752668      -4.29717131      -4.95951978       2.65578748       9.29024807      -6.64523270
Na      13.17069217      14.14489502      75.11744306       6.59180233      -1.05331902      -2.78122583      -0.50690675      -0.73999750      -1.39952652
Na      12.72328063       9.61759071      86.71975748      12.67379743      13.49889424      -1.46118293       0.18745395      -1.03604214       0.27835121
Na      11.54466711      10.36129139      83.81125122       5.80120572     -11.67113270     -19.64200336      -3.90941814       0.14312633      -0.32359707
Na       5.40525573       8.54776774      88.38142716      -0.09884138     -14.26921370      -2.59856868       0.51773899       1.04670348      -0.36055003
Na       8.64407926      10.73720920      94.42478578       4.01673721      -4.03046975      -1.81842410     -16.05019467     -14.86154132      -2.78828343
Na      22.45428822      68.17012243     106.87825337     -24.29627063      92.48895535     -26.28158647      -6.00682636     -20.81253460      -7.93540791
Na      10.32353721      10.84991466      99.29164920      -2.64477029       4.04871240      -2.32723909       0.85360712      -1.91403674      -0.20066859
Na       8.88783330       9.21992888      96.93692895      -5.25770544       0.74174742       1.58895512      -0.14887201       0.00665697      -0.36707492
Na      11.60502745      13.63262190     101.40053072      -3.16222407       5.65048910       0.78668877      -2.27824772       0.09457189      -0.21114421
Na    -227.01410535     242.60192464     141.25391396    -309.10953199     123.38814405    -106.75411667      60.29154345     -79.40175056       2.70694793
Na     -48.12072667      83.24774059      96.07351365       1.99950299      -2.33457512      17.00291064      -1.00095544      -1.89317152      -0.31937603
Na       8.22179378      20.50471697      86.55835853      -4.39072949       4.54467397       7.11837699       1.16714774      -1.35709497       2.33619781
Na     714.38436313    -323.57563170    -307.19635312     403.55850502    -135.30930027    -319.74782250       2.13663581      -6.44363568       2.93091349
Na      13.58427863      10.26341242      83.83783600      -5.66320016       8.09464746      -5.40779443       2.88719918      -3.48795353       1.21070823
Na      11.49344100      16.56670164      88.90932710       0.71225671      -1.26035434       6.91803057      -0.85833099      -0.34679454      -1.05896218
Na       3.78492287      11.87570822      89.26261698      -8.18286531      -3.30009286       6.71541436       0.33358948      -0.93007207       0.13156512
Na       7.38370799      16.57888394      91.53493979      11.27335161     -11.90821958       4.61668547       2.26641483      -0.29528881      -2.12615149
Na    -808.47400491     726.62336467    -670.65558705    -405.09900404     277.99116308    -336.74377040       0.24885883      -0.06110080      -0.00640679
Na      11.62874270      12.92831880      96.22985150       4.01392958      -6.55922955       9.91044503       2.76318328       1.40079319       1.60795456
Na       5.42850395      11.62132503      96.51264328       1.85981546      -1.02479808      -4.61396365       0.99286634       2.82399369       0.24482146
Na       9.52708976      13.56380451      95.08527967      -3.20347898       2.82431133     -15.97603951      -4.22964525      15.19827884       2.31025987
Na      24.34232290      21.08722652      78.31345017       8.80717508      -6.36574455      -2.45109653       3.04624808       0.55821679      -2.12930194
Na      -5.67442310      19.93284844      67.35310618      -4.35652989       0.83075280       4.02213784      -1.50969825       0.63889389      -3.35992845
Na      11.05153405      -1.72599823      -5.27761698     165.56602405     141.56333681    -432.38419544       0.56357060       0.50268262      -0.85403094
Na       6.23836745      31.30858647      87.97994118      -2.49110042      -1.91855483      -1.19350297       5.20458089      -3.17550465      -0.57823096
Na       8.86332526      11.17243504      89.16746177       9.35351913       4.12371851      -2.28046622       0.69833537      -1.12380226      -0.92678063
Na       9.09163371      31.42983095      70.57716806     -40.48907185      66.70601373     -80.83141784       2.57981207      -5.84050715       9.00403136
Na       7.35765634      21.49439055      84.88579097      -5.79296889      -0.42103059      -6.53495485      -0.56122002       4.05419630       2.71402705
Na      11.43669913      15.04445275      91.35145689      -2.95493916     -13.36927320       6.52374034       0.77856506       4.90146638      -1.10164347
Na       5.37463848      20.78525966      88.89487711       6.80605187      13.61660899      -3.43224570       6.23979060      -7.48038838       0.94707867
Na       5.34287466      17.12918708      97.64225493      -1.87247279      -7.72980868       5.82486636      -1.83271149      -0.74194808      -2.63190891
Na      25.14747535      19.05036314     110.70775320       2.63355886      16.89572672       1.16060534      -0.18959666       0.06580291      -1.51862987
Na       6.63808781      17.42017698      99.07792605       6.07202057      -3.21460626       5.83575422       1.21143097       0.00952279       0.98671576
Na      17.75884449      27.45956380      74.61798513      -6.46210603       5.90517294      18.28175150      25.83931157      18.87820757      94.16728882
Na      18.02011145      14.68289219      75.91039312      37.66443102     -37.13983554      -0.81513468      -1.22315245      -0.59610229      -0.21163883
Na      61.92356978     -49.61408961      -9.52442254      46.17582835      -5.59066976      21.72522678       0.09227456       0.67543601       0.38369410
Na     112.28362333      13.06621361      45.45739477     322.19949469      27.82209737     -23.29621355      -8.48472127      -1.26812888       2.18948221
Na       6.74053817      28.87542280      85.46077798      -1.04375326       4.46487103       1.22738562      -1.82238432       0.73801461      -1.85603535
Na       9.38785154      22.46150227      81.52224097      -0.37714546       6.56328211      -6.15146339       2.64012651       3.41166477     -29.83987192
Na       6.94718289      19.19872040      83.96718610       2.78969015      -0.44709264     -10.46635479      -0.86731709      -3.31276010      -0.98953271
Na       7.20355548      24.05210329      87.16853260      -0.16022307       5.52944211      -3.87003365      -0.46675946      -0.13927609      -1.76420875
Na       6.50661158      19.98700463      92.91317951     -15.71782671      -4.15742151      17.59784207       0.10176056       0.24524767       0.12048121
Na      12.73018659      23.87313941      94.09567597      -0.45666658      -0.84204141      -4.14676133      -1.38195769      -0.13284170      -0.57549244
Na       9.67484747      22.18828176      96.49231704      -5.68005503       5.47383760      -0.37312083       1.50274198       0.92230624      -1.36268772
Na      12.03265163      24.24509028      96.39752315       3.98127223      -4.46590537      -6.39593361       0.81715713      -1.75687445      -0.66832503
Na       2.52500179      23.36500802      80.22686649      -7.70252630      -9.30303557      20.99928880      -0.27284590       0.33095560       1.02209619
Na       7.56761744      30.27485720      75.38130684      -6.61619498       9.17356397     -16.86229800      -0.66901016       1.24420477      -2.77647708
Na       9.86731827      14.85551365      81.18486554       2.10479918      11.62343983       5.98123596      -0.61817305       0.22298478      -0.49437917
Na      21.07391854      29.54955184      77.29874865      31.09925145      32.27123869      55.16298766      -0.01520134       1.55124429       0.09759752
Na       8.42275909      15.49140906      77.59955206     -21.48963785     -14.93566991     -12.08741544      10.29393442     -23.26768467       6.25156763
Na       8.44601664      28.51954008      87.27036938      -3.14980360      -3.40639277      -1.21157354       2.98229605     -10.65113038       2.61617933
Na       4.07858036      25.46001965      89.79251037     -16.58483744      -3.19536040       3.12066840     -86.07941502     -14.91615240      54.88548371
Na      10.43745804      28.05090974      90.28319248      -5.25301795      11.72308914      -2.51634515      -0.72692095      -0.57945886      -0.90013341
Na       8.58249230      25.59485440      88.58795119      -0.05470571       1.81397111     -14.54670313       1.40390878       0.47058424       0.26707831
Na       9.95599723      31.02785045      87.30805352       9.33578610       3.43272784     -12.86787998       4.85152142      -1.41012300       3.54812006
Na       6.40373463      23.57177032      97.92466290      -7.38803002      -3.15786593       0.52510761      -0.34971407       4.47114207      -0.93424158
Na      10.82478770      29.42666077      99.54702477       2.22906029      -6.53078830      -2.90781628      -0.00471357       5.15290435       1.84282436
Na       9.21435259      -2.60235794      77.32654947     -12.43559732     -13.50206260       9.41816156      -0.77479278      -0.15109495      -2.16803709
Na      14.10182203       2.37274017      74.97885105       2.86455187      13.78583363      -1.02301619      -3.57822977      -3.86796207      10.86882957
Na       7.68069229      -7.50190372      83.08778801       7.62129779     -20.80404708      -2.75765652      -5.31531113      -3.68289695      -4.84125292
Na      13.84634895       5.38193102      76.62954608       1.98492898      16.27046405     -26.52687974      71.34898836     -30.10442718      -3.03819328
Na      15.37821694      -5.20155498      93.76026844       0.24417745      -0.58787338      -2.34459635       0.64617633       0.67721640       0.76063410
Na       8.71074941      -6.32463963      77.25189588      -1.48232562      -2.75568849      -5.94026854       0.08748632       0.05060730       0.20936225
Na      13.42104889      -1.28757432      87.54363582      -3.75346080       3.15512069       1.79223948      -0.55952518       0.19220489       0.10900863
Na      12.87503001       1.26711851      90.68845044      -0.22279763      -3.39588310      -0.58497257      39.12502730      56.14161360      17.81955942
Na      13.86596789      -1.42049851      89.62348262      -4.62400790      -2.07534882     -11.83418949      -0.09594936       0.83426894       2.19606070
Na      14.18776785       3.31296944      93.02199118     -18.24536040      23.34028379       8.49369701      -0.54116317      -0.55867802      -0.37722253
Na      14.20561692      -0.08603047      93.22427701      -1.05537399      -1.93185281       0.02523676       0.17396199      -0.26332972      -0.93123824
Na      10.43564026       1.00163170      97.59725012     -17.45380591      -5.82136370       2.38039953      -7.63035423      18.28417128     -10.99480634
Na      14.91782661       6.38855186      75.56733248       1.77566276      -3.00638018       4.40547561       3.09907189       3.73648895      -2.44756799
Na       6.73354403      -2.14535644      73.58413339     -21.83410737     -16.42763972     -14.50899851      -3.47201543       9.44106135      -1.59792068
Na       7.47866752       4.40465388      77.58485715      -5.64323572      -3.39674434       4.68219270      -0.52513636       2.94738865      -1.12298720
Na      10.22242964       4.07838790      79.47017338      21.69311139     -50.36618347     -32.25135647       6.96947444     -10.16171806     -12.84600034
Na      18.25461781       4.25644864      83.34905760      -1.36654360       8.59606316       1.46428719      -0.55954129      -0.51229268      -0.26234720
Na      19.96647344      39.28602930      96.06120079      82.19371460     557.31450446     -62.01126092       9.89208809     -20.38979074      -4.78214528
Na      15.75536545      -0.80511946      83.53776631       2.79754842      -6.09876155       6.06414750       0.40362158      -0.26995665      -0.75654641
Na      14.81473454       4.96096447      86.10282836      16.85115466      -4.06329068     -24.98189646       3.93926346      -4.33611518      -8.24293471
Na      14.49144514       5.86397970      92.44490823      10.78206343       0.24128711       1.30453694      22.12523926      -7.55543281      -3.06813162
Na      13.71978385       2.29713652      96.63366975      -0.12741009      -7.41437498      -6.70863751      -4.31679369       2.66357732      -5.32907739
Na      11.09715982       4.30932873      95.95994310      -3.68038823       3.48049465      -6.28453746       2.65966238       1.54484636       0.41882199
Na      14.10543074       6.74124160      97.35374952      -4.85156855      -0.71705106      -2.03210440      -2.32143795      -3.46734902       4.56281726
Na      14.36226440       9.33615703      80.37265483       9.19236330      20.68804665      30.46277680      17.46997785      20.65614881      21.05471183
Na      13.03534317     -27.03039862      61.80489843     -13.32614889     -97.83296152      -5.13544076     -13.21667822     -27.06120750      -7.52856767
Na      12.54152912      10.42562225      74.73366610      -9.85916503       2.65585341     -15.60059290      13.40802660      24.45791442      19.63119560
Na      10.48784816      16.28336870      71.64593823     -71.25388597      59.46024057    -128.76441116      -0.31262435      -0.50427747      -0.32449005
Na      10.33444673      12.19057855      92.96924652      -5.88525154      -0.72807462      -0.17508770       3.17790699       1.27789363     -12.09844985
Na      16.09076292       1.09777545      80.46262762      -1.82285826     -12.36233079     -13.07243905       0.39391979      -0.65650791      -0.33239356
Na      14.41456396       8.67486066      89.35135216      -1.28541054       1.35798742       9.96673407       0.32956640       0.80555011      -1.83989047
Na      12.70318479      12.00421891      88.03097170       6.98527389      11.84878889      -8.46482793       0.82368251       0.12991958       1.26664141
Na      17.92020092       2.27916401      93.89743303      -0.69700262       4.98628323       3.76363580       0.02400145       0.73713856      -0.25977305
Na      14.32004114       7.51228884      91.66531549      -5.36929199       2.85112980     -18.87745744     -10.13666338      56.30461019     -31.84044150
Na      11.71454036       8.47238074      97.71533869      -4.93062455      -1.58331378       5.12443412      -0.04590080      -0.25646068      -0.14891529
Na     -58.07536203       4.62899985      21.49855326    -104.89287831     -66.80356964     -36.55409436     -44.65623221      -0.72005239      60.68537301
Na      16.56175529      11.61036597      73.83067629      -2.38108085      -7.27031193      -1.04025829      -4.10452916      -0.74653388       3.32319855
Na      21.29995657      13.84508145      74.05516026      -9.97920940     -54.70637035       4.15235574      -0.69039679       1.98261034      -3.89376306
Na      24.68168955      11.18802812      78.10748934      -5.98946763      57.18002774      22.63393646      -1.93024708     -20.12455974     -20.18989613
Na     360.57508195     -64.83013032     133.04953013    1365.88810670    -346.35725356     228.92488588       1.34691383      -5.44792538      -1.77597372
Na      13.17830998      -1.51445745      80.95615873       4.23761513      -3.30152551       6.63472938      -2.12810695       5.40322991       5.02708166
Na      15.93767940      17.53972624      82.15107066      -3.49192380       0.16094965     -11.83252602      -4.70530017      -6.08475092       1.71582740
Na      14.00663988      12.06910998      83.00206288       3.56287995       2.57480488      -8.28824203       1.07401889       3.25089194      -1.53176166
Na      12.12939902      13.85209065      92.74604553       1.06171677       3.95755518       0.77896561       1.21980356      -1.32536460       3.15702261
Na       8.35684267      13.73738643      88.07378557      -4.63428589       2.84570787      -7.52327466     -35.81671343     -15.44290765       6.87958989
Na      15.43864346      11.62063810      92.96998794      -3.31947417      -3.74094399       2.52944683       0.51498533      -1.15073068       0.05203536
Na      13.06333928      11.44754825      98.15904005      -1.77841317       2.73071403       3.90630502      -0.03404581       1.01375757      -0.67999751
Na      13.20886835      13.97454530     100.00713335      -3.35161171      -3.87337297       4.00465922       2.42809205      -0.63798880       0.30732386
Na       5.59792180     -40.33582141      92.71057495     -13.74106222      -9.63288063      -1.56019138       3.55661383       0.78555377      -5.89177041
Na      24.23802232      20.42312587      70.73745858       4.13521485       6.78447102      -4.15419386      -1.00510821       2.10544227       4.97074555
Na      20.87530111      16.09753407      79.92456828      -2.59927390     -13.55386068      -2.83157552      -2.00533054      -3.84338650      -0.97475493
Na       6.16498330      15.18272080      83.94217152       4.23146659      -7.66566773      -5.51849411       1.21849726       2.61753560      -1.88940342
Na      33.29563230       7.96124743      73.14358302      17.43548395       4.13299174     -35.69434607      -1.22175739      -7.12521471       5.93584622
Na      16.39058343      21.79147694      82.56766968       1.84322684      10.00716863      20.84494902      -0.49068801       0.73655082      -0.00825144
Na      11.45370675      22.65888616      87.35560694       2.92291136       4.31066723      -6.57846465      -1.06011970      -5.38991894       0.97097407
Na      18.30525668      16.86637777      96.71616572       1.46589502      22.28166792      26.65582949      -3.26208650      10.09690451      -2.68875267
Na      16.64793506      16.04932271      93.90520342       1.34526091       9.87850294      -0.35303821      -0.30309467      -0.14121698       0.77468636
Na      15.71757965      25.13814745      91.67640736      -6.33276068      15.92742765      21.34158504     -17.11119037     -17.40670920      -8.93694066
Na       9.61679103      16.39552591      95.52439500      -6.15081599      -3.73433773      -4.85531609      -0.01082615       0.64949798       0.13898246
Na      14.13093472      18.56592698      93.72681465       4.09411352      -2.45640329      -7.39014543       1.97578299       0.24896183       1.29296788
Na       9.95417229      20.43671818      69.38294368      -9.46470204      -1.47682167       7.05422511       1.27995975       1.25603965       4.33644595
Na      17.56665022      29.30404441      68.64417958     -12.93242859       3.04026042       1.59254496     -20.97057168      -4.00609496       3.66588527
Na      17.20246874      16.69008452      80.78844659     -10.88974856      -6.71836219      22.99050062       2.09627616      -1.64256845      -2.42381400
Na      19.67750246      24.67903396      82.34331111      11.58338026      -6.86861958       4.38575228       0.03279845      -0.92614751       1.33980468
Na      24.93109038      23.35485296      88.35056079     -21.18075193     -10.99065698       7.72972317       1.76850568      -1.32311210      -2.08945078
Na       3.78130229      16.07933989      77.14267035     -45.25422110     -29.64545273     -42.53724066      -1.34608140       3.49181476       2.08386588
Na      11.51044095      13.00484965      86.49314024      -7.05864438      -1.22650772      -3.18086818      -0.66689241      -0.79492276      -1.22321206
Na      18.59726051      22.07006005      84.22187229       1.43626365      -5.01687937      -9.34801267     -11.46934093      21.59864754     -11.46385476
Na      13.74287368      22.87415190      91.75087192       8.45355081      16.95527734       4.63904005       4.64955561       6.93411235      -0.07110064
Na      16.34988009      25.71589556      92.05935721       6.12578042       6.33320341       9.26986982      16.90471583      19.32720782       8.13536356
Na      12.35575237      17.39944221      93.16967104       3.77871328      -4.46725881      -5.65899874      -1.83466294      -0.92749575      -0.53422376
Na      14.01791653      21.40623468      97.00896424       5.22375290      -3.24103154      -5.89204015       0.10620234     -49.61702570      22.78465069
Na       8.46067455      25.62744888      73.76064296       6.90455533      16.49674068      14.99364271       7.89643618      -0.37102237       1.31033995
Na      13.02953434      27.21945017      76.98104683       0.89864651      -0.63414101     -25.96420522     -10.73387733      32.05017798    -190.63707328
Na      12.28511242      21.33076804      79.78517888       4.36583130     -24.92552464       6.29157801       1.29206680       0.90917336      -4.53633648
Na      13.12378188      25.93905689      80.56096297      14.86541360      11.73683147       2.81310858      -1.51813807      -7.81526678      -0.53405902
Na      11.71811454      21.10257562      83.71450170      -5.94029767      -5.13073924       8.60649915       0.03441215      -0.16382822       0.72779628
Na      12.50869730      24.78697377      82.38175072       3.02731748       4.62143992       1.36906029      28.09073752      49.16417241      -8.75823675
Na      22.57585313      23.19701577      81.75173909      -7.58080087      -8.09783764      -7.26768724      -1.59425094      -1.88342394      -1.45365577
Na      16.46272536      28.60504961      91.65662939      -6.12247910       3.66416115      -0.18353942      -6.27859143      -0.08055845       0.05631673
Na      11.14006120      28.39750473      92.47476189       5.11590015       2.83009175      -4.94872205       0.21310132      -0.26931080      -0.42292974
Na      17.34857877      28.22562949      97.48275134      40.35041006      -0.52503554      14.35294686       0.12724566       0.26479376      -0.44166420
Na       7.49692953      27.70831830      96.41616096     -15.69843166       3.60925872      11.60900061      -0.53006616       0.22252397       0.58409150
Na      11.59398171      25.07886789      98.28164586      -4.71723719     -11.55377325       2.35795302      -0.32024095      -0.77524539       2.25672807
Na      14.95372129       1.55785001      77.28636389      -8.36721507      -1.82300459      -1.78585278      -0.85280629       1.13814476       0.65497519
Na      29.34965224       5.26685626      82.34644345      30.86933864       4.99059138      10.24049034      -3.46350162       3.86039257      -3.27807881
Na      18.13041537       1.34431446      75.90416211      -4.31854774      -4.85482585       8.25766621      -8.53249462      -9.32195434      13.95592961
Na       9.62012681       0.67415730      82.74294218     -31.01519623       4.78083646       7.77868671       5.31470974      15.86960692       4.34508361
Na      18.48676796       2.17028287      81.20517833      -1.62135325       4.71991916      -1.60332275     -38.17955746      21.01592710      36.53140163
Na      18.55106710       4.86623987      85.89985620     -13.78851489      10.13983617      13.02211356      -0.84007190      -0.24710456      -0.51199566
Na      15.94339402       3.28765093      81.37201407       1.52791284      41.35439686     -43.97972411      -1.34245703       1.31053894       0.12836637
Na      16.90246810      -0.87405504      88.67888691      -7.62685561     -19.69005695     -12.60480488      -0.62739532       4.12430696      -4.21894348
Na      15.20069750       0.72866164      95.46742048      -9.27898628      -3.95945871       0.27123739      12.14674736       0.08814496      -4.70533634
Na      18.14919876       0.43554312      92.73960457      -1.68513719      -5.56097256       4.03394529       1.77179960       0.89889752       6.15231202
Na      14.60839422       0.27550084      97.35975958      -5.92743093      -5.55069430       5.43218807      -0.28816281      -2.09321245       3.84854546
Na      27.70577350      -0.61373782      98.02715133      68.62629264     -38.37644868     -22.66774204       2.57079613       2.41303409       0.00784190
Na      15.14657062      -7.26572921      78.56368843      -4.58368311     -24.21203386       1.86857679       0.12795872      -0.25978677      -0.30553290
Na      22.67218820       9.28632902      74.98531825       5.80131287       0.65543563      24.11005581      -1.28016330      -3.13005014       1.93911001
Na      13.06116200      -1.53228077      77.52471523      -2.83667143     -65.60113743      -0.04155905      12.31841123     -34.33686969     189.38000544
Na      18.65748892      10.66306902      73.70618185       1.47567292      15.49250046      -4.30346242       1.62304270      -1.64888456       2.62338442
Na      19.24035802       6.77282368      80.35080937      -3.13918148      -7.64300799       8.01856535      -7.12149014      -0.14499128      10.79511796
Na      17.40928614       2.98533780      89.35216563       3.32639512     -13.84900710       7.55191130      -0.61631921       0.16784763       0.51494814
Na      13.54783772      -0.30335238      85.20937094      -4.97472349     -15.84301551      -4.51675515      -0.84559019       0.68150285      -0.26543308
Na      14.78020204       2.14984461      90.48069247      -4.17117452      -9.70544529       1.35740665      -0.63184271       0.04536096      -0.40143614
Na      19.70618771      -0.16638881      98.26665017       0.95588852      -1.14375840       0.12952609       0.38485833      -0.18005869       1.10291034
Na      21.20519279       5.39809765      94.43902934       2.66696268       2.75230846       1.55295986      -1.95913887      -0.08755591       0.16451288
Na     415.75821680     -38.78032051     200.21617152     880.71841886     -87.96624402     217.56576134      -5.32197219      -1.30488756       1.08623211
Na      12.90514031      14.55558547      79.08532707      -3.28218147      56.48526587     -21.52121372      -0.36510096       0.42121305       0.93475785
Na      14.21087904       8.62565250      72.46204126      -4.21984593      -3.02758503      -7.67297197      10.01454500      -0.07894052      -5.98464585
Na      21.88156794       6.53854956      81.44764445       5.54711023       2.93176908     -10.08921112       0.52305761       0.65886595      -1.07917967
Na      29.72597225       9.31803477      72.85427364      -5.73222876       8.58977844      13.22205440     -19.88087857      84.45588294      46.31471157
Na      19.34701429      12.66778668      79.56626024      10.65301562       1.27082757      -9.50348959      -0.71004835      -0.01475424      -2.04292696
Na       2.42459383      16.95050461      86.16809201    -166.63383858      88.10528535      62.14172456       3.63783855     -13.51090556      -9.64409104
Na      19.81872146      10.61990278      84.86475698       2.48157358       1.03487273       3.78144826       0.10245789       0.03516011       0.13978834
Na      15.82755305      11.57586227      87.74919602      -4.87898654       2.42231257      -8.17487931      -1.54949518      -0.02607439      -0.34224397
Na      20.27505955       9.82753102      88.27400378      -3.93429407      -2.09603617     -10.06454783       4.93672199      -1.99963795      -4.14454645
Na      17.64771446       9.22959287      91.10814501      -0.41007925      -0.12438258       7.45719290      -0.91104361      -0.59949058       1.61720930
Na      21.87006971      11.83606936      95.45013592      10.11123009       6.28617926       0.05793103       6.26383984      -2.80217166      -3.68702246
Na      14.93651590       7.49187935      95.91843429       2.09819511       1.65878875       2.58013093       2.88625905       2.69317125      -4.93718109
Na      18.72875180      10.89264262      97.14131401       5.06461870      -1.61079649       8.14078258      -9.59358144     -15.20249122      19.32994707
Na      19.30215020      17.00229576      70.82076515      29.74865001     -14.33823517      16.43182070      10.53218012      -8.02303539      -1.39680756
Na      15.46096606      16.20187008      76.62234956      10.26919177      -3.49601348       3.69362581       2.28771110       4.37975944      -0.60811551
Na      10.82659129      13.06084535      90.54687943      -5.64165199      -7.25324125       4.79395287       6.52697790      -6.02585619      -4.04644013
Na      12.52687296      15.03801836      83.34267756      11.04353307      -6.53814706       4.56910475       0.06788228       0.14428799       0.21229683
Na      18.53979663      16.54556971      85.85316003       2.56565991      -4.40119195       2.96539163      -0.31725058      -0.80259429      -0.80405731
Na      10.99469980       7.10611801      92.77771523     -56.33529211     -37.10404803      36.30935343       1.07292820       0.62023113       0.22269959
Na      14.53508962      14.06610049      92.95839559      -2.24698893       6.96673573       6.07738654       1.01636071       0.64142121       0.20444195
Na      18.34684196      14.76832569      90.33443083       6.71997458      15.02262944      -3.55390176       5.08654337      -7.08495501      -0.33687934
Na      12.61348905      10.25562650      93.62972473      -5.65016677       3.45800683      -2.41400987       1.85566650      -2.92366835      -6.51078972
Na      19.15679464      11.63959491      95.45088671      -3.63230491      -9.40978786      -4.57063877      -4.98146577       6.98984988     -18.81546480
Na      21.37426542       8.41177781      97.52026601      -0.00824740      -0.22019557       2.72800525      -6.60599350      -0.85801336      -0.03596041
Na      26.90066373       6.41485150     107.43445747       3.14227764       0.52937746      -2.09739923       0.51908653      -0.19879227      -0.73265767
Na      14.86046209      18.48432704      69.77567878      -4.58387621       7.93107041      25.11533999     -29.06456267     -65.14922498      55.06541722
Na      22.69761969      20.46325913      75.56985448      -0.74575574       2.92910572      12.64505688       0.39082763       0.91843038      -1.07661473
Na       9.25292036      11.38800499      76.23075031     -32.82494327     -21.46369347     -11.07599098     -14.68560848       6.39315111     -13.49620346
Na      19.73334937      19.22778071      78.84994972       3.86343863      -5.27933440     -20.97331980     -23.98748437       0.23322506     -27.27094586
Na      20.28526707      12.61083214      81.65837703      10.97365704      -2.65800248       6.27138443      -2.59022049       0.59091760       1.64668668
Na      24.79341692      18.79297649      84.31494024      -4.41378809      -0.23982084       3.86360687      -4.17075609       3.00798473       4.48749705
Na      17.50210717      18.50123925      90.22487672       0.97066810       3.18568383     -10.50270156      -1.08173206       2.09417526      -2.22659026
Na      18.49312209      25.01220197      91.44561110      -4.71259594      -3.22423649       6.18365734       1.51056392       3.63795236      -4.38172050
Na      18.24627635       6.96848152      95.74246217      -0.69628572      -6.56427436      -0.47838702       1.65911951       3.32573512       1.67837395
Na      22.27120852      18.95120911      96.40786241       7.98284697      -5.00606600       4.07087314      -1.33006377      -0.76399699      -0.18620485
Na      22.24434169      16.03308111      98.24729160     -12.36237619      -3.04485196     -18.07145655      -0.73267412       0.42416193       0.32935885
Na      18.54268444      13.39754822      99.90174521      47.12314221     -36.97672145     -27.12611035       2.78522161      -2.70431463       0.86068420
Na      22.84115962      28.49079182      75.61774930       5.04242220      13.80670705      32.05163117       1.10332632       0.27117272      -1.31688797
Na      23.21873841      25.36132957      74.08406705      -2.14106892     -16.31679212      -3.76577122      10.28336970      -5.82389864      -3.14040607
Na      21.64047436      28.05845518      78.51597749       2.59700589      15.49804048      15.87800211      -1.04581812      -2.43934591       0.70677526
Na      20.83725501      22.21654019      76.44513562     -13.22548063     -17.47230759      -0.44690573      -1.33675887      -6.62693885      -8.14149821
Na      18.78997906      23.28088945      79.20437384       6.67620075       3.58697759     -16.52466618      -3.43836590      -2.27686861       1.94838260
Na      20.48197269      23.85300509      88.44269380     -11.08457646       1.86154575      13.30708790      -1.83656689       0.21815783       0.33520701
Na      17.34891437      19.38670468      85.81361323       1.65804047       8.66593227      -0.10162920      -1.10855946      -0.21947791       0.52527275
Na      22.09501520      19.30425081      87.12571991       4.34624764      -2.80649025      -1.96302613       0.72530940      -0.07857904       0.05843609
Na      13.99411331      17.78328617      89.51892006       7.50032246       4.06653297      -3.27260252       0.25192590       0.68683684       0.14195677
Na      17.76979286      22.52437379      94.67672613      -0.02578456       3.89194442      -1.64353655       0.51158716      -1.53239865       0.60086333
Na      14.28368476      21.26539625      93.08383444      -3.69408375      -1.93284211      -1.64598845      -2.68463544      -1.01428298       1.56811483
Na      16.40535730      21.87533745      96.94976617      -2.73602678      -3.60592250      -5.15144620       0.45500206       3.52837192       1.57232995
Na      16.47229178      56.25695122      54.21514684      23.89666049      34.73843122      21.13310372       1.15349156       7.80517545       1.04238690
Na      15.20086859      25.92350018      73.55037551      -3.29088776      -3.40801876      11.32237654      -5.26235947       1.36374820      -4.44327379
Na      20.49199874      22.36488889      80.97928792      51.45027367      -8.58121690      14.06844416      -1.03565014      -2.17144539       1.50036799
Na      -2.01109127      17.93981654      89.01164334     -46.75154615      12.13037228      37.87139939      10.38703320      -4.07554448      -6.01445875
Na      22.70601539      23.98157342      87.95708942       1.21246609      -1.67127166       7.91961681      -1.14859267      -0.86276667      -1.60827060
Na      16.77733214      26.72585948      89.95919648     -14.92059862      -4.29967157       5.87577183      -1.52924460      -5.00734795       3.39822438
Na      12.71432728      20.93249830      90.81395788     -20.45137865     -37.88435293       0.80292062      14.64396126     -72.34173150     -36.54958623
Na      19.54637447      29.84566560      87.75309569       0.87733048       0.93120761       1.20395927       0.83162149       0.19727276       0.29777939
Na      18.00155024      24.55763978      98.79252431       4.65661966      -6.23486373       5.81469383      -0.84183452       0.73633747      -5.05874330
Na      19.90166200      24.09547964      96.18601356      -8.67859582      -6.92474189       1.23292229      -1.85141575      -0.33356694      -0.75047902
Na      14.47327865      25.75943081      95.15989964       4.66175699       6.07158354       6.18013380       0.48090921       0.48504339      -0.01738651
Na      20.96536881      25.71257103      99.11663521      11.87586703      -7.10391847       3.76765909       1.46354791       2.19756259      -2.27847359
Na      20.29098824       0.17651191      83.76531320     -10.87488288      -9.73322772       0.99176542      -4.44331834       4.77395483      -6.94229605
Na      24.27162320       4.02758352      78.07924942      -1.56553986      13.79261742      11.45981596       1.14912261       0.48337463      -3.14090663
Na      12.03893945      -4.50052112      76.47120346     -47.74153539      -3.69011541     -25.16645816      -0.06828513      -0.09540448       0.18533357
Na      17.83557469      -3.60553947      86.14075806      -1.76199911      -1.77470456       5.43073923      -0.20653926      -0.48947258      -0.41050555
Na      24.80009279       0.87869508      81.97107066       0.53213894      -7.40867649       6.22505972       0.16985927      -0.16394063      -0.42435519
Na      21.56123185       4.91545450      88.36114635      -1.21898798       5.27633873      -0.86288723      11.42171487      35.29752302     -10.92928034
Na      20.82850045      -2.47385959      86.21294676       1.02519422       1.76202431     -16.06380343       0.41208706      -1.40107886       0.15353301
Na      21.43175729      -1.26495585      89.29552612     -14.84121608     -11.07878221      -9.82027574       0.79036178       0.71106448      -0.31877369
Na      19.52360873      -1.88665709      90.67656613       4.58408495       5.12568634      -2.86114329       1.80576153      -1.24298439      -0.50997971
Na      23.74601676       1.95194576      89.98641298       6.68292239      -1.56147660      -2.24163255       1.09216560      -1.07297688       0.37546612
Na      21.73807035      -3.43039201      96.55873469       2.90576077     -10.00993116       5.72637971       1.81720908       1.02286443       0.02410261
Na      23.03325648       3.52318571      97.48856403       0.59545662       7.22528486      -6.19796638      -0.33368230      -0.27335164       0.10670747
Na      26.19412698      -1.91125362      66.76959122     -13.66180118      -6.68352057     -19.53999359     -58.62144236      -7.38705998     -12.11315938
Na      20.26223372       6.87097502      74.24485527      -8.92938590       0.53435628      -8.87258189       0.98098684      -5.11300048       2.87661267
Na      23.62832902       2.74637513      74.76514286      37.63270798      15.08046192     -17.79461032     268.72617217     185.29627365     -41.43506734
Na      29.80785947       6.96599793      81.62848169       6.13827636       5.51795988      -0.82990702      -0.26948430       2.65832756      -0.07525680
Na      19.79253985       6.16425029      83.19236046      -2.17675961      -2.64474846       0.88378440       0.08326648       1.11649265       0.68343205
Na      23.28435256       5.63346067      82.96708396       2.85495628       2.90478872      -5.06179554     -12.16048855      10.95823405      -6.24227804
Na      21.70896070       7.73997205      87.57038595       4.97953913       9.64438224       1.20037666      -0.17835562      -0.83473224      -1.07410941
Na     -60.78465388      71.26131867     156.30100179    -284.17057518     218.10452101     227.20745957      -7.80069205       3.77047637     -10.19560707
Na      20.85777366       4.55920276      92.05233940       1.09116785      -0.52713573       8.44647734      -1.17665229      -0.21998259      -0.96029697
Na      25.43879009       3.75344523      95.60984224      -3.08413771       4.11177528       5.66311256      -4.54197746      -1.80846712      -5.28871085
Na      19.21301666       2.20648536      97.95573376       5.07260374       1.51480417       0.32355398      -0.51465551       0.31826404       1.37287909
Na      18.01237329       4.59345208      98.06172634      -1.42795240      -1.34995033      -5.84854026       0.63399812       1.29683936       0.75207715
Na      18.65892239       1.55957772      74.93559408       4.51483662      -6.22417086       7.32907632      -1.90815123      -3.61027650     -13.78126273
Na      46.22257005     110.38914424     126.42151882      86.79524614     408.40843886     306.56668250       4.87730927       0.68389486      -1.39668862
Na      19.91526637       6.78684087      79.19188725     -10.85976339      -2.53156080       5.96086672       5.78479740       1.30049360     -10.86536078
Na      23.84571214       9.89306497      80.98885488       7.31095062       4.31643321      11.61278675       0.85142175      -0.61591523       0.00953399
Na      21.99362213       5.49086768      85.20452755       5.96934713       8.56642209       7.22535396      -0.20769863       0.09157057       0.57230573
Na      27.77007681      12.08350882      89.62981996      12.29849006       4.56054768       7.27025737       0.09605082      -0.82654990      -0.16440122
Na      19.22021976       5.46981786      88.07144675       6.44032918     -10.37552231       5.19861163      -0.81146264       1.03941137       1.15013111
Na      23.34496471      14.85460448      85.63058553       5.10619674      13.79688508     -16.91761376      -2.37499820       3.34629197       1.70556988
Na      10.80954828     -10.46275016      60.53876140     -11.38594280     -27.74701209     -52.01417516      -1.42805123      -9.19668364      20.20669740
Na      23.68376946       5.34205499      92.30220242       3.30451461       2.19409620      -0.76274198       0.66056116       2.26281875      -1.17000734
Na      22.89453280       6.01127925      95.68633445      -4.20663844      -1.83305748      10.38907535       1.42372474       0.54504488       1.05547195
Na      26.19130315       8.76344363     101.19596697      14.14156770      -3.31395287       4.24145082     -10.53526960      -3.87107350      18.95723890
Na      20.55782180      10.02908051      72.32074612     -19.18513916      20.50798139      -8.28863393      -2.09356129       6.22288462      -3.57457652
Na      25.29847446      14.76546478      74.33377051      -0.42817126      -1.37560455     -11.43482465      -2.81652194       4.32645636      -2.73029393
Na      17.36112707      11.95145824      71.83187433       1.11183932      -6.19291005     -40.20306102       0.95151778       2.05372800      -3.87679228
Na      13.71794941      10.03440193      72.35208554     -17.36432705      -0.09578414     -11.69924852      -3.62912790       8.36185282      -1.94538363
Na      12.86012573      25.50943924      70.70978653      -1.82015440     -19.09984502      -8.75187818       0.54433169       0.14734748       0.04174767
Na      26.99748261      13.23716231      82.82145172      26.44368374      -8.41746638       5.67872480       0.17956130       0.65531919      -1.41606008
Na      24.32328085      13.51150888      84.74217892      10.87004719     -10.08063040     -13.70804121       1.84614585      -3.52215474      -2.43766773
Na      16.96879471      15.47042588      89.18066673     -22.70968297       3.27224240      -4.96003731      -3.60693235      -0.17584975      -5.01618155
Na      22.54827404      11.37074497      91.87999850       0.20148897      -6.03658185      -8.74385029       0.06232783       0.19529287       0.74211462
Na      18.81026191      16.78893389      92.62486981      -7.81236266       8.72123415       4.20351070       2.25493937      -1.86197321       5.11772075
Na      22.06744063      10.51840788      98.14506883       5.03346854      -3.49934782       8.79796198       0.56978091      -0.11759822       0.69125269
Na      19.65307272      11.83757698      96.73083823     -36.14376730      -8.96303075     -80.90803283      -3.52106543       6.45728114      12.48185985
Na      22.49124270      12.03208696      79.71995131       0.00083051      -6.07594166      19.17769879      -1.77677084      -1.98871429      -2.35196391
Na      24.64971922      21.18106016      72.37905370      -0.32452324       5.66558468       7.34158459       0.53706739      -1.65573503       2.42698123
Na      32.93248210      17.53315791      79.13053545      44.09729402      -3.88854722      -3.37323875      -3.53937486      -6.65478088     -12.48297422
Na      27.97995237      15.50380079      88.86251522      16.01899730     -21.29860849      71.41008337      -4.39860883      -1.95505324       2.37115345
Na     -12.60374945      46.57272362      73.81022525     -93.29889091      93.51477433      -1.49521913      -4.00932249      -3.15046339       2.47739705
Na      27.06661938      18.07138379      83.83845032       4.66090602       2.02384676      -5.03494791       5.89669251       0.29552630       1.75562433
Na      26.53154459      17.08001543      87.62599862      10.25265969      -1.28068260       1.58180258      -0.99608859      -2.34927631      -6.56249705
Na      25.38425110      21.05992804      88.78463397       6.06168749     -13.20781748       2.72881669       0.21695183       0.00522358       0.60165352
Na      22.50161016      12.57354798      88.03154852      11.40194784     -23.61816374      -8.76003273      -1.46541506       1.40202770      -1.59852291
Na      18.96473461      19.54797521      91.76933019     -11.50336841      12.22829466       1.19447015      -0.14411106       2.57227756      -0.32066174
Na      20.95822863      13.09680104      96.14537745      -2.24322755       6.02734634      -0.45440967       2.58214456       9.96445596       1.40797892
Na      24.66026057      17.65769969      98.65674503      10.14949953      -6.08443387     -18.35006031      -3.12809215      -8.30994220      -2.00915081
Na      21.09880911      14.66205377      72.11940888       2.90164953     -10.91872277      10.60964213      83.92238107     -49.33366853      22.42147519
Na      26.64687680      21.57182545      70.18088729       6.22487032       7.20900231       6.10819044      -0.06715817       0.74017288       0.41781746
Na      30.02624104      22.58490791      78.18088347     -13.03463810     -21.73168787     -14.72449456       4.05824773      -0.61984380      -0.18556993
Na      22.76381798      24.20925441      78.36281234      -4.85646903       9.23864741       2.97736763       2.51190012       0.56118008       0.16406585
Na      20.84904164      18.01613668      79.77944691      13.14924170      11.90633792      -9.95823582       2.43311099      -1.85918172       1.24126139
Na      26.53296933      24.51002717      79.36147927       9.89690859      -9.92656297      13.00246722      -2.23323886      -0.12597447       1.58015084
Na      19.73138519      17.73156557      87.76352653       8.93387079      -5.71594148       8.35116217       0.13122530      -0.01954709       0.82803623
Na      21.68657634      20.83682238      91.45316527      -0.62453228     -14.53433855     -16.32558639       0.42981921      -1.03918820      -0.45480260
Na      15.95608400      20.62934095      91.98612458      -8.21682802      -1.21837567      -1.50864062       2.48283836      -0.72052393      -1.45166960
Na      19.82018781      22.67750305      92.06699685      -7.95167284       1.98846397      -4.30210023       0.23259123      -0.21355843       0.14372177
Na      20.82889174      21.11674309      97.31478490      -5.34348840      -2.58874658       0.39007509      10.96150632      12.85668030      -0.41704279
Na      24.57745682      23.95223417      99.70205512      -1.41840099      -0.00633839      -3.51541882      -5.39061506       1.49015115      -2.22167527
Na      29.78820092      21.29954632      75.52787239      11.99819752     -10.15132399      22.85051872      -0.35683560      -0.15415247       0.30172429
Na      47.12013633      66.85005687      88.73337508     266.76730901     -34.54018212    -136.91538046      -4.74553120      -4.60607154       0.30862684
Na      20.77763156      26.54718441      83.13195829       2.80341472      -0.72383988       2.45957014       1.19164950      -0.88847725      -1.07701299
Na      22.77462025      16.69808780      80.86714169       0.31752684      -5.07633723       9.63521900       2.15094313       0.40649462       1.42113110
Na     809.77123161    -198.78540432     658.64519921    3397.85121021   -1024.45721002    2523.05114795      33.37675025     -23.34049824      -4.84840220
Na      30.51399390      31.57834508      79.95614422      20.96945223      21.28712023      -7.19340888       0.53733616       3.77754529       2.31215250
Na      25.25635264      29.27002242      84.41795126       0.06646734       5.63338976      -1.45420399      -0.77695970      -1.10097832       1.10644083
Na      28.35410166      19.18798732      93.06271468       2.75792613     -43.58124519      23.53112882      -1.59974754      -0.28976775       3.91300796
Na      25.01862283      18.85062669      88.10469475      -3.33479671       6.18703392      10.27186802      -3.90293615       1.06621674      -2.33112497
Na      22.79817406      26.84461951      93.52021041      -2.40457135      -5.82770517       1.60826732      -3.10746001      -0.22178391       0.57155687
Na      20.65966880      22.65743625      98.99680105       6.89375005      -8.56062737       5.35065524      -6.53158242       0.88831480      -4.35821775
Na      24.98194031      25.24571090      94.56428159       6.30372782      -6.10658995      -7.38763201      -0.15228883      -1.15010418       1.13310441
Na      30.95178460      -8.10882064      72.63175201      16.85104832     -36.21559809     -14.42949094      -4.70857254     -34.94234858     -34.38204495
Na      22.64103694       2.66942415      79.97132414      -3.46488321       0.15414845       8.09377089      -0.83757436       0.50035678       0.82657676
Na      22.26928917      -5.35013864      69.37894091     -12.10001275      -2.26426603     -10.84579163       0.05113913       0.93817307       2.01987032
Na      17.48559536       0.47848807      86.38216846       3.51221889      -4.79279249       3.55786081      -8.20020108      14.64410490      -5.85006938
Na      23.66934023       3.60659620      84.37080533       5.64511046      -0.00842987      -1.67455676     -11.04305743     -14.87716411       7.56939776
Na      26.35437025      -1.25824992      91.39885608      -0.53081770      -4.95008126      12.12101109      -4.53586350       1.23145444       8.04508136
Na      28.47186334      -0.88096653      87.69450342      39.75755450     -23.65368949      -9.59783913      -0.38844236      -1.40129613       0.91443567
Na      29.15268843       0.66462854      89.86326579       7.80978671       6.03989612      -5.21514074      -1.23192401       1.95144995      -0.02430408
Na      24.77112637      -1.11402176      93.24983720      -0.96172335       6.72802447       6.40832054       0.38681306       3.49096093      -3.62433619
Na      24.67069477       1.29234718      95.31548080      -7.56470501      -5.58605740       1.56557311      -1.21929850      -0.36892753      -0.36188064
Na      21.18219859       1.21452140      95.59531137      -9.90467869       5.34826817       3.94520435      12.82418747       8.82690813      -0.36811526
Na      26.51563300       3.32415012      97.59072853       3.23428820       2.69310868       8.09555976       0.42447422      -5.93392522       6.00781771
Na      35.09363202      -7.80492681      74.85459575      14.96672127       0.51877308       9.84470450       5.55581976       5.35491280      -3.23267293
Na      24.48750329       6.02738650      72.15261778       3.29495826      23.31833747     -11.77255981      -5.71347736       1.71446821       1.03244082
Na      22.23777959      12.15169108      73.09831844      -0.13142312      -6.26478931       2.57607445     -13.06230602       2.27610381      -3.83841646
Na      27.57313996       8.61676158      80.01725649      11.88905044       0.56257318       2.39715359      -0.87088419       0.28049373      -1.94655623
Na      25.13910372       4.13363819      81.82229564      -2.89096489      -3.49201367      -9.71136889      -2.34290255      -3.11808870      -9.99967703
Na      29.88907633       4.07381912      83.18902908       4.51480838     -13.78539556       2.59298816       2.60540766      -7.59961479       5.48990345
Na      26.70478590       2.23140090      87.18119181       9.63097154      -2.31867568      -0.58292165      -3.83232086      -2.30959161       2.30796697
Na      27.36223075       4.77788009      86.87389571      -1.99259448      -5.17272410      -8.93848900       2.98542949       0.47813947      -1.40402534
Na      25.55497799       1.25530647      91.46403871      -3.16658974      -9.35991992      -3.90650667     -31.34634818    -134.69803073     -88.08106617
Na      24.79950472       3.87822860      86.02109967       2.99602175     -10.30278151      -8.54942224      -3.83090198      -0.49895701       4.70489840
Na      20.16771837       0.49463029      95.56450668      -2.64624483      -9.20553253       4.24335954     -12.28030465      -8.92334797      -0.52433315
Na     992.06147069     347.32174822     633.58852321    3685.49612427     737.08753701    1878.74582135      -1.29502344      -1.00237880       7.30548623
Na      25.78014178       6.10956832      71.61672872       3.28795692       0.19995132      -4.05757171       8.14415686       8.13988490      -7.07722654
Na      31.83302709       6.53143360      89.62971346      -0.85047333     -12.45980550      27.55539144       9.87299012       5.96662272      -1.06690961
Na      25.40211639      10.01952009      76.20962492       6.04407995       1.19152974     -12.15142537      -1.09199425      -1.89602685      -0.07842211
Na      28.58995243       9.40075207      82.27747530       2.35066693       5.60743336      -4.93355775      -1.38350307      -0.76934911      -5.99163947
Na    -227.73981641    2106.58537968   -2745.46350716    -396.81065172    3371.21124697   -4529.31064921      -0.01795287      -0.63069698       0.40903000
Na      26.54533465       9.14048772      84.80910277       1.20941320       0.46119101      -3.67989484      -3.66382467       0.70839592      -0.31319836
Na      25.75127984       7.54821361      90.49541185       2.16488497       7.48633098      40.45317169       1.38221481      -1.15335532      -5.50234373
Na      25.89363257      10.77556397      91.52559299       3.22288806       3.31886915      -3.36616223      -0.26542209      -0.92805679      -0.21258956
Na      23.74091655      11.33540550      89.20267570       7.64231963       8.16500806      -0.75578148       1.73129464      -1.41564816       1.00177277
Na      26.50473560      13.20908376      91.84573586       3.79526976      14.50665219     -15.02262423      -1.21921539      -1.78347234      -0.11147893
Na      23.89278102       9.08943730      96.18882187      -7.56119852      -5.76467592       7.10527969       0.82033069      -0.19610395       0.29088692
Na      27.43632408       9.70486818      98.23252057      10.30170622       3.45278056      25.31144602      30.76621861      19.63754973      42.00058463
Na      23.08992249      18.26424422      75.33628447       4.55908422      -0.49980152      -3.78667292      -7.06255384      -3.95389023      -3.74752169
Na      19.30858165      10.18439842      67.84160888     -24.76589909      -3.77299866     -17.18578875      -0.64955304      -0.43017565       0.34602923
Na      28.96163669       9.99812239      83.87557251      -5.40045909     -16.48513216      25.39824634       2.06147415       3.10334843       1.77313867
Na      30.43849585      19.94597751      83.57457456       5.67736755      14.15757539       0.04037724       4.97103732       4.51391372      -3.78559269
Na      22.37852317      12.41313130      81.85394107      -6.31743789       3.73070217      12.11413849       3.18349514       0.59386221       3.42255640
Na      29.01036675      12.43735461      84.30016340       0.36291772       1.88289876       7.56934942       1.04878580       1.36433953      -0.01147755
Na      27.00855224      13.16532658      86.10060766       7.40316216       2.39061043      14.62168104      -1.13918838      -2.81876424       0.77407789
Na      29.56847699      17.98015306      89.78029708       8.35063603       3.12664491      -5.94486944       1.40805268       0.32761686      -0.08744589
Na      22.86559528       7.93966614      89.78977380       5.97705706      -3.70172319     -11.92258743       0.44283835      -0.07893807       0.73724784
Na      14.56102411       6.03496344      87.38941825     -66.13175501     -70.92657742     -31.08248793       0.77218581       7.45671591       6.96523057
Na      25.33495746       9.87633666      94.34739754       4.78283646      -8.39359465      -2.99481207       0.50461161       0.81277278       0.14543235
Na      11.11337832      26.97955879     102.54873187     -87.81865032      62.34318036      28.89428971      -7.95488611      -1.99974412      -2.78129887
Na      27.20742992      20.95753618      76.27858181      -2.17732117       2.92015328       0.49057273      -1.92960777       0.36801663      -1.90143531
Na      41.38184954      19.53144256      81.67035895       2.61843834      -9.05194662      10.73538588      -3.29324397       2.57801148       7.50588614
Na      30.94812917      17.64528216      86.67984813      11.62056228       3.77300125       5.17179962      -2.90215687      12.20211301       8.38601195
Na      27.84545192      15.09637202      77.62976250      -1.67516782      -8.40916044      -7.82442645      -1.54343583      -0.10067010       0.24169081
Na      27.75742051      15.02827208      85.96157493       7.64802157      -7.63009257       3.94480820       0.78858716       2.05799023      -1.42584069
Na      37.76212506      22.73899517      72.65735850       2.19510768      -7.13809237       5.55266222       0.25300817      -0.77833287      -0.16051681
Na      29.52319418      15.63806824      88.40006145      11.19403097      -8.22358190       4.31134069       6.15709171       1.51850753      -1.94153743
Na      20.24182170      17.57058206      91.26737049      -7.83204926     -15.88888510      -1.93513976       2.86084188      -0.41629888      -1.93393190
Na      25.62988628      21.83895929      95.77818381       2.54500282      11.72552100       7.68326854      -2.16115194       0.90599967       4.29687280
Na      17.68273868      19.23396104      96.81155811      -5.52349895       1.93217696      -7.81435115       6.41138530      -8.99962818       6.70500106
Na      27.32774135      14.96276319      92.56081349      -2.48810798      -3.39709584      -7.92451691      -1.86849371       0.44990304       2.76690464
Na      32.90358590      22.94253036      98.58989052      -4.92792817      11.11429511      -4.45368612       0.06079542      -4.47580121      -2.68389813
Na      30.86383648       9.32294288      73.16600003      29.32631914      -8.14184965      27.02378399      -7.74621211      -4.20395630      11.24780850
Na      55.78933046      -3.76204374      77.43622149     168.12763497    -232.18783003      45.79026304       0.15311071      -7.76204361      -6.24000020
Na      30.80043927      21.24226504      87.43509918      28.10098877       9.47401778      21.46071236       0.22254892      -0.51993555       1.35873607
Na      33.84090676      23.96774310      81.11978807      68.74459736      61.50884499      -7.32003743       0.68452064      -0.09839194       0.25381121
Na      20.08210910      20.97815825      86.28292153      -6.94961786       9.41307654      -5.25721146       4.71070369      -0.35369637       8.01669458
Na      22.85499964      20.99382355      79.61125748      -9.37645651      -8.02927086      -2.33977560      -1.67374019       0.25267597       0.83688613
Na      24.75756491      21.75146593      84.08072475       7.91259125       7.08154375      -9.69539271       0.33484667      -0.00116813       0.37694588
Na      26.08627161      18.30690576      89.56469224       1.45032332      -5.92633619      -0.62451963     -10.36806989       7.13064899      12.72194920
Na      24.67194195      20.26164527      94.21513199      15.56601360     -23.02227170     -13.70957687      -1.29553202      -2.13387016      -1.09595750
Na      24.77831483      22.54242036      94.66453890       0.80024399       5.35366350       3.57732908      -4.13238465       4.22927099      -3.89726172
Na      22.25163497      22.06241868      94.91057938     -18.30986687       4.49330630      -6.96148065      -1.00874229      -0.23185620      -0.02726205
Na      23.76840780      20.42866740      98.00977440      23.16313631      10.79605487      11.66087377      -1.46761017       1.80533117      -0.35276316
Na      30.63602587      25.16581668      55.68854870      17.76246236     -19.90646550     -57.00342452      -0.84061161      -0.89352151       1.28238411
Na      27.83984036      19.60370830      69.31829060       4.88133306      -2.84110294      -6.19134311       0.23973555      -1.86858908      -0.10103325
Na      26.02234728      25.12088654      81.84464114       5.41953198       3.08502773       0.79373036       0.24886251      -0.27128898      -0.50889989
Na     120.44389294     -75.42881303     205.48993321     231.25727974    -229.95375662     220.36523759       9.95123199       1.01034886      -8.49756751
Na      23.63436292      27.07379594      87.94304825       9.50828329      -9.72361590      19.72780008       0.88310533       2.09363628      -1.45618865
Na      26.54981461      26.24902495      83.94070583      -8.98761811      -3.26872587      14.48782741       0.25322296       0.28493990       1.08900320
Na      24.27345366      25.26092509      89.18345660       2.32783045       5.60053237       3.35321618       1.29667888       2.18597995       1.62112697
Na      23.73515241      24.30375201      82.78346311      -8.73382975      19.28401848     -23.72876627       1.25917773       2.46169454       2.52625572
Na      22.60576815      25.08375197      91.01896344      -6.69953336       3.42442545       4.60389361      -1.50673648      -1.33348863       0.47301087
Na      25.99855271      27.53118444      94.99142569       3.11499313      -6.45931020      -0.72392714       1.59919764      -0.39328320       1.18842338
Na      26.00364151      24.63097941      92.15164051       3.77356581      -3.33885381       0.01458377       0.03907116       1.73530232       4.01675317
Na      27.03859551      29.61566306      96.10301604       6.44873508       2.33858442       0.91482572       1.24386675       1.08153627       0.03672868
