2712
Lattice="28.6612 0.0 0.0 0.0 28.6612 0.0 0.0 0.0 100.8156" Properties=species:S:1:pos:R:3:momenta:R:3 md_step=5650 tag=warning warn_pairs="[('Na-Na', 2403, 2414, 2.3964727597051216), ('Na-Na', 2414, 2403, 2.3964727597051216)]" pbc="T T T"
Na      -0.05247516      -0.08087607      -1.80729541       2.42530184       0.41213736       0.33774274
Na       1.82360249       1.97144720       0.81496545      -0.68118666       0.80772779       0.05935816
Na      -0.34070305      -0.62793543       2.71493910      -0.47053853      -0.05934183      -0.76668487
Na       2.23597627       1.53139702       4.85167724       1.59088555      -0.12306069       1.30193206
Na      -0.18700555      -0.33218084       7.49163751       0.37270266       0.22365453       0.54256477
Na       1.68048189       1.95805956       9.57373862       1.94235500       0.36465432      -0.60459626
Na      -0.04449115      -0.51587864      11.53675943      -0.81901505      -0.28733808       0.96630441
Na       1.86270137       1.68570625      13.62459130       0.63625492      -0.36019264       0.64500812
Na       0.21092587       0.41951539      16.32802446       0.70751991       0.29902990      -0.56978032
Na       0.14041793       0.48698012      21.75446188       1.49417732      -0.11239093       0.48536165
Na       2.95124689       0.39533352      20.22598436      -0.55246002      -0.11604676       1.20085738
Na       3.21690187      -0.13965251      27.08935700      -0.26784812       0.70031552      -0.65244710
Na      -0.32562606       3.81169341      -1.90986309       0.12589976       0.23801599       0.39402249
Na       1.70370141       6.24250568       1.03167108       0.41822621      -0.33909669      -1.40433311
Na      -0.29289200       3.21882461       3.05823566       0.69487345      -1.27763348      -0.15414714
Na       1.63168669       5.60954769       5.29898364       0.80662618       0.10789218      -0.42975264
Na      -0.06687222       3.76486550       7.27148191       1.04819404      -0.11853180       1.33771420
Na       2.43283823       5.58312002       9.85299421       1.70372349      -0.39385725      -0.41524100
Na      -0.45291929       3.95276088      11.82692993      -0.07390398       0.05023568       0.08396033
Na       2.21752811       5.86448035      14.08864569      -0.29083183      -1.06007051       1.24288836
Na      -0.36151667       3.76403756      16.17182840      -0.41928488      -1.05512227       0.51111308
Na       2.61600990       6.57115539      17.94213023       0.16693414       0.05025260      -0.85176790
Na       3.80295308       6.05267316      25.34123798       1.08186526       0.06201204      -0.44442057
Na       3.59295113       2.52564055      25.66169937       0.34593467      -0.27945629      -0.69078914
Na      -0.80267871       7.85907374      -1.47429901      -0.05362862      -1.07510219      -1.34427389
Na       1.97228028      10.07467610       0.73823210      -0.58370771       0.91499688      -0.60430035
Na      -0.03276279       8.10868451       3.03452646       0.62485104       0.76046584       0.02373362
Na       1.66712393      10.21190829       5.29149987       0.82022022      -0.20369033      -0.00502082
Na      -0.08503971       8.07396323       7.40284422       1.83706542      -1.39155062      -0.49972366
Na       2.11343028      10.06489183       9.77620127       0.31300821      -0.80752967      -0.29919839
Na       0.61421103       7.77209935      11.73934876       0.19487847      -1.70810539      -0.88777846
Na       2.44561647      10.60875876      13.40549617       0.12919166       0.58280609       0.03085525
Na      -0.22739097       7.88846805      16.51516774       1.16401220       0.21876004       0.33768636
Na       1.90896430      10.49626273      17.92710487      -0.50491660      -0.11309039       0.64325091
Na      -4.80584294       8.12233043      16.25562215       0.11486155      -0.52679743      -1.07107274
Na       6.73107384       7.46260404      24.07636688       0.38819455      -1.14940492      -0.49504972
Na       0.33967966      12.67821058      -1.16493446       1.51189316       1.02324489      -1.37184977
Na       2.03064456      14.58140923       0.98547820      -0.27157070       0.09046683      -1.59409732
Na       0.22742652      12.02367005       2.87838113      -0.87443852      -0.03591424      -0.45042658
Na       2.17762795      14.96599142       5.40036228      -0.34386212       0.55844918      -1.55373764
Na      -0.21673986      12.33163867       7.96274097      -0.90603968      -1.07330354      -0.95677652
Na       2.16143006      14.49848120       9.46181251       0.18489211       0.42850559       0.09381347
Na      -0.04240346      12.60192046      11.51493090       0.43584381       1.13535982       0.41865740
Na       2.12247193      15.00874219      13.31213643      -0.46781952       0.89141976      -0.16624433
Na       0.60272898      12.68122719      15.22647418      -0.28281990       1.41629971      -0.37467255
Na       2.22789756      14.66497664      17.57562630      -0.14729412       1.13870728       0.18268796
Na       1.14754065      15.48708444      22.78638211       1.02898170      -0.19076247       0.25982349
Na       5.73976881      15.86891097      29.75075907      -1.19031252       1.40292089      -1.55002651
Na      -0.00524671      16.42211006      -1.58076331       0.12015051      -0.52809308      -0.09098612
Na       2.41574863      18.29664627       0.97293326      -0.64459718       1.98515861       1.19817879
Na       0.00045638      16.01008884       3.01319985       0.70040730       0.31689024       0.10480088
Na       1.90584760      18.60850298       4.70069900      -0.42398632      -0.72034296       0.09385518
Na      -0.10519974      16.42177204       7.43880382       0.76003164       1.52770461      -0.07650323
Na       2.45656453      18.40110344       9.48515798       0.66989786       0.29306128       1.19944517
Na       0.00234934      16.65964297      11.74314941       0.28589965      -0.80202127      -0.29322195
Na       2.52871192      19.44481541      14.19139953       1.13642201      -1.43958499      -1.20079694
Na       0.06064232      16.91794957      15.52244113       0.97634060      -0.25398387       0.12256736
Na       2.58587811      18.54512849      18.11184346      -1.44710160      -0.35855607       0.27725257
Na       2.92172316      18.41645950      26.56923250       0.36621970      -0.13746480      -0.25282602
Na       5.62084751      20.11542789      26.07890612      -1.05896066       0.82342663       0.91997505
Na       0.11161080      20.56889889      -1.70849839       0.12825444      -0.08176994       0.00836678
Na       2.16848699      22.17439139       0.16178817       0.59288691       0.28890285       0.24035195
Na      -0.02536086      20.50974570       2.53261337      -0.49899221       0.69972792      -0.16891634
Na       2.33224164      22.48216345       4.85912634       1.02038298       1.11097831       0.11977103
Na      -0.16047021      20.10521593       7.32973041       0.20365234      -1.15065161      -0.39180613
Na       2.23397995      22.08404300      10.03288232      -0.23197345      -0.10038515      -0.13223956
Na      -0.12872517      20.29617696      12.20346200      -0.06526033      -0.06961984       0.52644866
Na       3.16867741      22.89509691      13.67324020      -1.17464160      -0.38615770      -0.37262680
Na      -0.79945409      20.53149591      16.63602769       1.31225581       0.05025023       0.48310788
Na       3.88717892      22.10635564      19.66665696      -0.40328144       0.38342479      -0.76808632
Na       0.49549062      21.50623435      27.04929667      -0.66882369       0.82889168      -1.32308101
Na       2.63193567      25.86365410      22.52639753      -0.86729634       0.53979240      -0.66084674
Na       0.43915288      24.51114891      -2.33595613      -1.15962305       0.31579545      -0.09470435
Na       1.92460235      26.64490899      -0.00755770       0.88344455       0.05590509       0.10626160
Na      -0.05691391      24.20322652       2.71993216       0.83427843      -0.78767470      -0.19464116
Na       1.32222780      26.40640252       5.19591621       1.54605507      -0.74890862       0.78596393
Na       0.19096684      24.08880106       7.59373798      -1.14290382       0.66920766       0.82719155
Na       1.83427327      25.99403680      10.38801484       0.00536411       0.66980028      -0.00071895
Na      -0.01031800      23.95364699      12.24578210      -0.16157336      -1.00156392      -0.33182590
Na       2.14733493      26.22640057      14.29247904       0.37437429       0.52674705      -0.18049511
Na       1.57283706      22.90179934      17.06807047      -0.38400228      -0.24258847       0.41842918
Na       3.66406465      25.61185350      20.05715017       0.81471751      -0.56950510       0.26571895
Na       0.35366057      24.05720991      20.48746571       1.13208228      -0.43609577      -0.56330291
Na       0.71577295      29.21951195      25.07540618       0.70082551      -0.30805673      -0.75483912
Na       3.96599180       0.00925833      -1.68842557      -0.32430178      -0.06422606       0.78400497
Na       6.01929226       2.22400053       0.56679489      -0.75812364       1.39137639      -0.17801528
Na       3.97474119      -0.24425538       2.20240330      -0.63753594      -0.06398233       0.21148458
Na       5.76862415       1.91038153       5.73635632      -0.30244225      -0.14821950      -0.28250031
Na       3.32526954      -0.62553509       7.43690120      -0.64544364       0.15580329      -0.40135103
Na       5.84989894       1.72138152       9.30971999       1.50421631      -1.55726624      -0.21488290
Na       3.73395457       0.23747572      11.65304764      -0.41240866      -0.01917702       0.44413353
Na       6.08998000       2.06481619      13.90850354      -0.74854360      -0.60271768      -0.73159250
Na       3.89126634      -0.35458313      16.41997168      -0.35544041      -0.20584538      -0.27335079
Na       5.95118359       2.48623760      18.91224643      -0.36742243      -0.66088422      -1.20488900
Na       4.57538386       2.92181342      22.40857934       0.55717368       0.22340420      -0.81886459
Na       3.87238901      -0.11839742      23.69256457      -0.01963928      -0.88454623       1.73580885
Na       4.05835653       3.72998724      -1.82198408      -0.22138540       0.40117799       0.84474809
Na       5.91843110       5.93870828       0.65029278      -0.62986086       0.72339837      -0.32917758
Na       3.80232178       3.60804827       2.91282966       0.68784033       0.17649066       0.08963895
Na       5.68442515       5.63390449       5.24423163       0.03820821      -0.95430317       0.62946458
Na       3.87957792       3.69007835       7.36213259       0.62325818      -0.83089794      -0.39840411
Na       6.27322360       5.71252324       9.00660613       0.84417043       0.54636933      -0.61193002
Na       4.34672202       3.85018943      11.75242646       0.69190808       1.35263928       0.57443410
Na       5.97581632       5.68882022      14.35971699      -0.39208781       0.76159149      -1.46746090
Na       3.59882771       3.71790893      16.65341477      -1.36592356       0.51075284       1.31839728
Na       6.20873923       5.84349535      17.78138021       0.64052514      -0.32050979       0.82115048
Na       7.40792684       2.19587437      24.23656378      -0.01081512       0.77460429      -0.05964972
Na       7.22635630       4.57083512      26.68838051       0.79939493       0.37019340      -1.03839776
Na       3.80608945       8.22295882      -1.24539489       0.31772665       0.54570611       1.19782169
Na       6.38420432      10.07554144       0.78588498       0.47982379       1.03448100      -0.01794216
Na       3.34468834       8.23643230       3.32819911      -1.38131257      -1.07722960      -0.39603482
Na       5.77845005       9.97496703       5.43020596      -0.90836258      -0.49325942      -0.38170150
Na       3.40516251       7.91791554       7.35601928       0.07053392       0.13479179       0.75358124
Na       5.94384609       9.69340260       9.37492505      -0.72094765      -0.00051838       0.27157181
Na       4.61580029       7.42481038      11.68783110      -1.37101526      -0.97366329      -0.01147501
Na       6.20469762       9.94670605      13.56128446      -0.07698344       0.51088099      -1.80111766
Na       3.99041705       8.49974715      15.45591685       0.10994345       0.17779313      -0.29126575
Na       6.12025514      10.02229260      18.35283315       0.40326850      -0.83681952       1.39107009
Na       9.66420213       9.20598717      26.85672680       0.39660416       0.83269071       1.46025759
Na       6.65592363      11.61397025      28.48722311      -0.89128799       0.50550230       0.31793561
Na       3.84829050      12.32109535      -1.17917652      -0.76567055       0.72447348       0.76216810
Na       6.15443424      13.72933446       0.87728739       0.81968116       0.15828339       0.17631246
Na       3.76007941      12.01617264       2.99036605       0.37781087       0.61168515      -0.95303226
Na       5.92623010      14.15007675       5.49532837      -0.99972882       0.20766155      -0.23441809
Na       3.80794477      12.39381133       7.39930947       0.31664067       1.59121680      -1.63105811
Na       6.56733536      14.66349319       9.33388357       0.84662431       0.19693419      -0.74680136
Na       4.36352679      12.62111788      11.65460453      -0.01199378       0.95944919       0.94539981
Na       6.53609067      14.55294783      13.69783876       0.04272885       0.77143691       1.78691922
Na       4.32569779      12.36184382      15.40028782       0.97361180       0.29496448       0.85344484
Na       6.02578947      14.39854100      17.25716659      -1.15532830      -0.38494425       0.34542723
Na       2.28282587      12.02862434      23.31941582       0.04104676      -0.62797302       0.83467980
Na       0.17046613      15.42040014      26.34447717       0.56071454       0.27878599      -0.82446319
Na       3.99546646      15.81652242      -1.01723737      -0.37921275       0.28132937      -1.44460415
Na       6.53812296      18.30606960       1.32741289       0.65213022      -0.53964811       1.01593909
Na       4.53823954      16.14005080       3.06536503      -0.00620449      -0.95192102      -1.09942982
Na       6.73470899      19.10011413       5.03482000      -0.71052145       0.24224922      -0.57363091
Na       4.50116833      16.85401629       6.94737522      -0.16468521      -0.63067112       0.27804889
Na       7.02292331      18.62561363       8.29663969       0.15702635      -0.12793277      -0.51229037
Na       4.91378724      16.48184504      11.60741308       0.71624922       0.80715935       0.00564944
Na       6.68647714      18.50417958      13.87776807      -0.16022177      -0.26022980       0.69499917
Na       4.63930000      16.58095770      15.53402301      -0.15736980       0.54049735      -1.84711690
Na       7.13363098      18.22810413      18.31628730      -0.28027669       0.38827510      -0.17927806
Na       3.02391639      20.06362100      23.48220973       0.02905466      -1.01349240      -0.43464356
Na      10.82547414      15.39959971      23.97648934      -0.45478489      -0.30237265       0.60097011
Na       4.66785890      19.81905771      -1.50943801       1.59055426       0.40419277      -1.17825867
Na       6.41207072      22.54452946       0.86752644      -0.13857913       0.94037496       0.21816610
Na       4.04154265      20.74267290       2.66201365      -1.24893549      -0.08303257      -1.50734206
Na       6.40228027      22.67063648       4.90434544       0.33326209       0.94726865       0.21707643
Na       4.28851453      20.57743286       7.33462870       0.09021303      -0.52035883       0.30455818
Na       6.84665677      22.80782203       9.36073055       0.02706615       0.39114567       0.37925554
Na       5.21370949      20.67542933      11.50850881      -0.61326356      -1.26252009       0.01497695
Na       7.16074204      22.51677535      13.96714098       0.04483763       1.84492507      -0.40503921
Na       4.91741382      20.82288819      16.33110465      -1.30609948       0.35212032      -1.38858365
Na       6.11975644      20.77490317      22.14748728      -0.13034077      -0.80027841       1.16920853
Na       0.73430130      20.67200097      20.01989462       0.56379691      -0.08370418      -0.94911709
Na       7.83516318      18.01275287      24.45650683       0.14948207      -1.09136603      -1.06164031
Na       4.75170661      24.52530583      -1.76593252       0.81276250       0.97608898       0.13953334
Na       6.39965629      27.03860814       0.18611850      -1.05753719       0.30046550       0.57500391
Na       3.89875580      24.49569583       2.35101744      -0.04389647      -0.15318866      -0.42747225
Na       5.93297309      26.39878252       4.89625705      -0.15235531      -0.40135809      -0.58479454
Na       4.24663812      24.50600788       7.04879854      -1.00598713      -0.22786277       0.58895573
Na       5.78241386      26.90611267       9.52647592      -0.77587700      -0.89982022      -0.85811630
Na       4.78750106      24.18021078      11.26337466       0.00635687      -0.87340179      -0.32737814
Na       5.64506723      26.40704041      14.06427191      -0.47728149       1.41840883      -1.56939922
Na       4.53468309      24.42285925      16.29478970      -0.83412325      -0.74551399      -0.70445628
Na       6.68404125      27.59697629      18.72124377      -0.81177384       0.09195403       0.50184886
Na       6.49982413      25.28312548      21.01841073       0.22397241      -0.80188771       0.49855553
Na       5.09350795      26.13682291      25.79068337       0.43173168      -1.51781940      -0.07674651
Na       8.29011811       0.31476257      -1.79990207      -0.23860526      -0.68654493       1.14373706
Na      10.49636149       2.14515342       0.22534054       0.50956016      -0.00752766       1.17491609
Na       8.24381493       0.29784592       2.36882650      -0.30883618      -0.70136175       0.27129125
Na      10.06463834       2.18650147       4.86055112      -1.33173789       0.69641671      -0.87318951
Na       7.97220734      -0.13921115       7.07556040       0.09896896      -0.81745320       0.06360340
Na      10.48278754       1.74532570       9.31872459      -0.09695929      -0.51881584      -1.10159901
Na       7.96700656      -0.37674665      11.74632003      -0.04060489       0.11043608      -1.51183348
Na      10.63465073       1.89548151      14.02928983       0.14247005      -0.23468105      -0.76764463
Na       8.14224425       0.21905356      15.73424318      -0.95291338      -0.01349846       0.99544629
Na       9.45934155       1.84301055      19.42211425      -0.30672753      -0.42772386       0.26227908
Na       6.95005785      -1.32728550      23.67656934       0.73677621       0.09123195      -0.19287926
Na       9.91775286      -0.49338491      22.01105480      -0.25251713      -0.42447302      -0.45141865
Na       8.20162062       4.01076858      -1.52328770       1.05919150       0.94247837      -0.24597277
Na      10.11122763       5.99847989       1.07668008      -0.41467623       0.09840947      -0.41920385
Na       7.95713401       3.79058604       2.72849558      -0.40609919       0.42304412      -0.80461044
Na      10.63349061       5.73734696       4.94140813      -0.63356428      -1.06314215       0.58291340
Na       8.23243611       3.74597521       7.35369577      -1.13258076       0.08094512      -0.59635624
Na      10.31827411       6.09888034       9.30749310       0.34279523      -0.36092966       0.84088834
Na       8.56525001       3.78999674      11.47902781      -0.44720785      -0.02901494       0.47536070
Na      10.67870839       5.74748383      14.25197918       0.27883920      -0.25689167       1.22956887
Na       8.53485552       3.83553923      15.88160312      -0.42417488      -0.58829409      -0.68201907
Na       7.37815529       4.36243886      21.64332594       0.94973541       0.27151271       0.24482258
Na      10.03365769       4.36655753      24.04575163      -1.36393073      -0.73762100      -0.83779225
Na      13.26269108       6.31547273      24.15380506       0.35797942      -0.55824025      -0.69379951
Na       8.24587702       8.36962636      -1.65979453       1.02199194      -1.64841961       0.20220905
Na      10.13346513      10.40584312       1.31842156       0.07638315      -0.76266191       0.79797679
Na       8.04289121       8.16877558       2.93182586      -0.64515818      -0.74699948      -1.27466922
Na      10.52290616      10.16118395       4.95233362      -0.44666897      -0.54684484      -0.73312763
Na       8.38654344       7.81510585       6.99380854       0.17112195      -0.27386311       0.61506842
Na       9.91048997       9.64024883       9.43621593      -0.36539718       0.31725043      -0.11211297
Na       8.05425973       7.47292273      11.89879770      -0.01196986       0.93463403      -0.93476053
Na      10.17282521      10.08279314      13.68779386      -1.08797180       0.51473473      -0.50647550
Na       8.57464229       7.83848388      15.97008280      -0.50429869      -0.05095287      -0.06895889
Na      10.31924884       9.87609177      18.34636210      -0.11060045      -1.48451408      -1.01951132
Na      10.08858259       5.63524657      18.55692879       0.91497605      -1.13773470       0.15386664
Na      13.54610105      13.95005775      21.24984249       0.30425782       0.21188618       1.41327079
Na       8.00968779      12.05031456      -1.61604359       0.22974669       0.22104065      -0.13962201
Na       9.95059199      14.11661943       1.15298903      -1.04917706       0.58574123      -0.00424115
Na       8.25953723      12.25429908       3.24141082       0.30421238       0.42291707       0.72468644
Na      10.21648001      14.11840400       5.29000994       0.15252359       0.97588876      -0.09950112
Na       7.99923759      11.94657454       7.30059636      -0.09583389       1.51737539       0.24357935
Na      10.33235409      13.93399424       9.57172502       0.56648566      -0.45994805      -0.96493823
Na       7.78232854      11.90459871      11.56574194       0.06143962       1.28000677      -1.24624921
Na      10.30623122      13.85862143      13.33676576       0.67183506      -0.18273572      -1.97897012
Na       8.13644112      12.22191747      15.60571578       1.27515196      -0.79997074      -0.02337137
Na       9.94776668      13.70164626      18.09354505      -0.61495744       0.19226071      -0.35392286
Na       5.28196781      13.68317482      24.91601836       0.64537911      -0.64318260      -0.67309894
Na       8.55545917      14.43425694      27.00193073       0.12103359       1.01799418      -0.91650991
Na       7.51851099      16.34001869      -1.30588643       0.99843250      -0.44036593      -0.25017818
Na      10.53682321      18.21919553       1.19054115      -1.41562840       0.28766350       0.22616228
Na       8.45863885      16.40206081       3.50703647       0.19883259       0.25153022      -0.32654084
Na      10.52311187      18.61531549       5.07390406      -0.96278042      -0.39913411      -0.66590634
Na       8.75363836      16.29784656       7.18752776      -0.52788106       0.97603260      -0.43881519
Na      10.74360782      18.04124190       8.92640095      -0.77362682      -0.28380617      -0.50877660
Na       8.39574865      16.64927195      11.25214614       1.08224280      -1.59055196      -0.36575933
Na       9.98461778      18.54597460      13.88305039      -1.08455550      -0.31928337      -0.21632626
Na       8.82083918      16.23969264      15.81666072      -0.19549743       0.36555921      -1.00054153
Na      11.00537719      18.07896033      18.58360050      -0.85418394      -2.33135444      -0.45422253
Na       6.46437547      15.88136488      22.61078669      -0.55308246       0.84429211       0.22995997
Na      14.90947795      19.63565549      29.15415769      -0.00311113       0.54685661      -0.56242232
Na       8.75629369      19.99261988      -1.00887543      -1.09025106      -0.60051353      -0.34062106
Na      10.68709854      22.86118785       0.37915296      -0.83879389      -1.11430192      -0.28829524
Na       9.05986786      21.10431539       3.02786000      -0.97001177      -0.21328311       2.43176765
Na      10.56371680      23.26948276       5.15098168      -0.21261806       0.58634687       0.30859525
Na       8.52568752      21.11620498       6.94971894      -0.34843961       1.17985569      -0.39428941
Na      10.45057045      22.98131516       9.40755706      -0.66259611      -0.16159002       0.55942467
Na       8.76266783      20.47381115      10.95071958       0.22087982      -0.05574200       1.11235896
Na      10.60368432      22.34013615      13.59189401      -0.43091411       0.14881972       0.31173296
Na       7.48463705      23.19669172      17.94834905      -0.70464487       2.60798658      -0.36038551
Na       8.61479387      20.58306831      16.44531416       0.08525778       1.12142122      -1.33558608
Na      10.34785036      21.38411690      24.57912447      -0.58427424       0.44238842      -0.52989306
Na      11.58678967      23.33637637      31.53649886       0.19399064      -0.25065088      -0.23182586
Na       8.32286166      24.67549464      -1.53714396       0.32745009       0.06676544      -0.96921614
Na      10.39116151      26.69838832       0.02950761       0.00923037      -0.09455190      -1.75529077
Na       8.33901459      25.12996618       2.27861616       0.16716741       0.56888276       0.25712692
Na      10.40416478      26.59132777       5.06875789      -0.15790688      -0.16862704       0.30183235
Na       8.13231709      24.55435342       6.96596002       0.53030915       0.39944500       0.52226872
Na       9.90205400      26.94736488       9.61604307       0.37045445       0.94716893      -1.29484843
Na       8.15186793      24.89783603      11.99020356      -0.14508824      -0.21833827       1.91243309
Na      10.46406530      27.11713679      14.07370465       0.00535192       0.90941454      -0.38421503
Na       8.56168385      24.88002115      15.42267287       0.28287143      -0.54400722      -0.05673596
Na      11.27565282      26.55894967      17.62947035       0.16098957       0.11195570      -0.84670557
Na       9.14431591      24.95155478      23.74915449       0.61283165       1.03225232       0.32441172
Na      11.02034374      29.94303324      24.75961981       1.09697614       0.32654034      -0.50372681
Na      12.68005927       0.21598990      -1.85386739       0.99256317       0.62933793       0.93041559
Na      15.06792184       1.47610827       0.74375347       0.65797505       0.90197836      -0.76737097
Na      11.94447937      -0.28249807       2.53542124      -0.30912144      -0.58703151      -0.08924065
Na      14.22203020       1.55104408       4.42765041      -0.80765571      -0.65690279       0.40262939
Na      12.33113341       0.05087766       7.55465083      -0.94870264       0.46730598       0.61711101
Na      14.72986520       2.09945172       9.18022091       0.44329821       1.43993993      -0.26859465
Na      12.67726378       0.06792570      11.58932651      -0.37982020       0.40842934      -0.98252915
Na      14.98461775       1.83343243      14.30904048      -1.38810106      -0.29521294       0.63198805
Na      12.15794469       1.07684534      16.93219648      -0.63915404       0.19078016      -0.66341591
Na      14.59865367       2.64387944      19.04209851       0.68681907       0.20751186       0.50356850
Na      13.25915386      -1.00158293      20.60262109      -0.03926924      -0.18544698      -0.03192376
Na      13.99476764       1.54125247      24.05869193       1.29974975      -0.41422877       0.22926631
Na      11.95114820       3.85700761      -1.79613969       1.17837775       0.37185485      -1.22720792
Na      14.29624254       6.25855788       0.41970977      -1.00805140       0.02739128      -1.09567480
Na      12.28885700       3.79069155       2.32803171      -0.15630863      -0.24057140      -0.02998409
Na      14.28958294       5.46832360       4.74248998      -1.39727381      -0.62350999      -0.11130270
Na      12.42580171       3.70079471       7.11232749       0.60403602       0.36983930       0.30762640
Na      14.36498457       5.95328528       9.62131162       0.55740202      -0.54912451      -0.06497239
Na      12.53569776       3.68203114      11.34647539      -0.98211248       1.39993841       1.98093091
Na      14.78344150       6.27730448      13.99344285      -1.74851161       0.64107045      -0.03133525
Na      12.93136642       4.18183287      15.97873177      -1.37480497       1.12244845       0.02613605
Na      14.21376178       7.06016328      19.89724663       0.21993578      -0.44430283      -1.06173456
Na      11.92859636       2.89161016      21.43310442       0.75102403      -0.03006505      -0.11048677
Na      13.34031000       7.63269611      26.89831838      -1.03962393       0.88803470       0.22802682
Na      11.88947536       8.04130790      -1.56799392       0.76866737      -0.35189411      -1.07244943
Na      13.98706967      10.20269809       0.87023936      -0.00896342      -0.26554429      -0.01891957
Na      12.07584409       7.79200684       2.92760505      -0.63653282      -0.42962916      -1.09917080
Na      14.43533148      10.33001446       4.47624868       1.30527051      -0.02636057      -0.21053323
Na      12.63078223       7.70960112       6.94768836      -0.14164206      -0.15880608      -0.43555335
Na      14.36479584       9.91604592       9.13967173       1.46969227       0.81694841      -0.30877702
Na      12.34775332       8.12725757      11.58211923      -0.25864337       0.55337820       0.40122833
Na      15.04293112      10.29939453      13.92960925      -0.33458489       0.21556770       0.56802602
Na      12.60136476       7.93316556      16.33810265      -0.88767278      -0.76847287       0.06054471
Na      14.53487864      10.51746230      18.66616013       1.53269851      -0.24851320      -0.74935496
Na       9.39842160      12.52387135      24.02450014       0.15262626       1.39546207      -0.54440645
Na      15.65252630      11.38761749      24.53993400       1.11405109       0.02623980      -0.81715049
Na      12.11336052      12.17763959      -1.47537693      -0.90309627       0.35060466      -0.20926792
Na      14.26980312      14.32217958       0.45708574      -0.53529230       0.18747607       0.25846759
Na      12.23291666      12.61666149       2.74335200       0.15473033      -0.40862042       1.29913145
Na      14.60823173      13.86314012       4.63188860       0.57345057       0.39023212      -0.02566033
Na      12.67114331      11.74298783       7.15609279      -1.03358798       0.19664776      -0.77233371
Na      14.82363189      14.23315326       9.58731603       1.28659211      -0.75431298       1.18486711
Na      12.79338230      11.86705100      11.46126702       0.07803638      -0.37665265      -0.00241432
Na      14.82831800      13.63533541      14.44932856      -0.08951402      -0.76904262      -0.56254508
Na      12.09738976      11.72023926      15.80361119       0.02052364      -0.59522808      -0.42348208
Na      14.00209707      14.15297633      17.69069378       0.21730013      -0.30784242      -1.02668176
Na      13.98775519      14.23686296      24.25296578       0.15159356      -0.51429557       0.06627685
Na      17.96306562      12.96788072      26.59036639      -0.90399840      -0.73444931       0.52279360
Na      12.06609632      16.51793519      -1.49279054      -0.70529085      -0.28000458      -0.85281082
Na      14.56703765      18.20550051       0.26968000       0.01316228       0.14168272       0.25554250
Na      12.42231774      16.64597836       3.07093254      -0.61312256       0.27354063      -0.56808096
Na      14.39094469      18.62574812       5.60101337       0.18211475      -0.30906344       0.15918240
Na      12.55285546      15.51617076       7.46708237      -0.04883256      -0.99267874      -1.02683331
Na      14.21417321      18.04380209       9.18056869       0.53161412       0.33715258      -0.09259729
Na      13.13129101      16.09613562      12.09532341      -1.11006216      -0.57583444      -0.05552146
Na      14.90806129      18.18864756      13.75094353      -0.79855091      -0.52720365      -0.79445094
Na      12.28200117      16.09758260      16.04098761       0.72579840      -0.36287371       0.63864728
Na      14.00012477      20.34138075      19.18291080       0.54523049      -0.01294497      -0.60823989
Na      14.69770811      17.87613243      17.59812339      -0.92176133      -1.52756939      -0.13873527
Na      15.25120217      18.42633494      24.59410575       0.29314732      -0.58210566       1.24359809
Na      12.81025041      20.16279245      -1.41724623       1.10090786      -0.21297611       0.59338927
Na      14.51017935      22.20834579       0.29604136       0.83460559       0.25854843       1.38201845
Na      12.70668561      20.46070876       2.97402086      -0.43993263       0.33318887       2.28630405
Na      14.36298723      22.71703314       4.87170518       1.09079650       0.06772334       0.16910111
Na      12.56896354      21.27970746       7.22451374      -0.37521220       0.28615103      -0.28309964
Na      14.78863187      23.24789797       9.52502622      -1.17496229      -0.74488233       1.25684836
Na      12.60398577      20.52046391      10.92755183      -0.19769834      -0.46526239      -0.48003631
Na      14.27986026      22.31991569      13.14279815       0.66807186       1.16516452       0.34407451
Na      12.23327300      20.17640144      15.93283568      -0.06662706       0.65307596      -1.35928789
Na      14.37632899      24.52538357      18.59063931       1.01785698      -0.21120181       0.44266063
Na      11.01170464      22.72943156      18.72356246      -0.39179755      -0.74386280      -0.15807199
Na      14.87762438      22.36588387      25.01948634      -0.37270778       1.32729609       0.93039619
Na      12.52668942      24.38463114      -1.60959635       0.28799657      -0.96048775       0.03155395
Na      14.75174883      26.49596884       0.32502810       0.06005818      -0.06098549      -0.29679316
Na      12.63755752      24.79667264       2.65944670      -0.50321348       0.62127555       1.37512452
Na      14.37533158      26.81375173       4.82941873      -2.05978820       0.17096095      -0.89688199
Na      12.43693024      25.20634613       7.78624108      -0.07566865       0.74540585       0.34072541
Na      14.68931449      26.97279707       9.48295218      -0.68821516       0.73105622       1.27088619
Na      12.41779469      24.67804558      11.67231582       0.81605015      -0.32788029      -0.79347186
Na      14.05519108      26.69595882      14.42438167      -1.19453660       0.85890757       0.25691812
Na      12.45332047      23.62156024      15.81336292       0.65871835       0.01500593      -2.22673339
Na      18.38031691      30.43804404      18.38310463      -0.10050477       0.70763499       0.28993838
Na      10.63151775      20.88336779      28.18269582       0.38744596      -0.63838248      -1.55875148
Na      15.93059604      29.91835522      26.66366901       0.96844017       0.40307394      -1.16041760
Na      16.63808462      -0.24852055      -1.90031687       1.06117605      -0.59983839      -1.52439903
Na      18.65494708       1.73893202       0.69053613      -0.47395020      -0.45046610       1.73381307
Na      16.69419686      -0.22860241       3.14238110      -0.73213676       0.96205060       0.08095339
Na      18.92830147       1.30825147       4.54620675       0.24795848      -0.89901815      -0.78930160
Na      16.45750546      -0.52756228       7.13706815       0.14820467      -0.82638861       0.44161929
Na      18.12848287       1.77185529       9.19892199      -0.24774389       1.27166583       0.34218931
Na      16.28778172       0.13995426      11.69399740      -0.35266023       0.48033979       0.59481962
Na      18.66438878       1.89616811      14.44498728       0.75127440      -0.61499778      -0.81228495
Na      20.54972796      -2.08796730      20.62097732      -1.26003412       1.01968325      -0.04995353
Na      22.36761852      -0.43262190      24.30881386      -0.02036018       1.36895684       0.06232422
Na      16.79065659       0.63243569      21.99452712      -1.82654364       0.10179726       0.25472872
Na      21.97775299       3.63386879      25.78206364       0.89288328       0.05087146       0.05100826
Na      16.06667202       3.60728933      -1.78662671       0.51207621      -0.13343208      -1.12914219
Na      18.21944797       6.10310268       0.09987298      -0.64548214      -0.63591271      -0.12310148
Na      16.13918769       3.94315170       2.70577931      -1.07252437       0.30095572      -0.12790012
Na      18.83662310       5.32781728       4.93889990      -0.99440231       1.54186171       0.82635889
Na      16.38178107       3.58028552       6.63170835       0.48553370      -0.44478314      -0.26371268
Na      18.29763233       5.76643969       9.30156550      -0.54033920       0.27140738       1.15748132
Na      16.16445009       3.91772713      11.67745803       0.02331291      -0.80684383       0.74267332
Na      18.46859960       6.14011515      14.05639507       0.43417726       1.25858752      -0.67903250
Na      16.49403039       4.29635127      16.09382265      -0.32932744      -0.92933951      -0.10189622
Na      17.76630887       5.30951998      19.04994422       0.18697859       2.41158624       1.72088190
Na      18.76945881       3.26904649      22.43261492       0.35183628      -0.51150440       2.31659378
Na      15.21975697       4.09076008      22.42187331      -0.27597104      -1.15706898       0.17193167
Na      16.52146922       8.72264957      -1.85188480      -0.39411920      -1.57730564       0.42524580
Na      18.62171221       9.83093071       0.72531695       0.44265047       1.42563050      -0.39161152
Na      16.68869639       8.27210648       2.87331175       1.68359606       0.37152861      -0.76604582
Na      18.78190866       9.91757565       4.89909690      -0.35813538      -1.22997819       0.00647941
Na      16.15803165       7.41722353       6.95055232      -0.86504263       0.81753069       0.49065593
Na      18.29386280       9.79227587       8.48982376      -0.06076991      -0.59318054      -1.14405994
Na      16.89767551       8.10533243      11.27376061      -0.36713887       0.12363057      -0.51680044
Na      18.87787832       9.39265417      14.14188993       0.51177074      -0.65085661      -0.19553031
Na      16.60458850       8.06031119      17.05986208       0.93281976      -1.16753254       0.24348693
Na      17.39143419       8.41488016      20.30118893       0.18862649      -0.26278387       0.62465405
Na      12.96882547      10.35945654      22.67800042       0.02529699      -1.16822390       0.31768115
Na      22.48485742       8.49622129      26.22222410      -0.82208563       0.48682049       0.69545524
Na      16.23147668      12.14395877      -1.71946327      -0.05529010      -0.21436494       0.13904062
Na      18.10338840      14.49785843       0.57718413       0.75118914       0.04168064       1.01311058
Na      16.60913383      12.05297027       2.48681016       0.65637066      -0.48890801       0.07383913
Na      18.72763260      13.99522714       5.38381526       0.20138727       0.74234127      -0.17754825
Na      16.06838249      12.00842322       7.06723212       1.09673814      -1.22800993       0.44240759
Na      18.26810726      14.07830685       9.84670847       1.10006138       0.04595874      -0.12143847
Na      16.74391655      11.85335468      11.67141425       0.30210288       0.29040800       0.23968339
Na      18.95171460      13.50025436      14.29133564       0.19838660      -0.28144496       0.44189216
Na      17.03055760      11.56668844      16.76368575      -0.18493868      -1.18114431      -0.45064983
Na      19.36532367      14.14339963      18.74683534       1.64205395       0.42234772      -0.14852244
Na      17.21565429      11.40619557      20.86432607      -0.89842556       0.16978907      -0.76462416
Na      19.56902022       7.60145541      26.91276525      -0.81419729      -0.95687943       0.49410541
Na      16.56049780      16.52485268      -1.87937269      -0.14365423       1.03604635       0.56611582
Na      18.17840757      18.57977799       0.47279847       0.20331080       0.26499302      -0.56895504
Na      16.31444554      16.48577160       2.91781187      -0.66775526       0.32458566      -0.54370422
Na      18.51182750      18.39152845       5.12249569       0.97875830      -0.70562939       1.14806082
Na      16.15877472      15.98401842       6.52852460       0.87635814      -0.47292207       0.29797912
Na      18.03605388      17.61366315       9.68470170       1.67313950       1.52709878       1.46388155
Na      16.77337126      15.61059047      11.89997012       0.58377583      -0.78693814      -0.02302317
Na      18.25141139      18.59835549      14.05319500       2.03299833       0.23697153      -0.69302539
Na      16.89918165      15.76798126      16.44037043       0.51651381      -1.17890594       0.07322768
Na      18.00469074      18.37811815      18.20053791       0.18662112      -0.13649946      -0.47435855
Na      16.87048130      14.93653451      20.55483492       0.36600046       0.27135430      -0.62069042
Na      20.21024008      11.12875935      27.27398725       0.50898735      -1.25301075       0.68883003
Na      16.56416715      20.25746208      -1.82864486      -1.31410948      -0.57478735       0.98009766
Na      18.76735727      22.63264069      -0.04432579       0.46154931      -1.24519291       0.82134130
Na      16.51167185      20.50712934       2.90340527      -0.06518940      -1.44561768       0.19993742
Na      18.84568485      22.77305978       5.08021512      -0.82561146       0.10279590      -1.00310569
Na      16.59207559      20.79327433       7.58117737      -0.70645411      -0.97721402      -1.59170166
Na      18.19236035      22.64036910      10.02382976      -0.76267268       0.24330832      -0.39507289
Na      16.32212597      20.20953564      11.68024112       0.65952474      -0.00381757      -0.22968622
Na      18.35914047      22.28257804      13.97976728       0.85465145       0.15570029       0.19137892
Na      16.29065502      20.93640236      16.35756249       0.43573036       0.67256422       1.43543398
Na      20.48773879      23.61845920      16.39915712      -0.90626304       0.09466806      -1.01677636
Na      16.47787607      24.06229345      15.73855343      -0.08635043      -0.78552016       0.06849664
Na      18.11326829      18.23170770      22.92372456      -0.10381882      -1.01479048      -0.40210692
Na      16.65295207      24.32564621      -1.82647697      -1.17670627       0.73939798      -0.73068207
Na      19.01666036      26.71783952       0.57122200      -0.23234218       0.19229593      -0.73374891
Na      16.81734358      24.53300574       2.60903827      -0.68079166      -0.22988077      -0.17928999
Na      19.23273361      26.26436923       5.14744509       0.31990899       0.84049323       1.23561872
Na      16.74772412      24.83651596       6.86900703      -0.34257238       0.66815382      -0.19421122
Na      18.53894572      26.87977643       9.87514912      -0.50428678      -0.43861174      -0.28807593
Na      16.36495538      25.15531027      12.43467030      -1.25496284      -0.64307953       0.55200726
Na      18.60902765      26.68442170      14.47923224       0.11244680       0.20140619       0.79274369
Na      15.98001644      27.63446315      17.03766932       0.14789739      -0.37167774      -0.63944498
Na      21.80587160      23.41625653      23.08358502       0.90488461      -0.24703232       1.11669450
Na      17.47135423      22.35111179      19.04255024       2.27025098      -0.89424617      -0.79829740
Na      18.50206901      23.31879595      24.71647532      -0.52631155      -0.61908523       0.09480759
Na      20.20425149      -0.18775288      -2.42521260       0.58481226       0.28722037      -0.12429905
Na      22.60087357       1.90620468      -0.31356828      -0.40373068       0.15450701      -0.39921571
Na      20.98407692      -0.37606457       2.22877330       1.19915918      -0.55965314      -0.47361932
Na      22.38091205       1.71004286       5.09950509       0.05805798      -1.71841755       1.37158633
Na      20.65984019      -0.17444795       7.20466378      -0.97104476       1.78605692       1.94793820
Na      22.74325047       2.19463392      10.03764175       0.03091892       0.54828079      -0.47241129
Na      20.57483376       0.26250937      12.12515968       0.21501987      -0.74166012      -1.03595539
Na      22.43217617       2.12099165      14.26718122       0.48167762      -0.56237427       0.30148483
Na      21.28656692      -0.59271172      16.87495062       0.59687709       0.44474903      -0.57075303
Na      20.84676055       3.95040646      17.33605403       0.75652662       1.68558636      -0.35645301
Na      21.50580016       0.27904015      27.77317493       0.06355119       0.31464888      -0.04060885
Na      23.20960701      -2.46566516      29.51156085      -0.00793011      -0.17849132      -0.68289302
Na      20.70352406       4.11920763      -1.90899485       0.20173515       0.24058851      -0.92044283
Na      22.91906853       6.02833225       0.50586310       0.98581414      -0.34057191      -0.29035046
Na      20.99612318       3.38693608       2.17434067      -0.34451079       1.65521459      -1.03157873
Na      21.96135981       5.11114082       4.84465671      -1.18450706      -0.76934706      -0.31387394
Na      20.56795033       3.64846705       7.45575164       0.32173584       0.49081672      -0.04412759
Na      22.66100464       5.65216383       9.53702150       0.28483158      -0.69219264       0.36163472
Na      20.00148824       3.88486152      11.88156189      -0.79525650       0.63324651       0.83583389
Na      22.44225204       6.08859898      13.85357049      -0.88603631       0.47307464      -0.34896943
Na      20.34667211       7.27750238      20.57454293      -1.38572379      -0.65805840       0.55726357
Na      23.97017025       5.72202122      19.16413565      -0.83428819       0.23426830      -0.47888577
Na      19.61762785       1.63250984      25.34053901       0.69985105      -0.06521513      -0.17885804
Na      24.03420049       6.00078728      24.30555348       0.28728455      -0.26194757       0.21499270
Na      20.61244364       8.38539219      -2.22615120      -0.45602878       1.16121109      -0.84007299
Na      22.17857977      10.12568016       0.56362432      -0.60486226      -0.33016567      -0.00541444
Na      20.38852062       7.73801964       2.62590056      -0.76012198       0.53324864      -0.23922296
Na      22.47887949      10.33274790       5.17759385      -0.51190447      -0.46965679      -0.59403026
Na      20.38875096       7.56282203       7.07740531      -0.35133670       1.15056897      -1.12296003
Na      22.44907586       9.68434458       9.14572773      -0.68127450       0.29827419      -0.37006555
Na      20.72752482       8.17406700      11.29839509       2.17842383       0.43341905       1.10425113
Na      22.09645417      10.27543409      14.20650402      -0.12113823       1.12355857       0.61607063
Na      20.59891933      14.07060059      22.30500613       0.12407586      -0.35602553      -1.75620969
Na      22.55771176      13.41675442      24.80303450      -0.25787177       0.36116980      -0.89562731
Na      21.48148930       8.25265890      22.99043724       0.22508808      -0.43499908       0.84073548
Na      24.49118746       8.89844541      23.04473929       0.87423155       0.05286960       0.18362837
Na      20.35226531      12.19759636      -1.33997889       0.09328545      -1.26503568      -0.05476673
Na      22.53232060      14.35017865       0.72227157       0.38050818       0.03624586      -1.14727534
Na      20.47463545      11.98402374       2.54474796      -0.22870266      -0.53151287      -0.42062717
Na      22.10763131      14.69963429       5.10554646       0.20246523       0.76071900      -0.51042327
Na      20.37630637      12.34027987       7.73283107      -1.36554292       0.22980687      -0.89481151
Na      22.34787342      14.14368082       9.78201035      -0.87234251       0.44807745       0.40551331
Na      20.44949281      11.35481357      11.26014477       0.47155227       0.82188635       0.54665098
Na      22.08318273      13.64163939      13.88407174       0.59152663      -1.06284338      -0.23238666
Na      22.48211147      13.56353473      17.62252865      -1.38607728      -1.50063177       0.54416472
Na      20.46132322      16.10953558      16.13929221      -1.23474183      -0.54629028       0.12361159
Na      19.39478693      11.42277319      23.54533509       0.76375456      -0.25748991      -0.43992606
Na      21.10657073      15.64161746      27.29184463      -0.14945105      -0.51653198       1.59139467
Na      20.66806352      16.39782007      -1.48587996       0.66022596       1.32692772      -0.04527970
Na      22.92263354      18.69425369       0.70707971      -0.78911744       0.55618099       0.09914756
Na      20.34195911      16.12901345       2.55262248      -0.94414481      -0.89621519      -0.01274084
Na      22.36506930      18.78027272       5.47203914      -0.15738473       1.12894593       0.60941996
Na      20.83688817      16.24186416       7.63196169       0.77022544      -0.29326112      -0.30609294
Na      22.44384367      18.78529636       9.64674707       0.07409799      -0.06632495      -0.26639831
Na      20.15006198      15.95472505      12.18867236       0.15224714      -0.94775323       1.10003627
Na      21.93931247      18.81997689      13.95434824       1.45107945       0.05473398      -1.31138024
Na      23.43928100      20.17553130      19.73069045       0.26417889      -0.26895235      -0.66884914
Na      25.38239851      18.71335804      24.15915113       0.42320022      -2.84485397      -0.30921850
Na      24.44556755      17.75443373      29.10920466       0.88433379      -0.72450957      -0.34471050
Na      22.77282078      18.53810504      25.47606123       0.12583585      -1.85189345       0.16267903
Na      20.33690960      19.90176196      -2.01184799      -0.27009128      -1.29933409      -1.11209984
Na      22.51215901      22.49428737       0.21773157      -0.84686129      -0.55612053      -0.22525704
Na      20.44861324      20.51220753       3.17006457      -1.00382300       0.26765736      -0.66035690
Na      22.55938523      22.27631999       4.95283633       0.59609838      -0.20749327      -0.14487496
Na      20.39823683      20.90677381       7.60529761      -0.98464780      -1.84757622      -0.38510524
Na      22.74801274      22.09651375       9.93688091      -0.65598346       0.81795179      -0.56779487
Na      19.82930648      20.18211868      11.44225219      -0.04601739      -0.40531306      -0.42669342
Na      21.83029250      22.13014324      13.33069358      -0.00815779       1.14634994      -0.59026774
Na      20.62783697      20.07929189      17.28631321      -0.28507401       0.42385386       1.32265693
Na      24.96582772      23.54360966      21.32923852      -1.95260962      -0.21650491      -0.70712976
Na      20.82826358      17.52486111      19.96907783       0.08175455       0.82900688       1.02039987
Na      23.49896080      22.08863784      25.88427335      -0.53229821       0.05794988      -0.19210042
Na      20.31672341      24.63887577      -2.25519953      -0.01621265       0.99170353       0.31148667
Na      22.34999384      26.43979003      -0.15481405       1.17377329      -0.45698753       0.36308657
Na      20.83559521      24.56174988       2.41966899       1.54076145       0.00806752       0.42071688
Na      22.54083094      26.34594484       5.40473129      -1.13437390       0.05127976       1.53957599
Na      20.97770700      24.56454746       7.64024085       0.06399290       0.02072952       0.48460422
Na      22.63194974      26.83539873       9.92680461       0.68990746      -0.09868996      -1.13416078
Na      20.13855983      24.67493334      11.83880090       0.17613948      -0.30727818       0.20024423
Na      22.42659207      26.65374449      13.58450245       0.64492306       0.73397326      -1.06132992
Na      21.88507461      23.37400519      19.88249451      -0.26557617       0.46234403       0.55825551
Na      23.80376039      26.41356976      19.35247236       0.51896427      -0.82766416      -0.19887527
Na      19.87463396      20.83433410      20.92771055       0.22247425      -0.46094545      -0.86397341
Na      20.38726721      20.47192983      24.49369889      -0.55555959       0.64307149      -1.18347660
Na      24.91712844      -0.38885099      -1.92475702      -0.46818119       0.60852123       1.41544387
Na      26.15685462       1.53024011       0.62983994      -0.35631476       0.47924133       1.30276705
Na      24.33639724      -0.43818195       2.29089146       1.63168742      -0.33508889      -1.54314924
Na      26.58592572       0.74676424       5.11679356       0.99997211       0.86354829       0.52183738
Na      24.47187884      -0.19348524       7.33622911       0.35090678       0.27636670       0.30771032
Na      26.25549446       2.02091075       9.44828512      -0.03794446      -0.63292357       0.94998306
Na      24.96822976      -0.30383307      12.07165272      -0.16244204       0.56002109      -0.01926106
Na      26.71953350       1.65226161      13.95195747       0.06761509      -0.04815403       0.10156680
Na      24.73994149      -0.22362036      15.74354460       0.53771324      -0.11461869      -0.24484374
Na      29.94936185      -2.45118669      17.95097736       1.84284517       2.03047292      -0.28144116
Na      23.32604253       1.03595903      21.36740979       0.16946110       0.06154928       0.11182664
Na      29.75336494       4.13080276      23.14273170      -0.03321021      -1.19819534      -1.35767464
Na      25.10020817       4.38710527      -1.97086829       0.65478525       0.89474204      -0.00841751
Na      26.94067700       5.41010861       0.85280400      -0.99335993       0.28133872      -0.84321199
Na      24.52745251       3.35775544       2.84697873       0.17647306      -0.02915540      -0.79813055
Na      26.92391172       5.67710829       4.84350341      -0.70785942      -0.02556648      -0.01655595
Na      24.44195665       3.49054944       7.07248119      -0.31808081       0.59318457       0.41478213
Na      26.79639147       6.21682900       9.75029348      -0.19768743       0.99503029      -0.01742504
Na      24.40598237       4.14593062      12.09610769       0.58165739      -1.79353430      -0.59369141
Na      26.29539612       6.68608249      13.69258825       0.79696805       0.26692364      -0.77955752
Na      24.76057982       4.12892164      16.15946804      -1.22590295       0.68815768       1.58215892
Na      20.44425269       7.40800520      16.56310326       0.38165964       0.48478962       1.30207337
Na      21.92759594       4.65129696      22.44839998      -0.14115219       0.14596603       2.54595598
Na      27.79557039       8.31086374      23.47004014      -1.01246031       0.42799193       0.03563148
Na      24.33454164       8.46073402      -1.99260334       0.30526859       0.14806371       1.19248361
Na      25.98099540      10.14683265       0.48386889       0.70022708       0.41573069      -0.25079145
Na      24.57711504       8.06611972       2.77040963      -0.01228103       0.41739293       0.48703063
Na      26.52019773       9.80907993       5.21980266       0.68421841       0.25198484       0.62406786
Na      24.12197720       7.77093396       6.82916687       1.91199270      -1.32948492      -0.78219356
Na      26.75578945       9.95709177       9.41151875      -0.30830736      -0.13136919       0.38442740
Na      23.97973219       8.23189921      11.73770482      -0.27845206      -1.07294550       0.70226029
Na      27.13827235      10.09469163      13.43276984       0.06451673       0.20519903      -0.04559368
Na      20.28329536      11.16864359      18.61542739       0.47711036       0.07637199       1.26719740
Na      27.25447327      10.98434013      17.46356149       0.31802193      -0.54228576      -0.60177894
Na      23.26258392       9.24765177      19.95373415       0.50456339       0.35173661      -0.30435067
Na      24.36558717      13.42903178      20.53391075      -1.34693653      -0.49644233       1.00294365
Na      24.24689253      12.34738422      -1.44995657      -0.17314792       1.15340542      -0.39187990
Na      26.47571066      14.22407387       0.80108796       0.76552251      -1.32124237      -1.42026131
Na      24.12342894      12.37368269       2.89194615       0.43180254       1.99308452      -0.25523105
Na      26.66505460      14.09125555       4.97438670      -0.37198944      -0.78557244      -0.22609856
Na      24.63649792      12.43123024       7.22697308       0.14750513      -0.28940660       0.31895402
Na      26.64909953      15.02248349       9.53835598       0.03370771      -1.05534585      -0.64005659
Na      24.49644443      12.24331450      11.88291265      -0.66566756       0.86853085      -0.33645665
Na      26.65424588      14.75038887      13.56917472      -0.86843344      -0.69078245       0.62840392
Na      24.92954296      12.64105565      15.24419745      -0.19155917       0.35419848      -0.83763394
Na      26.79665676      14.71807771      17.60597546       1.19402233      -0.68531827       0.01159621
Na      25.50597937      14.22186141      24.31612948      -0.65515876      -0.02122807       0.63528461
Na      24.89461486      15.80030799      27.00911266      -0.46420263       0.00108973       0.72301094
Na      24.84146826      16.21891018      -2.13158051       0.14956942      -0.02333934      -0.22919782
Na      26.27291572      18.28978903       0.61314101      -0.86136087      -0.22766897       1.10704904
Na      24.44571111      16.67247817       2.81794936      -0.40227434       1.31726039       0.52129348
Na      26.96299391      18.58279607       4.27170701      -0.75945024      -0.18617592       0.37261485
Na      25.07109400      16.90266270       6.97448049       0.09490721      -0.76906891       0.68705706
Na      26.36982132      18.61532909       9.88679773       0.93652894       0.07456217      -0.01786049
Na      23.98278320      16.25398370      12.18798451       0.03083783      -0.96736583      -0.47696592
Na      26.12100709      18.30337517      14.20419310       0.28920694       0.42055434       0.62506293
Na      23.99139748      16.69734747      16.14862340      -0.05229882       0.36605421      -0.22826304
Na      26.67496523      18.13140467      18.51082785      -1.35267058       1.29488843       0.51009228
Na      20.86196100      16.45840746      24.47866969      -0.65110844      -0.82690715       0.18720344
Na      23.17070952      17.22064685      22.38098782      -1.18894646       0.01551838       0.16765047
Na      24.74389517      20.68070486      -1.85758805      -0.96325299      -0.17245859       0.15542281
Na      26.79947209      22.38999827       0.42314025       0.17360501      -0.79906441       0.48700581
Na      24.83175813      20.72078924       3.01332996       0.00592230      -0.20982065      -0.35535850
Na      26.76124205      22.68825081       4.99006979      -0.62134245       2.80233158       1.52401326
Na      24.97444252      20.32786041       7.18195282       0.77055014      -1.39443108      -0.14242560
Na      26.85557364      22.34646031       9.94298968      -1.81156318       0.11624038      -0.30769265
Na      24.55611377      20.25833287      12.34859951      -0.36740307       0.13862174      -0.51594192
Na      26.63950031      22.22156421      14.36520303      -0.44386688       0.21962327      -0.58934842
Na      24.18459384      20.75851671      16.52212331       1.46090597       0.51779273      -0.33683263
Na      26.42765091      23.12907828      18.29117399      -0.04126703      -0.41041803      -0.95270064
Na      28.20266952      22.15313336      23.51891508      -1.40499055      -0.77945607      -1.29449240
Na      30.65354638      23.57806928      24.61747012      -1.31653229       0.65446671      -0.41410205
Na      24.99231562      24.44067038      -1.65686593      -0.09155671       0.13565886       0.91109513
Na      26.64633146      26.29560312       0.37344742      -0.62678907       0.86825281       0.78653282
Na      24.67036265      24.47630377       2.15039137      -0.06627653       0.69008194       1.42020722
Na      26.36743966      26.32658007       5.10882213       0.29568890      -0.10704625      -0.28774899
Na      24.52773145      24.16858564       7.54925846       0.66668136      -0.43238689      -0.23003854
Na      26.36312731      26.33440298       9.52765553       1.01744783      -0.75661194       0.59490094
Na      24.50447738      24.17293914      11.62392414      -0.79466419       0.95960616       0.56020614
Na      26.74499757      25.67976960      14.73903977       0.35292601       0.32855946      -0.37649001
Na      24.03517299      23.95109038      16.04851095       0.48970444      -0.02562653      -0.02286228
Na      27.05727639      26.94532754      20.59446086       1.85154291      -1.34762433      -0.24466935
Na      25.46534976      24.28352410      24.53655954      -1.28896194       0.97085205      -0.42504485
Na      28.15537763      26.28012844      24.09002788      -1.43703502      -1.25912578       1.26444410
Na      14.04450658       3.56205821      26.56892047       0.34561066      -2.32583323       0.20317848
Na       4.23209066      15.66745430      33.57353172      -0.95187283       0.31325151       0.15919275
Na       1.85491357       1.68462215      30.04243557       0.19392866      -0.32812928      -1.13713433
Na      -0.33189986       4.03592373      30.73067675      -0.53972199      -0.39670928      -0.65307263
Na      12.37989030      14.39121024      27.26003325       0.98729527       0.84145328      -1.53380755
Na       5.68312900       7.31339374      28.31774418      -0.96827534       0.50138308      -1.54048757
Na       2.61011241       3.98034179      33.76104500      -0.85118092       0.46356280       0.06764373
Na       3.21824118      -0.14966615      40.35614426      -0.66589622       0.24931895      -0.30003824
Na       4.27267918      -0.15348853      36.34211612       0.72009813      -0.16344813       0.80196567
Na      -0.44269918       3.90587194      35.61847417      -1.06219981       0.43782146      -0.44983864
Na      -0.09959185      -0.20598476      37.74687070      -0.37167778       0.60723298       0.77388242
Na       6.93802049       3.99338231      32.20514958       0.01319046       0.48606123       0.30265333
Na      15.86163917      10.31887415      27.30521564      -0.51326811      -1.56768359      -0.58532192
Na       2.61231859       7.48958296      34.41657461      -0.24481389       0.95552736      -0.21665434
Na       3.41974336       6.55276404      31.03549978       0.55525087      -0.73567275      -1.03617927
Na      13.85751844      10.21962101      30.60423195       1.26036839      -0.22254629       0.67714688
Na      16.01063944       6.42613721      29.30360609      -1.00019388      -1.07804915      -0.84199881
Na       3.18867319      12.51748964      26.75647896      -0.27270746      -0.13016926       1.04878434
Na      14.00938608      10.73890744      34.62757778      -0.45502566       0.87540387      -0.31302758
Na       3.46417286       7.27161790      41.70574960      -1.40532549       0.37025736       0.97733587
Na       3.22242353       7.21908202      38.20298383       0.35657110       0.36374423       0.08277515
Na      13.92859139      10.34837015      38.93308004       0.78328654       0.88097202      -0.16308666
Na      14.07332941       7.12640833      36.56966286       0.46938068       1.64716564       0.06600208
Na       2.54587488      11.60246108      32.89693468       0.78248552      -0.62984654       0.00503172
Na       8.21966452      -0.42528648      26.73989683       1.05211582       0.40958963      -0.49904853
Na      11.06265734      15.26402165      34.25136279       0.97443174      -0.63645063       0.85518386
Na      11.08174811       1.10381477      28.39223405      -0.12983904       0.55568385       0.34111254
Na       8.29617594       2.22249336      29.49962839       0.15855262       1.26501162      -0.05801139
Na       9.44280989      17.54789223      31.61823733       0.19165177      -0.66305284       1.23185029
Na      10.88207399       4.05349472      41.19506976       0.66432902      -0.35323875      -0.64202935
Na       7.25632592       3.13309890      35.45706578       1.20498593      -0.98305263      -0.36528632
Na      10.36955875       0.30373686      40.22475178       0.48777898       1.40475504      -0.43746969
Na      10.68718903      14.20952441      37.16171581       1.24852869       0.47148147      -0.89308657
Na       7.10696908       3.69480784      39.59628894       0.37811614      -0.23238182       0.89678177
Na       6.67750922      14.14868954      37.31967737       0.35869992       0.16254793      -0.11450992
Na      10.62268681       4.40172536      33.75857545       0.09413172      -1.21941066      -0.80447876
Na       6.15766413      16.20993697      26.10190862      -0.32504446      -1.16671454       0.97668203
Na      10.39581755       8.01771069      34.75990270      -0.73234025       0.59531991       0.90463592
Na      10.33336163       8.82664774      31.52708318      -0.15297264      -0.29293399      -0.83409364
Na       6.66297725      10.90337537      31.96339028      -0.52165709      -0.14673848       0.67241554
Na       9.25256858       6.30461757      29.20127077       0.56175240      -0.33991908      -0.19453495
Na      12.57179031      11.46125509      25.73993687       1.35958008      -0.63890402       1.19274403
Na       6.52025872      10.86857656      36.07712982       0.26536805      -0.49640668       0.34421820
Na      10.28917959       7.37619867      42.22185994      -0.83144840       0.14013038       0.15258295
Na      10.74929942       7.38841105      38.65853780       2.26132088       0.34573881       0.49605882
Na       6.44477287      10.91596443      40.17004101       0.04930380      -1.49500340      -0.74180099
Na       6.32384580       6.80849884      36.72747389       0.29051068       0.18101792       1.22103208
Na      11.03201150      11.82519763      33.93062454      -0.28571400      -0.39756263      -0.33273472
S        2.23394064       1.90103770      23.01456815       0.00055978      -0.88743556       0.31087320
S        1.00582396       5.78077623      32.04626505       0.88571150       0.26871094      -0.52813089
S        5.91173187       4.58135189      23.98979010       0.48822876      -1.28276955       0.65889922
S        5.81748344       1.24464870      31.33971398      -1.27816105      -0.85927452      -1.83162141
S        5.81136042       0.25062232      25.78499679      -0.34547957      -0.15919647      -0.05955237
S        6.63738830       4.91599099      29.20583140       2.00764907       1.25471105       1.27280216
S        3.33632348       6.05937750      28.07545693       0.12692911      -1.34431655       0.15530688
S        3.39452266       3.66330586      31.08632843       1.06127830       0.66197493       0.41813925
S        1.15611268       1.57727472      34.36786428      -1.89395002       0.94365719      -0.01055314
S        1.16025512       5.80754838      39.90327263      -0.22147248       0.48705696       0.07097046
S        6.00463747       5.71228312      34.10982479      -1.73597929       0.24293290       0.81204806
S        5.66375747       1.51362558      39.66702095       1.16782548      -0.81521640      -0.83941170
S        4.65755555       2.54225851      35.40353794       1.68628257       0.19156298       0.96619852
S        4.94064622       4.76187049      38.45993785      -1.27371646       0.23808379      -1.24032607
S        1.99396912       5.30487856      36.27265625       0.93514744      -0.80459423       0.63704561
S        2.15458947       1.97596743      38.40486948       0.06289745       1.52696963       0.84965318
S        0.89319933      10.06373645      24.36774173      -0.11061811      -1.37003387       0.32679384
S        0.74537284      13.40196513      31.75582697       0.26789381      -1.53521343       0.34282800
S        2.27721516      14.23159979      24.59532620       0.28687828       0.60955999       1.51083170
S        5.76275614       8.26504884      31.22583565      -0.18226430       1.91418993       0.64246882
S        5.57000901      13.92872279      27.65796604       1.42910743      -0.80274003      -1.96390784
S        4.52508219      11.93433206      30.58901503       1.94895262       0.91139400      -0.67295252
S        1.24505841      11.61914624      28.77414349      -1.01967538      -1.19016083       0.82808592
S        1.88837327       9.29472650      31.36954729       1.09999257       1.36286177       0.25875493
S        0.06308524       8.19110077      34.84456155      -0.47114008      -1.25810577      -0.72825066
S        0.83626359      13.02187983      39.49183563      -0.80076948       0.42902630      -0.39156869
S        5.68727738      13.12107081      34.52385761      -0.51344887       0.70499806      -1.11803296
S        5.53967422       8.29131589      39.64398573       0.40211554       0.78043772       0.03974427
S        4.27145386       9.03080458      36.13801086       0.18085570      -0.08722545       0.44963064
S        4.54143731      12.31676973      38.22439533      -0.11670655      -1.33721328      -1.11560986
S        1.63914284      12.01628511      35.85440050       0.12962209      -0.14394112       0.84027935
S        1.83090744       9.49336374      39.10340149      -1.08866772      -1.55744358      -0.20674704
S        9.34167628       2.53222864      21.85372340       0.36290275      -1.54054103       0.70772194
S        9.32541557       6.36644093      32.19150488      -1.49858936      -0.66762796       0.57006517
S       12.74571579       3.78849029      24.03767918       0.41099002       0.68173748       0.49130654
S       13.11492435       1.06567004      30.89267351      -0.93407846      -1.44005073       0.94262596
S       13.28276769       0.79794019      26.75406190      -2.00716972       0.35730953       1.21896415
S       10.80374089       3.96947587      29.59537952       0.41192704      -0.38917523       0.51270398
S       10.08380568       6.38762280      26.26315182       0.28582917      -0.49627889      -0.70837999
S        9.44531730       2.79677870      26.47700909      -0.35488628       0.22274094       1.09757674
S        8.78210710       1.99393003      33.12686501      -0.61832534      -0.07205509      -1.08640138
S        8.68645881       5.97594504      39.99231802      -0.22194146       0.03397514       0.57682285
S       12.58805501       6.03984942      34.55508164       1.20260493      -1.24952982      -1.72732126
S       12.82657905       1.58403785      40.08180252       1.35575581       1.15035573       0.34547472
S       11.71769426       2.53351338      35.55448500       0.47537103       0.37427744      -1.03692498
S       11.90662247       4.76618654      38.81888698       0.40769574      -0.09056463       0.02845641
S        9.09399528       5.16496477      36.15718491      -0.01878854      -0.11182368      -1.04415112
S        9.06928293       2.00820815      37.98962715      -0.85391810      -0.22389948      -1.06774398
S        6.31524307       9.06481715      26.14747205      -0.40572196       0.15343478       0.25238554
S        9.38571154      13.32501451      32.17092339      -0.60671251       1.06709574       1.03925065
S       11.93134835      12.91029459      23.09621918       0.57721418       1.04677553      -0.34745442
S       12.37721605       9.54800514      32.77812030       1.08547770       0.07756695      -0.03628479
S       12.00703589       9.76014071      28.47189121       0.53876814      -2.55038027       2.08134026
S       14.86381618      12.93272372      26.61715127      -0.01738540      -0.98349280      -0.98229427
S       10.24981786      12.39167040      26.80672688       1.19839523       0.78738439      -0.38684902
S        8.48282543      10.24052273      29.57262989      -0.56430979      -0.43364723       0.79495258
S        7.87385252       9.19926028      34.13423155       0.10222974       0.20170698       1.93015044
S        8.09234245      13.06161746      40.08724362      -1.01455810       1.26085268      -0.04485717
S       13.20277314      13.42098872      35.10602171      -0.52349883      -0.53017127      -0.67761715
S       12.39488777       8.46263436      40.65657671      -0.35173592       1.50650761      -1.99097074
S       11.96221214       9.09097651      36.96129995      -0.21983951       0.01717295       1.16142699
S       11.77766016      12.13456572      39.03228847       0.16606570      -0.56746546      -1.38136555
S        9.27831597      11.94425752      36.12573656      -0.51247730      -0.21289833       1.40925942
S        8.82569970       9.58863895      38.88796321       0.87041374      -2.09818773      -0.50930293
Sb      -0.25284309      -0.07472709      41.47140172      -0.51165764      -1.30376728      -0.20101572
Sb       4.48022221       3.87389184      28.88444011       1.10278804      -0.48750642       0.17520247
Sb      -0.57141948      14.50988716      33.58233042      -0.46791018      -0.41018802       0.97961147
Sb       3.30167964       3.53886718      37.12330885       5.23474251       2.06082846      -2.35093007
Sb       1.49813074       8.42384968      26.07008700       0.42498029      -1.66053624       1.62354068
Sb       3.14346858      10.29248444      29.47939681       2.54539836      -1.69119447       1.46332503
Sb      -0.82206606       6.79303795      33.09971777       1.95580049      -1.13963025       1.08683379
Sb       2.93639319      10.64924859      37.34655816      -1.25483530       1.06158790      -3.09748079
Sb       3.82348214      16.49688068      24.08535801       1.42190775       0.80150868       1.28320541
Sb      11.22581435       4.31268124      27.25903275       0.72528515       0.30133706      -0.75642184
Sb       7.52485054       0.01036947      32.54814974       0.43884554       0.28960548      -2.40767386
Sb      10.50517617       3.65361199      37.29888158      -1.53889924       0.49449754      -0.97878821
Sb       3.93281640       9.60772294      25.38470664       1.38041761       1.62600989      -0.02483800
Sb      10.45876168      11.53627729      29.17008778      -1.71721849      -2.82762987       1.10259528
Sb       7.18328064       7.32786167      32.87919661       2.39225579       1.37066572       0.30027648
Sb      10.44450132      10.71584075      37.69188731      -2.10347322      -0.44890175      -0.55683400
Na      13.84855827       3.50447445      42.81253550      -0.31227194       0.16274991       0.34586549
Na       3.71943704      13.74432237      48.06054997      -0.48530032       0.50553222      -0.95470251
Na       2.73096380       0.13518925      44.30310834      -1.12896413      -0.08930826       0.90701480
Na      -0.24717142       3.11536347      44.15193447      -0.25055233       0.38203351       1.16668732
Na      14.29853533      14.01706157      45.58487735      -0.62959263      -0.75875538      -1.11318229
Na       3.48778471       3.50772229      40.92645082      -0.73514068       0.45689408       0.36038371
Na      -0.09085582       3.27152414      48.07378028      -0.41324865       0.64094535      -0.24621881
Na       3.12163410       0.51864038      56.46824153       1.52660386       0.89189724       0.47488959
Na       2.75418255       0.18689021      52.54391571      -0.87260514       0.60710584       0.72619786
Na      -0.24492324       3.21422577      51.82290605      -0.49594411       0.51399347      -0.71755274
Na      -0.81160149       0.04825400      54.14954371      -1.26975726       0.86054457      -0.26072305
Na       3.66206853       3.30676209      49.71342827      -1.93400062      -0.63757395       0.21800607
Na      13.96023575      10.78070600      42.17646430      -1.20383054      -1.27687446      -0.40887380
Na       3.07827449       7.24967586      49.00926063      -2.36125657      -0.40034630       0.91477811
Na       2.40892288       6.91754077      45.36167064      -1.23829277      -0.07467240      -0.93966189
Na      13.79917888      10.38683709      45.47429009      -0.17048898      -0.12082530      -0.67616007
Na      14.73825062       7.14662179      46.01877877       1.01896962      -0.20009154      -0.08573470
Na       2.66396714      11.36709520      40.86555038       0.59053621       0.67394815      -1.12586803
Na      13.59695704      10.54721330      49.08295887       0.79491414       0.37087702      -0.23232311
Na       3.42049556       7.37908734      56.10462551      -0.56657517       0.49838629      -0.93151352
Na       3.51711032       7.37399245      52.42207145      -0.60288161       1.21618455       0.26648485
Na      14.16148692      11.07492472      52.61594229      -0.12456412       1.83274449      -0.00952956
Na      14.66273502       7.21441060      53.65191198      -0.05888172      -0.36777653      -1.32322651
Na       3.24554342      10.83610877      50.11079623       1.17975024       0.05335665      -0.28697087
Na       7.16482914       3.51373444      43.03962946       1.71353926      -0.01663497      -0.67381476
Na      10.50647106      14.18844309      48.56756082      -0.03182139      -0.10160186       0.52030082
Na      10.06223535       0.25597210      43.87207909      -0.48640187      -0.32652250      -0.02659461
Na       6.70636925       3.79511873      46.36991633      -0.02402665       0.52331846      -1.28506005
Na       7.59536912      14.05413157      45.65706958      -0.25588506       0.70117094       0.45464041
Na      10.79293136       3.05127562      58.60735975      -0.50343683       1.30032932      -0.80007882
Na       6.95772534       3.66815022      50.30540457      -0.05481501       0.37816857      -1.95509256
Na      10.21298539      -0.06674191      54.98830901      -0.32171373       0.30349964       1.60050418
Na      10.41109218      14.39148407      52.52315046       0.20380252       0.60596515       0.18824177
Na       6.80414698       3.59521818      54.31578851       1.53428357       1.25125775       0.12031335
Na       6.50194412      13.71508037      53.97635099      -0.07524022      -0.03609215       0.45902680
Na      10.98802348       3.64526442      49.97739372       0.64385453      -2.60587274      -0.52857578
Na       6.30441934      10.98135256      43.61211412       0.74779742      -0.23899399       0.04519213
Na      10.34664972       6.97592438      48.80979446       0.84384916       0.00822625      -0.02362396
Na      11.53967810       7.03435399      45.45975503      -0.61013824       1.33068084      -0.55102236
Na       6.95975795      10.69979014      47.29270103      -0.20289493      -0.62030375      -0.46448343
Na       7.02552302       7.56602504      44.99091349      -0.99047435       0.90423664       0.54316144
Na       9.68338916      11.08541684      41.18900665      -0.28797896       0.91601323      -0.40030592
Na       6.90392133      10.62297788      50.72765965       0.35879967      -0.75043112      -0.54176496
Na      10.54536826       6.45704966      56.63357813       1.00477116      -0.80214187      -0.04422938
Na      10.54693757       7.21709208      52.65949438       0.64193924       2.05345654      -0.03133037
Na       7.09244554      10.52282528      55.28810016       0.34382999       0.75524497      -0.18370577
Na       7.45623980       7.29895335      53.45384789      -1.83870139      -0.90141662      -0.64568370
Na      10.06986080      10.82336351      49.90143631      -0.95501688      -0.72411567       0.86268546
S        1.18784087       1.73408427      42.06884661      -0.81419184      -0.95523792      -0.77723392
S        1.05831081       5.76567918      47.94875301      -0.33400064      -0.69629924      -1.15286846
S        5.79530214       5.81805802      42.42549625       0.68622435       0.12580113       0.51552747
S        5.58669539       1.65821462      48.47442596      -0.79100143       1.10874521      -1.40021845
S        4.88485715       2.12325848      44.58433824       1.56978405      -0.22791322      -1.44661582
S        4.08788206       4.90290172      46.92676725       1.57181955      -1.52506560       2.59034040
S        2.16934510       4.66160564      43.58050510      -0.36394357       0.41630590      -0.41661634
S        1.74542276       1.87701554      46.34026780      -0.45173643       1.05950980       2.60492684
S        1.35253398       1.65954047      50.32723605      -0.18972659      -0.22088631      -0.46343521
S        1.69668553       5.31863479      56.84976481      -0.78609900       0.21878432      -0.54288339
S        5.49334020       5.89457328      50.96353888       1.75991407      -2.03624077      -1.83391059
S        5.83455894       1.54574522      56.33811623       0.20636037       0.61397156      -1.13533466
S        4.60048436       2.49304641      52.48911578       1.45988540       0.32362053       0.51968719
S        4.56869525       4.92525941      55.15750803      -1.07288033       1.04577921       0.52071915
S        2.02765046       5.20277941      52.25268007      -0.58090233       0.01332689      -0.19176974
S        1.62264524       2.03883608      54.64197541       0.90755619      -0.31258146       0.79023895
S        0.71872259       8.01834949      43.06382494      -0.09552884       1.89966655      -0.39813306
S        1.17326938      12.54207690      48.14592458      -1.05494128       1.60556440      -1.34442247
S        4.99077068      12.85813908      42.10569449       0.18449884      -0.82380352      -0.36395139
S        5.21025703       8.95552687      48.61978011      -0.01254376       1.04977196      -0.97985691
S        4.52530825       8.73437285      43.99213710      -1.33782572      -0.32695190       0.01078250
S        4.82330232      12.09372288      45.86091724      -0.13013155      -0.69332987      -0.62384459
S        1.75335554      11.83403715      43.94924668      -0.42959326      -1.00524251      -1.97332223
S        2.09236094       9.39183304      46.92184409       0.58202298       0.54773461      -1.13088031
S        1.21328187       8.34978269      51.00191814      -0.06962596       0.29685346       0.25004106
S        1.37302198      12.75205368      56.54606501      -1.39165793      -0.42722336      -0.09258605
S        5.05736568      13.02536912      50.63338729       1.02191952      -0.32998838       0.07526685
S        5.31652940       8.99715939      57.31011229      -0.53636083      -0.05675646      -1.03280330
S        5.40565522       9.27442591      52.72712831      -1.29849584      -1.62019704      -0.67843776
S        4.78851886      12.02782466      55.28244572       1.87497480      -2.02143277       0.30657386
S        2.22719457      12.00108085      52.18102125      -0.58299765      -0.06780787      -0.59710744
S        2.11596843       9.15925185      54.60973812      -0.58411443      -0.65006949       0.45295570
S        8.54419349       1.51764188      41.94629439       0.23579453       0.14510498       1.36542639
S        7.82885238       5.81377918      47.99877446       0.52358271      -1.11210263      -0.57203632
S       12.54997342       5.66318215      43.22838315       0.12097862      -0.11571220      -0.90002581
S       12.43561756       1.46974166      48.50830680      -0.48971765       1.22178243      -0.30563537
S       11.89181709       2.22655717      44.45644962       1.45508937       0.67403155      -1.02925189
S       11.37476762       4.70301122      47.31787423       0.24543704       1.99594290      -0.34431490
S        9.03062017       5.06025809      44.23762555       2.00251409       0.25188154       0.34669143
S        8.82907715       1.92028739      46.55942187       1.41325049      -0.00423323      -0.50666555
S        8.19478098       1.34709768      51.33166919       1.28303811      -0.37176223       0.90353782
S        8.03518770       6.30247931      56.09026243      -0.66329238       0.07745021      -1.13833966
S       12.56959767       5.87138048      50.89177747       1.36110563      -0.55096408       0.32438819
S       12.32652866       1.34990935      56.91083305      -0.22382137       0.35016599       1.57106574
S       11.92745026       2.04959865      52.57985591      -0.70846229       1.01309524       0.46140127
S       12.07505459       5.24413686      54.62838877      -0.06620207       0.51847244       0.19780593
S        9.25936925       4.81747626      52.22860808      -1.45450327       0.74233554      -0.62250547
S        9.20747858       2.59034928      55.39649744      -1.11797107      -0.18182325       1.05752992
S        8.15974397       8.96332611      42.52726156      -1.33545766      -1.20881810      -0.83722575
S        8.33239388      12.40979754      48.64842983       0.82994573      -0.19041603      -0.56451769
S       13.07006627      13.19565355      43.24223655      -0.33875611      -0.24978789      -1.43415875
S       12.62805677       8.16856340      47.99069634       1.74074663      -0.07358531       0.10904836
S       11.58734497       9.33959866      44.03205479      -0.62920126       1.01027911       0.09363960
S       11.79311492      11.94384551      46.61029854       1.19724624      -0.41869027      -0.72495662
S        8.81156375      12.12138076      44.19911431      -0.35198571      -1.67278346       0.60116137
S        8.98322818       9.00973267      46.96780677       2.64087281       0.47443919      -2.42941328
S        8.73457239       8.12784959      50.70978527       0.03852909       0.49299901       0.50745027
S        8.38553544      12.62337673      56.75269385      -0.15331167      -0.94026298       1.10982280
S       12.84269906      12.92625452      50.88131026       0.03913104       1.04043470       2.44914930
S       12.64145162       8.49394658      56.42435342       0.45575087       1.11471173       1.14975485
S       11.67097006       9.52065730      51.91322372      -0.15812076      -1.12464555      -0.13364953
S       12.01795241      12.27716656      54.79056081       0.87238929      -0.12846863      -0.26595369
S        8.82080497      12.10988129      52.54154120      -0.23430999       0.05006788      -0.83932399
S        9.48957061       8.98794500      54.90040122      -0.31375709       0.01736842       0.05707395
Sb      -0.05387261      -0.09534553      57.81021514       4.62448941      -0.17236655       1.75016078
Sb       3.13713011       3.52290286      45.30135578       3.22716412       2.50768203      -0.13759761
Sb      -0.13889719      14.24347971      49.24563485      -1.12631128       1.01046533       1.41252390
Sb       3.08199884       3.69650579      53.69906648      -2.24081307      -0.52476533       2.29654517
Sb      -0.43806104       6.69228494      41.47095893      -0.11880188       1.42594834       2.08163692
Sb       3.27651274      10.39874631      45.16765104      -1.28341428       0.57529504      -1.59448983
Sb      -0.32624105       7.06897177      49.55614029      -0.86788272      -2.22192233      -0.00047474
Sb       3.68745437      10.59248706      53.68669951      -0.47519456       1.15908996       1.72840621
Sb       6.64059382      14.33890763      41.37285815      -1.53844302      -0.48905096       0.18429575
Sb      10.28506918       3.52519404      45.58296591      -3.22937926       0.87366972       0.91014162
Sb       6.75451300       0.05623498      49.93198286       0.31485014      -1.19342701      -0.85356089
Sb      10.66747863       3.56597490      53.79570852       0.68104505      -0.77692302      -1.90546851
Sb       7.09217651       7.21970968      41.17541222       0.32718203      -1.09334683       1.69592899
Sb      10.24372488      10.51052063      45.53534040       2.80243459      -0.79873294       2.55597815
Sb       6.78431151       7.29405600      49.48237868       0.97585652      -3.30526451       2.80961348
Sb      10.54489813      10.73166955      53.58692889       0.44187876      -1.13477491      -0.40229840
Na      13.60343973       3.81944162      56.45354504      -0.95314589       0.07149750       1.20341615
Na       3.68320046      14.71355905      64.08466814       0.64180472      -1.10895505       0.34175124
Na       3.60999570       0.10084686      60.64803796      -0.37197583       0.46548367       0.97783011
Na       0.25546606       3.82163790      59.77516970       0.04082681      -1.07007310       0.39579080
Na      14.88771435      15.08215876      61.22735171       0.29286898      -0.97537689       0.05632643
Na       4.13777553       3.90817161      57.67027678      -0.68079376      -0.22833675      -0.30586899
Na       0.06868056       3.71728379      63.55796829       0.43212212       0.25086716      -0.60283292
Na       1.32662945      -1.37835611      71.35858129      -0.45353076      -1.02904806      -0.46812230
Na       4.16078048      -2.94134262      69.15171464      -0.32324997      -0.97880307      -0.99159364
Na       0.11269747       2.74514202      67.68667547       0.87647802      -0.33881316      -0.41615994
Na       2.10308179      -0.38103494      68.13985635       1.95504786       1.48643543      -0.61210212
Na       3.41327431       4.65327091      66.49973529       0.26404933      -1.09951162       0.57031216
Na      14.20747174      10.73650324      56.45160586      -0.04590972      -0.80115978      -1.16455923
Na       3.45614294       7.32970828      63.00452392      -0.27132777      -0.67818806      -0.46589713
Na       3.85854991       7.19246051      59.56625117       0.09827013       1.31555131      -0.68983707
Na      13.88878488      11.26000306      60.20798293       0.26730461      -0.78270775      -0.00033027
Na      13.83516040       8.07499258      63.61788662       1.40184089       0.24219968      -0.46968670
Na       3.92487952      11.34415494      58.11740962      -0.01938121      -0.39580311       0.63962896
Na      14.65194091      11.96316163      63.91808400      -0.39895161       0.38505842       1.18483112
Na       4.52950049       6.11499146      69.46373085      -1.65988265       0.49500195       0.84615546
Na       1.78122804       8.40768465      66.39617443       0.09315690      -0.98603980      -0.06489585
Na      14.27631710      10.83474596      66.90367339       1.18087213       0.54718781       0.49553128
Na      15.31680324       8.94990361      70.25474219      -0.60811208      -0.48338178       0.72647961
Na       3.74400111      11.38612261      66.22060721      -1.40869401      -0.15211385       1.02809525
Na       7.52887667       3.88415774      57.49812157       1.38034925      -0.25044648      -0.08829185
Na      10.38278361      14.11504713      64.34639195      -0.56646025      -1.04813045      -1.24935377
Na      10.70172003      -0.22346218      59.35399360      -0.28790240       0.56294629      -0.64460847
Na       6.91854464       3.90094557      61.87645772       0.58465339       1.62164877      -1.02158914
Na       7.22872085      13.34992505      63.02794517       1.49211764       0.93923816      -0.33935471
Na       8.40423789       8.01737636      74.29584111       0.02283530      -0.03337790      -0.72716960
Na       7.17640571       3.56948076      65.35435473      -0.37233971       1.35418084      -0.04769311
Na       8.17890699       2.49275580      74.03306513      -0.34259169      -0.14349646      -0.95944021
Na      10.41498754      14.04231942      67.82001215       0.44552774      -0.28325130       0.63999681
Na       7.56628885       3.93236978      68.78212209       0.69703536       0.84723773      -0.05502291
Na       6.21421815      13.76177991      70.35037655       0.83080794      -0.62888820      -0.30910095
Na      10.69911723       2.32831325      65.83552261      -1.19570481       0.88315869       1.12006825
Na       7.39738270      10.88436429      59.35177600      -0.07322225       1.07003448      -0.35576206
Na      10.85376020       6.02708234      65.16759034       0.27908068       0.49511494       0.02862572
Na      11.16146338       6.95992417      60.58863237      -0.97914678       1.25163063      -0.09702504
Na       6.49958633       9.94313577      63.99796350       0.54032416       0.61264296       1.59554885
Na       8.10337476       7.27958507      61.83398722      -0.47731614       0.22806939      -0.38677487
Na      10.97201726      10.73279522      57.16097804       1.06215549      -0.03820204       0.92552071
Na       7.50244188      11.49953494      67.83255757       0.34033451      -1.47792924       0.99084206
Na      10.25123827       8.36651099      71.71509060       0.77775026       1.12538617      -0.13752496
Na      11.72257521       9.15137451      68.72611993      -0.22414375      -0.40630628      -0.27889802
Na       7.21047454      10.71453255      71.38967528       0.13931383      -1.43411685       0.22286651
Na       7.50385253       7.62520873      69.21530333      -0.43173851      -0.01254990      -1.21671378
Na      10.53373681      10.62191688      66.13101239       1.57666230      -0.37860402       1.39138360
S        1.59167256       1.25192794      58.89538187      -0.74342953      -2.57033846      -0.49255496
S        1.61195610       6.23583348      68.02287509       0.65183516       0.89403067      -1.46949169
S        5.92764803       5.62775062      59.12681081       0.45043590      -1.14376106       1.12452378
S        6.72180804       0.83995943      64.45591210      -0.40046709      -0.30935408      -0.08146144
S        4.83430034       2.61567611      60.40341865      -1.03621024      -1.02717774       1.18689359
S        4.68127028       4.48188620      63.90576984      -0.44009298       1.11797511      -0.29405126
S        2.15813077       5.43481853      61.12670556       0.53860564      -0.41184710       0.95900399
S        1.97785018       1.78079089      63.01705762       2.40255485       0.04524727       0.10500101
S       -0.20016535       0.01416846      69.38740179      -1.90630489      -1.13994557      -0.25979861
S        2.76365135       4.84708791      76.99122811      -0.37393120       0.45629895       0.45926029
S        5.82711737       5.03430333      67.17920147      -1.04838081      -0.75081924       0.37112352
S        4.71675675      -1.38919614      75.49243866      -0.79386124      -0.83463781       0.74533704
S        2.83920096       2.25100854      67.20232500      -0.51597983       0.16340982      -0.35454934
S        6.31677337       5.30789353      74.41475725      -0.01151035       0.19603359       0.55816934
S        3.10816046       3.46772979      70.89738202       0.21173754      -0.44719911      -0.94528774
S        3.65758924      -0.05150035      70.21940855      -0.57385381       0.54465472       0.64511835
S        1.17128703       8.45627658      59.12032750       0.02858014       1.04099150      -0.24630293
S        1.28821493      13.34167891      64.55332690       0.36396722       0.71852692       0.20997002
S        5.73391825      13.38310964      59.44228272      -1.67014950       0.48122677       0.70111687
S        4.74498471       8.36457980      65.67141723      -2.26934153      -0.27369628      -0.67150005
S        5.24192776       9.27445355      61.36144168       1.15433678       1.95065126      -1.20056000
S        4.65330480      12.11547757      63.57821494      -0.01366698       1.73923799       0.52835398
S        2.46213651      12.09199624      60.50205873       0.12739864      -0.41013857       0.31734253
S        1.65971385       9.51852308      63.29845305       1.04912854       0.52543086      -0.53187246
S       -1.54435025       7.91364937      69.72477958      -1.27177396       0.25468524      -2.70023423
S        2.81094173      12.93850532      77.74736938       0.40844439      -0.28278281       0.71344071
S        5.09944363      12.23947052      68.29199905       0.56129515       0.79396226       0.12096784
S        4.34482654       9.16836787      75.41457708      -1.30202145      -0.16029697       1.51221729
S        4.66039493       9.26394206      70.49803772      -0.53707567       0.45666186      -0.71864986
S        5.65327417      13.09073356      73.14672498      -1.39390643      -0.47482273       0.81928354
S        1.59632144      10.31625017      68.43714500      -0.47184850       0.46640463       0.83970782
S        1.18531916      10.91110542      73.15813624      -0.06675200       0.61110759       1.08785412
S        8.47208916       1.62166529      59.14065511       1.19116826      -0.60074441      -0.66757369
S        7.92107543       5.98282949      64.58451574       0.03164706       1.62080632       0.91306191
S       12.88874336       5.52736786      58.58447561       0.47795172      -1.77073213       1.53845101
S       13.11750803       0.81214349      64.73786453      -0.12949143      -0.42823222       1.18110820
S       12.16750710       2.11087051      60.94383950      -0.38494662      -0.03272643       0.53318891
S       12.36211686       5.10763816      63.13213787       0.71515870      -0.68724903       1.79054485
S        9.40247806       4.76669498      60.48064936      -0.75757274      -2.19479018       0.03848356
S        9.11653862       2.13004015      63.42082766      -0.30619452      -0.42993875       0.69771559
S        8.39853409       1.40076495      67.90103540       0.90430182       0.22730444       1.10422637
S        9.11184718       7.10008439      76.92239874      -0.94061332      -0.19627362      -0.72580083
S       11.19257931       4.27296056      67.29561565      -0.09755920       1.74460236      -0.62663585
S        7.79017344       2.34413353      77.00453881      -0.83971368      -0.33529583      -0.93685572
S       13.11998658       3.93298790      71.22060332      -1.02818021      -0.46396975       0.23304091
S       10.32566122       6.06202435      73.15944083       0.78205112      -0.59668527      -0.43599370
S        7.25748826       5.95056170      71.09295394       1.24834832      -0.54317640      -0.63610449
S        7.14411051       0.86299887      72.33904454      -1.49754884      -0.98733016       0.37460220
S        8.63447580       8.55900155      59.30218859      -0.72021711      -0.58222167       0.82317027
S        8.33727861      12.67045260      65.47938842       0.93151906       0.67855326      -0.38239746
S       12.56769887      13.05702826      58.53752566      -0.02020401      -0.20934077      -0.79193927
S       12.57151335       8.31772076      66.23964803      -0.95454104      -0.73773748       0.37585179
S       12.08938138       9.41224865      61.50525298      -0.37993521       1.56986221      -1.45432658
S       12.08213980      12.03951993      64.17071818       0.47658167      -1.00594302      -0.67985401
S        9.46375889      12.34663166      61.16909038       1.25119281      -0.78962956       2.00917542
S        9.07753065       9.26289377      63.99169704       1.36099202      -0.02528394      -1.32291019
S        8.95635268       9.76139416      69.40666005       0.42260106       0.27832951       0.13558314
S        7.15170342      12.40583474      77.32503201       0.04217821       0.91576894      -0.93391891
S       11.99768784      11.79949734      68.67413929      -0.05642958       0.29437338       0.57759939
S       12.46572214       9.94653842      75.70530845      -2.36053607      -0.40287773       1.29042410
S       12.78025349       8.62762296      71.13526790      -0.69528869      -1.99328652       0.24829329
S       12.53798987      12.91681416      72.61054940      -0.15462716      -0.15221197       0.52224947
S        8.91489375      13.63011971      70.23261159       0.89305910      -0.99383080       0.76290028
S        8.95053506      10.62288009      73.59736272      -0.08629330      -0.50406668       0.52086416
Sb       0.03360204       0.78532415      78.15555193      -3.69163972      -1.51045013      -0.31080088
Sb       3.35310789       3.55064479      61.99191452      -0.54998898      -0.41650882       1.76874272
Sb       0.44182166      14.72187434      66.43790466      -2.58185931       1.03986321       2.40390719
Sb       4.15874017       2.10566208      69.25156835       0.39617860      -1.03891283       1.94405819
Sb       0.00389720       6.84232441      57.81242532      -0.02259603      -0.14979946      -0.71857554
Sb       3.45566558      10.65847524      62.12306029      -0.35138045       1.88338984       3.87138688
Sb      -0.95714434       6.56291965      67.83465384       3.61141976      -1.64518062       0.06360270
Sb       3.39245458      11.30388586      69.81349089       1.28571738      -0.30406436      -0.40839786
Sb       7.20201080      14.43172808      57.93658260      -0.57268873      -4.19359386      -0.79285818
Sb      10.69596521       3.62629889      62.14368913      -1.48759691       1.49883520       0.28682766
Sb       7.03289570      -0.16965836      66.53488902      -3.56518418      -0.58300697       0.02980081
Sb       9.07868858       4.35986863      71.67466253       0.02569505       2.06759188      -1.18220319
Sb       6.99791740       7.48610457      57.93753270      -0.25120908       1.30299614      -2.18944731
Sb      10.45780080      10.78257930      62.67769860       1.44251242      -1.28559668       4.23686933
Sb       6.68737738       7.23500068      66.33953353      -1.83360769       0.92193814      -1.46487229
Sb      10.33973802      11.56505452      70.56492969      -1.07324243       0.38732848      -4.05930107
Na      15.51233717      15.81878132      27.09918386      -0.26810634       0.38669928      -0.10012439
Na       3.83401963      29.59470919      33.14739938      -0.20039236      -0.88739329      -0.55329325
Na       2.77551039      13.82743884      30.03642765      -0.26175665      -1.16124111      -1.49930739
Na      -1.77309380      19.05715275      31.88100660      -0.15134575       0.12583068      -0.80905219
Na      14.08981461      27.97024287      28.87683854      -0.86610800       0.07899221      -0.20620815
Na       3.37295701      15.62173628      27.20859579       0.95433428       0.33160078       0.11449550
Na       0.51225999      18.17387522      34.18087014       0.35602280      -0.66132804      -0.32034531
Na       2.93457136      14.72755306      40.15544646      -0.37080760       0.42023449      -0.73455430
Na       3.06348150      14.36569161      36.08258985       0.12607166      -1.20413673      -0.72568683
Na      -0.22463163      17.71480875      38.67844237      -0.45190163       1.80852867      -1.38448551
Na      -0.66751225      14.52278929      37.24013201      -0.31275350      -0.31062148      -0.23116112
Na       3.89171655      19.67429412      33.35181586      -0.85117684      -0.34018294      -0.14697589
Na      14.27663196      22.80807161      27.99348182      -0.44705191      -0.23880413      -0.88687275
Na       3.56667713      22.86991892      32.09992626      -0.87071188       0.35429201       0.72789981
Na       3.55492763      22.29684541      28.37799388      -0.38519564      -0.89982720      -0.03060303
Na      14.49968470      25.04997175      31.27842405       0.57921363      -0.17311770       0.33204294
Na      17.95140187      21.64053529      31.06821635      -0.46571482      -0.60188609       0.76600191
Na       4.77759321      23.17010565      25.54092860      -1.11723742       0.32028613      -0.66392964
Na      14.15783581      24.70082749      34.42926880       1.12698310      -0.08374413      -0.31581321
Na       3.22615587      21.83801495      39.84175361      -0.14653535      -0.24585105      -0.33256114
Na       4.43587388      21.68261383      36.27833193      -0.72575846      -1.07960469      -1.49497697
Na      14.49156418      25.61715904      38.20657229      -0.53777995      -0.64073383      -0.66190682
Na      14.49079806      22.06376715      37.37330346       0.02706910       0.35412192       0.70804842
Na       3.31574380      25.97392609      33.44041706       0.02169967       0.29957507      -0.68343359
Na       8.16798415      18.43355683      28.17386438      -0.84161453      -0.18381082       1.07150003
Na      10.80968791      28.67314862      31.69166549      -1.81775140      -1.04929984      -0.35337326
Na      11.54759832      15.39104767      30.70114128       0.59926689       1.23639716      -0.40558769
Na       6.50893150      19.43075142      31.62210952      -0.49343844      -1.03332916      -0.66668835
Na       6.24294086      27.72309870      29.33628494      -0.78128884       0.10380594      -0.32463913
Na      10.58011385      18.29785258      41.86938184       0.03800036       1.39607566      -0.03822112
Na       7.57527299      17.85805071      34.81826514       1.09433869       0.38902566       0.11506573
Na      10.29689448      14.72905756      41.13232169       0.57127658      -0.83904129      -0.22570669
Na       9.93867984      29.26191626      35.66675919       0.08073776      -0.02603454      -1.15068003
Na       7.15623112      17.70929409      38.53560211      -1.68919357       0.82135057      -0.00801871
Na       7.52843579      28.22955875      37.20213846      -0.35371523       0.44416956       0.22909659
Na      11.73355636      19.15325410      34.72372142       0.49513252      -0.82304006       0.49273058
Na       7.71178496      23.46927532      27.26306001      -0.72040811      -1.09855561       0.74505780
Na      10.46948262      24.42434644      34.43195804       0.80515635      -1.00307683      -0.03705138
Na      11.25199985      20.01358818      31.65191222      -0.06003008      -0.92722469       0.38787253
Na       8.69127503      25.63661465      30.78810009      -0.65310288       0.07326444       0.82400283
Na       7.85817257      22.16343367      30.41373439       0.02869013      -0.75327513       0.19551554
Na      12.09304919      27.29189285      25.99002435      -0.23486763      -1.21312847       0.82448798
Na       7.30343288      25.38157280      34.40751334      -1.19030370       1.07369437      -0.18446550
Na      10.59424923      22.24410699      41.46904550      -0.34642214      -0.88804786       0.34944276
Na      10.89414766      21.88004798      37.81870411       0.78134644       1.15158599      -0.39984419
Na       7.18290808      24.79122349      38.61085131       2.64167330      -0.06348435      -0.68517686
Na       7.19309462      20.68383816      37.26061389       0.85914883      -0.57893246      -1.50723237
Na      11.08549338      26.08024909      29.43495978       0.78440716      -0.09419704       0.35606157
S        1.47638420      15.88340282      28.62206224      -2.04493308      -1.22941514      -0.22065948
S        1.18112892      19.05060504      31.56111402       0.70643516      -0.08764217       0.83170020
S        5.41659670      18.39531730      23.21567647      -1.43340931       0.90263435      -0.09708038
S        7.13034724      16.48724916      32.37386784       0.16075742       2.27375235      -1.48430117
S        5.37086519      17.98796519      27.97465479       1.37225857      -0.33854896      -1.63249864
S        4.38423512      20.77004497      30.53430654       0.47860919       1.05397657       0.18426819
S        3.05323205      21.08211010      25.98783507       0.55975565       0.66436533      -0.49204126
S        4.03244348      17.29928374      31.56343269       0.70797598      -1.67498933      -1.48493505
S        1.49356984      15.74504074      34.50536478       0.95832923       1.28208505       0.30841476
S        1.29665004      19.49269787      40.44618863      -0.25984786      -0.65695147      -0.07980755
S        6.29877467      20.56966511      34.58063860       0.85295326      -0.03916056      -0.80836441
S        5.60879772      16.09533691      40.12792479      -1.52153725       0.55167334      -1.48716647
S        5.01676860      16.54777339      36.02517135       1.35150053      -0.34192018      -0.21305543
S        4.74398322      19.67560506      38.43115333       0.34052405       0.79764066      -2.04726643
S        2.41283019      19.57629509      35.55380097      -0.39571920      -0.22397482       0.13036593
S        2.21592711      16.73690461      38.53490117      -0.47349635      -1.36327099      -0.87389157
S        1.01950553      26.79831590      20.49755037      -0.82754839      -1.43916680       0.26559893
S        2.06203093      27.89663581      31.47226069      -1.11365971       0.03070974       2.49467996
S        5.18619373      27.69702745      21.07676093       0.49019953      -1.66508003      -0.43986320
S        8.67217069      23.60531789      32.63091304       1.15424749       1.51835200       0.24161619
S        5.29883206      24.48362125      27.80711207      -0.95897919       1.71461808      -1.32146750
S        5.17192865      25.42206544      31.24822077       0.34326664      -1.57678093      -0.47594025
S        2.29142419      26.65178500      25.10373136      -0.75798061      -0.46180759       0.69575587
S        1.94547942      24.27071784      29.38691027      -0.66087327      -0.57873628      -0.36051733
S        1.10399672      23.41597283      33.48996822      -1.84873173      -2.14101106       0.58306561
S        0.98607255      26.86228327      40.41273649       0.67049857       0.08233826       0.14506281
S        6.41878791      28.40420500      34.71321293       1.18732206       0.52719766       0.11146027
S        5.38277556      23.36398318      40.37712222      -0.09950758       0.59018153       0.90365595
S        4.59389896      24.32233881      35.30180014       1.16378512       0.47151100       0.27620701
S        4.66975423      26.48467336      38.59913369      -0.16925039      -0.37140865      -0.85923622
S        1.94245342      26.81958419      35.87257958      -0.65611630      -0.71638755       0.96894582
S        2.10055318      23.58474240      38.15346952       0.10369974      -0.27804443       1.55505221
S        8.10388923      15.08527958      24.47993368       1.48333212      -0.86305128      -0.41674909
S        8.93247043      19.88419734      30.29626810      -0.28711111      -1.66171132       0.47149680
S       14.86296942      20.02468810      26.67551959       0.93663573       0.24505542       0.58033554
S       11.83605289      17.29987174      32.63247981      -0.93209144      -0.08961755       1.30392535
S       12.92190691      16.82765141      25.27264649       1.08092216       0.86249699      -1.84228362
S       13.66122208      16.35841131      29.16737387      -0.99814770       1.14505437      -0.10292734
S        8.42856698      20.21741185      26.03312828      -0.07705526       1.19470716      -0.08423836
S       10.23853493      16.28755555      28.08025275       0.07578833      -0.80439104       1.14490127
S        8.67026820      15.39059870      35.46823197       0.47875259      -1.68295166      -0.63948887
S        8.26541420      20.59722119      39.92600310       0.89439624      -0.42237075       0.99101662
S       12.45891236      21.69457646      33.75118669      -0.49591245      -0.67470325       0.47901044
S       12.96850942      15.47819648      40.35865082       1.55598863      -1.49912573      -1.52452412
S       12.14637151      16.65298149      36.64696685       0.94521130       0.35660539       0.52297250
S       12.06006287      19.54743858      39.01939628       0.68100788       0.25918750      -0.87344404
S        9.23829215      19.25037620      36.45122006       1.72152711      -0.65169247       0.51168586
S        9.48373404      16.90506296      39.56072438       0.65233506      -0.60490065       0.07608444
S        6.52963539      24.47976807      23.55518300      -2.11280316       0.52046085      -0.83333606
S        9.07542557      28.05885658      29.54487159      -0.42048537       0.29210836      -1.11700680
S       14.26462134      30.08485203      21.31543240       0.64552529      -0.55929221      -0.55073146
S       13.25288420      21.42368195      30.08601512      -1.67331536       0.70558511       0.82019894
S       12.33351469      22.17438752      26.00744035      -1.18687721      -0.71643729      -0.52904184
S       13.15297430      25.39672729      27.59625518       1.48292502      -0.36159142       0.55864726
S        9.59551436      27.39754994      24.58167021       0.40151408       0.50242657       1.06248902
S       10.06823802      23.60900332      28.69037852       0.38618263       0.06868326      -1.80785952
S        8.56308239      22.77582008      36.10366687       1.32821721       0.51144811       0.13114284
S        8.08811356      27.07866373      40.00213521       0.18453254       0.99330275      -1.13369564
S       12.05491950      25.88696540      32.20314647       0.22547664      -0.41167654      -1.98443963
S       13.23900475      22.69827108      40.09363798       1.39626549      -1.54757031       0.73833462
S       12.44001060      24.05535886      36.53993460      -0.61607662       1.23299311       0.31742255
S       12.24779011      27.51359442      38.42744866      -0.23640800      -0.85723374       1.47159437
S        9.46986219      26.58158023      36.13603389       0.58101064      -0.42054505       0.06093093
S        9.99538023      24.33663983      39.38182781      -0.01384573      -0.16012200       1.72349456
Sb      -0.53022486      14.21329137      41.19773015       1.94892162       0.02009071      -0.50865791
Sb       3.02678571      18.70411786      29.96257105      -1.51898201      -0.50762757      -2.37557774
Sb       0.06383953      29.01941171      32.46325590      -1.50137275       0.62409236      -0.94605176
Sb       3.54100760      18.11305671      37.02189481      -2.21499878       0.65741363      -2.16040020
Sb       4.36776552      23.29916225      22.49518229      -1.51120449       0.20619448      -2.42790231
Sb       3.81471011      25.75134042      29.32501695       0.27512141       2.63039997       1.31555098
Sb      -0.45772869      22.11448471      32.15252374      -5.52869902      -0.14742701       0.07566815
Sb       3.37948908      25.27281635      37.00004577      -0.05098518       1.55778609       2.09966260
Sb       7.22175454      29.60094260      21.39077430      -0.23118801      -1.38162473       2.54001083
Sb      12.19206915      17.66902909      27.62555650      -2.09696997       1.15357856       0.18289622
Sb       7.62590650      14.38949234      33.54571611       0.93127672       1.32278802       2.71996858
Sb      10.71754452      18.05885897      37.92012259      -1.00058399       3.19908703       2.53071180
Sb       7.47641669      22.22488334      24.64412780       1.89059256       2.54162772      -3.67318410
Sb      11.23051931      24.19683500      26.62571506      -2.04310533      -1.52267237      -1.43776317
Sb       8.61339049      21.59038729      34.10988437       1.71085599       1.61973317       3.15379336
Sb      11.02019733      25.65520354      37.70562374      -4.89505090      -1.31050677      -3.98176470
Na      14.22030265      17.56360882      42.23122067      -0.94826288       0.20655302       0.14433017
Na       3.25234444      28.85603642      48.04386126       0.22933448       0.20735023       0.76843564
Na       3.78090301      14.11731369      44.09609734      -0.01555461      -1.03713192       0.11649291
Na      -0.28821535      17.88506914      46.45205631      -1.70006942      -1.89498036      -0.60605741
Na      14.09161426      28.26288647      44.95173120      -0.76869091       1.45144431       0.09290358
Na       3.92083516      18.41043071      41.15196779       0.32762958       0.84112535       0.32205822
Na      -0.07409611      17.96245098      50.23083535       0.95661240      -0.62559063       1.11352774
Na       3.47223027      14.32666295      56.60149434       0.17160933      -1.07955871      -0.98572266
Na       3.35280143      14.52141462      52.13030268       0.16923817      -0.32782132      -0.19348684
Na      -0.24676760      18.01816727      53.95434217       0.67938776      -0.16136288      -0.07977105
Na      -0.59576021      14.31262651      53.02573590      -1.72126078       0.14256082       0.88432624
Na       2.78120283      17.53282276      48.82155030       0.36624167      -0.51560001       0.38701080
Na      14.38941920      24.99059303      41.96404569      -0.80865117       0.57565415      -1.60080774
Na       3.57356575      21.34484766      48.05041226      -2.02840996       0.53477136       0.28792791
Na       3.51277606      21.79979808      44.09169625       0.63914851      -1.26954523      -0.91292685
Na      13.98382976      24.61861730      46.06949784       0.17599635      -0.63177105       0.52279661
Na      13.85485525      20.75543736      45.55179177       0.93066519      -1.04738194      -0.38780346
Na       3.26090473      25.21626190      41.53996508       1.05952224       0.71286041      -0.52840634
Na      14.33749024      24.89942659      49.64465337       1.00374068      -0.48126630       1.43996486
Na       3.84919035      21.66164597      55.65595000       0.68883847       0.15454587       0.94535551
Na       3.42887996      21.76624529      51.64982207      -0.30751114       0.17213339      -0.95052288
Na      14.36015197      24.94642065      56.64680461      -0.07677249       2.15731441       0.05686262
Na      14.57603362      21.84663244      53.30304249      -0.54641762      -0.11210879      -0.14241943
Na       3.76117400      25.51146724      49.55139653       0.23327160       1.87739216      -0.13431056
Na       7.17184697      18.09510916      42.31254103       0.74725016      -0.03868827       0.03798951
Na      10.41006839      28.44033873      47.69313093       0.04774134       0.53803830       0.03421094
Na      10.76202781      14.20166995      44.40596447      -0.34825001      -0.10585109       1.00007010
Na       6.84436804      17.65137591      46.22382417       0.20358877      -1.74760076      -0.88182093
Na       6.58628902      28.76165195      46.14571984      -1.20416285       0.74678588       1.33056352
Na      11.30671845      17.65156229      57.68973775      -0.07862395       0.38851011       0.28518251
Na       6.69896210      17.61036671      49.97385799       1.50529976       0.07135731      -0.03693545
Na      10.56074278      14.48735211      56.24755074       0.43081839       0.76967064       0.73828277
Na      10.73205648      28.33204593      51.58125308       1.07768858      -1.40531229       0.01664446
Na       7.16285066      18.03277794      54.00046377       0.00577021       1.60522961      -0.22769762
Na       6.57176040      29.02331000      53.55953239       0.49725243      -0.24043602      -0.66124765
Na      10.94156549      17.92854078      49.81206055       1.09739568      -0.48492724       0.95854484
Na       6.79791175      25.29261924      42.62219808       0.77565101       0.71909008       0.30979648
Na      10.52041491      21.45368056      48.59680436      -0.23981194       0.60546010       0.77728565
Na      10.31666366      21.55127914      45.02892104      -0.11970230       1.37087734      -0.17480516
Na       7.00427450      25.04430296      46.47546380      -0.10815905      -1.21885864       1.22980406
Na       6.78039859      21.36987256      45.20186350      -0.26571794      -0.69009213       0.37802849
Na      10.14143566      25.73572070      41.70260304      -0.70468595       0.40111235      -0.15277934
Na       7.03989796      25.15082350      51.17348635      -1.10125959      -0.05470311       0.65114947
Na      10.80308576      21.07980828      56.63186567       0.26887714       0.34853453       0.39119794
Na      10.96491241      21.24166504      52.56274003       0.66324782       1.03678972       0.07646331
Na       6.90040500      25.11685270      54.41657385       0.99182277      -0.68893779      -1.08170812
Na       7.15294648      21.21558935      53.11386880       1.67220199      -1.04799055      -1.26912987
Na      10.48437643      25.08202182      49.18780269      -0.49041175      -1.19765566      -0.49060836
S        0.94267365      15.29448563      42.70181830       0.71585120      -0.27606599       0.69393133
S        1.08163909      19.93189056      48.09876940      -0.22552368      -0.90346377       0.86499805
S        5.34433705      20.20900259      42.69264611      -0.06343166       1.04522704      -0.86495402
S        6.00542163      15.41684189      47.79964618      -0.25478675       1.43298097       0.78065525
S        4.88586054      16.82059069      44.02102643      -0.68383201      -0.09723791      -0.61941655
S        4.51577907      18.99500643      46.88249196      -0.73969835       0.22554584       1.20001160
S        1.71521671      19.42483852      44.42246104       0.06428186       0.37419275       0.88441542
S        1.94234468      16.15229503      46.46515091       1.05050859      -1.05375722       0.98439033
S        1.34169216      15.64344566      50.37655915      -0.58159264       0.15900514      -0.78573760
S        1.31902612      20.20315928      55.80455684      -0.60959967       0.79201679       0.65845841
S        5.67482279      20.20716531      50.67067480      -0.02369586      -0.03954176       0.57062234
S        6.06179196      15.81157367      56.33178989       0.71936448      -1.34954019      -0.38785206
S        5.10774639      16.57261841      52.13431017       0.12426672       0.00686017       2.10671231
S        4.99100348      19.20218510      54.77179616      -0.04876827       1.12367087      -0.80724518
S        2.09953350      19.22491264      52.00778250      -0.12560863      -0.00258445      -2.65263618
S        2.57416316      16.26301239      54.73963765      -0.17339371       0.92134460       1.19934734
S        1.48980220      22.80962922      42.34218070       1.49153191       1.06785168      -0.58660065
S        1.03036962      26.97000342      48.39784915      -0.64870764      -0.36304899      -1.12305729
S        5.23143597      27.84742282      42.62693586      -0.92063596      -1.19712030       0.80272571
S        5.47341645      23.48040991      48.39134267      -1.46709047      -0.95216486      -0.01037401
S        5.15384613      23.90081758      44.28440153      -0.21025312       0.10781809      -0.17092179
S        4.69303416      26.54309516      46.97813357      -0.54125415       0.82591427       0.27141143
S        1.96497806      26.28393686      44.19766091      -0.61982596       0.51060015      -0.08051678
S        2.25883235      23.45607661      46.76498069       1.60157352       1.30169804       0.20716096
S        0.85492474      22.66437179      51.13110310      -0.16029932       0.73976614      -1.25737266
S        0.91513737      27.42744811      55.93077939      -0.19716543       0.44650412       0.43784213
S        5.24949777      27.43152038      51.25710195      -1.14938292      -1.50660365       0.48570821
S        5.57835694      23.17683953      56.97140278      -1.91160215       0.95660935      -0.51698357
S        5.12909970      23.75846666      52.73189995      -1.66855683       1.08644129      -0.11001321
S        4.69195523      26.60002317      55.03668981       0.25512786      -0.21932924       1.61125199
S        1.89302701      26.25342713      52.21168430       0.02524529       1.77710701      -0.36971343
S        2.09035110      23.47432809      54.81430318      -0.80649841       0.75772144      -0.01806357
S        8.02021665      15.40011833      43.02089508       1.37333935      -0.29438140      -2.42795585
S        7.86621819      20.42681288      47.60304128       0.69624812      -0.00754697      -0.56966520
S       12.59943338      20.08175846      42.95129007      -0.26863905       1.22417792       0.89834269
S       12.61214785      15.76291907      48.28232680      -2.22884499       1.07664279       1.93371673
S       11.95568455      16.51019863      44.11597510      -1.50960826      -2.45989095      -1.12842690
S       11.73308294      19.43368330      46.84523874      -0.63636771      -0.67682466       1.04959358
S        9.24116450      19.20324564      44.12269391      -0.17150066       0.15524602      -0.10702976
S        9.11588254      16.31687836      46.70801825       0.15091232       0.50235261      -0.38888827
S        8.34882390      15.72106438      50.72728187       0.37998769       0.20359949      -0.41674520
S        8.24678356      20.48622559      55.74749925      -1.75813758      -0.04648227      -0.41346649
S       12.62877320      19.99102266      50.57355220       0.23851077       0.36408440      -0.06381854
S       12.98958924      15.93083796      55.95643097       0.36809964      -0.32225130       0.97409866
S       12.02409560      16.33070136      52.00420273       1.14942481      -0.67112775       0.05812199
S       11.95669423      19.11402570      54.69084340      -0.74480893       0.22244052       0.24945508
S        9.31393105      18.98285940      52.09461314      -0.63916585       0.59776301      -0.69633199
S        9.28135068      16.24706386      54.62360919       0.50877203       0.59770651      -0.32902921
S        8.30284997      22.65161961      42.86339823      -0.74182290      -0.15608808      -0.49453208
S        8.01778658      27.28967826      48.57769175      -0.43007095       0.23211370      -0.39960675
S       12.83521284      27.37530320      42.50217768      -1.06123243       0.69723962       0.11395084
S       12.87866623      22.80045686      47.97843422      -0.36770282       0.70874216      -0.65140574
S       11.78771725      24.01208543      43.90377513       1.00252094      -0.91911877      -1.08038076
S       11.95572475      26.50038746      46.71581818       1.36715497       1.08126457      -0.03623713
S        8.67336217      26.59109236      44.40477701       0.96336876      -0.77349685       0.09999944
S        9.37762509      23.73658727      46.74605922      -0.90683054      -0.56772453      -0.24766088
S        8.70739068      22.80222252      50.64740643      -0.60796391      -1.71113592       0.04240582
S        8.52110919      27.24906904      56.57616120      -0.43656985       1.35392298      -0.07972946
S       12.75246876      26.96633684      50.43764423      -0.26114744      -0.62841159      -0.39454734
S       13.19799087      22.67195521      55.77529624      -0.27916970       2.07909413       0.11864461
S       11.96834816      23.88369860      51.84384518       0.49420586      -0.10834886      -1.45651015
S       12.09069205      26.65420093      54.59852374       0.61361227      -1.16981293       0.14904804
S        8.93345599      26.59077884      52.49831713       0.73582658       0.48787778       0.54459088
S        9.53197569      23.55701323      54.75949922      -1.45213938       0.93517993      -0.73025672
Sb      -0.01414165      14.27384222      57.58594849      -0.12610745      -0.43118697      -0.34115625
Sb       3.22425308      17.80888330      45.44150319      -1.09018829       0.02110760       0.31308706
Sb      -0.16769552      28.62664587      49.62032741      -0.39174698       2.14547394      -2.91744266
Sb       3.55673123      17.94063926      53.32708408      -1.33517017       0.78250248       1.05947962
Sb      -0.04407334      21.28924375      41.35723672       0.80124390       1.63765488       3.32753060
Sb       3.46671000      25.05386141      45.59479679      -0.91685889       0.83211058      -1.54051162
Sb      -0.16329483      21.41108021      49.43443287      -0.75651812      -2.24497561      -0.35282013
Sb       3.43966315      25.07140360      53.66135045       0.07453493      -1.17158850       0.28709239
Sb       6.81545884      28.72410403      41.13834215      -0.93480273      -0.62790473       0.17524834
Sb      10.53404704      17.84542259      45.49992975      -0.14489694       0.48884546      -1.96291132
Sb       7.00561843      14.19406575      49.57369454       0.34921659       0.14887018       2.40536733
Sb      10.67043911      17.66729622      53.40655125       2.49680071      -0.50226374      -1.19996696
Sb       6.72370159      21.70279950      41.37693039      -3.17412054       1.33506479       1.08170007
Sb      10.44234070      25.27083464      45.39181345      -2.08558541       3.07730772      -1.34323611
Sb       6.92029587      21.78175239      49.29203015       1.95285778       0.43183735      -1.00211623
Sb      10.60213246      25.10788427      53.44911040       1.28262464       2.00167290       0.73052575
Na      14.73100363      17.84878845      56.92359159       0.35529499       0.22763793      -0.07377674
Na       4.21944638      30.17530127      64.61053246       0.07874538       0.27401869      -0.68248201
Na       3.34321570      14.80414956      60.37830961       0.49738629      -1.05151193      -0.42333565
Na       0.20814776      18.06825782      60.91133112       0.27750740       1.32412853       0.59667828
Na      14.94815186      29.34614419      62.45876870      -0.25821857      -0.68685889      -0.72338973
Na       3.78747323      17.68753443      57.33366750      -0.37027414      -1.35576034       0.67337656
Na       0.65827260      18.02852440      64.77423255       0.30861744       0.81377265      -0.68595831
Na       2.97469655      13.50015658      72.74285590      -0.31687152      -1.24603889       0.29446341
Na       3.92340987      14.99089843      68.16272246      -0.35899327      -1.48133543      -0.66940878
Na       0.88997115      17.77158905      68.49874509      -0.36428850      -0.74943762      -0.00867893
Na      -0.42662345      12.14976134      68.88514431       0.99670498      -0.53818722       0.00730035
Na       4.03671021      18.18066587      65.17400296      -1.01276949      -0.67224833       0.23334121
Na      14.58632444      25.50021564      60.41836177      -0.46669957      -1.09601603       0.33357078
Na       4.62571534      21.42851631      64.11388768      -0.84184940       0.38656965      -0.73133015
Na       3.96087431      22.10148769      59.33742403       0.29088684      -0.11469474      -0.36183375
Na      15.09459354      25.99614667      63.91243684      -0.08588957       0.04271091      -0.60995591
Na      15.74221415      21.85200592      63.42912936      -0.90871020       0.73955394      -1.37286854
Na       4.24757566      25.50264816      57.54801458      -1.07739883       1.36155048      -0.97377320
Na      11.43779831      24.40013932      65.41506315       0.73109842       0.21761804       0.25618489
Na       0.85365500      21.09335022      73.88116907       0.00199804      -0.06935296      -0.57053136
Na       1.56305512      23.69779715      68.70848991       0.54501610       0.30271314       0.42278648
Na      13.18799883      27.20267058      69.75942356       0.67090882      -2.12714962      -0.35814954
Na      18.07611419      26.62083449      68.26045946      -0.69010688       0.85217783      -0.15512209
Na       0.66276972      25.26281621      64.95299092       1.56381936      -1.18812853      -0.95364638
Na       7.55049736      18.11269313      57.40183218      -0.73755704      -0.12275691      -0.52419751
Na      10.12670781      28.28716335      63.22030895      -0.59273948       0.74473737      -0.92218842
Na      10.72349399      14.62185807      60.24853352       0.48259651      -0.76812075      -0.33887166
Na       7.54727172      17.47825330      61.05703585       0.32491944      -0.13125180       1.34119670
Na       7.18110519      28.58997261      61.80666475      -0.42084924       0.03032266       1.02824197
Na      14.78516186      14.00856507      70.48603244      -0.42470513       0.91744046       0.79878471
Na       7.46713426      18.39893873      64.93592471      -0.56882682      -2.39005946       1.31136017
Na       8.29773258      13.25740687      73.06601662      -0.50453249       0.65484858      -0.23618064
Na      11.03645780      31.22156371      69.58325462      -0.99097358      -0.62677601      -0.15357076
Na       7.73323131      17.85117471      68.27942321      -0.51796391      -0.46471741      -0.20719997
Na      11.47552609      27.66555709      66.11900993      -0.60676923       1.02463572       0.82261129
Na      11.43082036      17.69449874      64.92546827       0.98588076      -0.98610448       1.49562676
Na       7.27463239      25.42759478      59.21680025      -0.00790278      -0.73847784      -0.45986310
Na      11.36060068      21.27571060      64.68898751      -0.80151034      -0.99506548      -1.31703772
Na      11.39456238      21.45369766      60.42539385       0.52011153       1.69363247      -0.46709757
Na       7.53007793      25.21512782      63.43164700       0.10429051       1.44666095      -0.21691079
Na       8.04604150      21.52591186      61.06014091       0.21354786       0.48427845      -0.45165836
Na      10.65194570      25.17519971      57.28221625       0.48530941       0.19865216       0.18883853
Na       4.35597933      24.85050905      65.36785153       0.92199204      -0.75917064       0.44548912
Na      16.32497535      21.97719166      69.67921694       1.91847628       0.17008671      -0.69998345
Na      10.76704454      20.58014144      68.30663583       0.21625649       0.80828936      -0.12911533
Na       9.00529480      24.27527080      70.37257804       0.24735433       1.57055777      -0.12218349
Na       3.56563343      20.56645435      68.03672905       0.46226018       0.30793067       0.00478033
Na       7.93961315      24.99190271      67.23751844      -0.55473275       0.98581294       0.82155288
S        1.11587553      15.91334135      58.94683877      -1.42474882      -1.15993733      -0.30362994
S        2.44852906      20.26002329      65.46865569       0.91641491       0.60284469      -0.08138506
S        6.29199282      20.13358374      58.88875110      -0.70398562      -1.22981715      -0.75742916
S        6.26239884      15.85225906      64.48600715      -0.22110356       0.60783843       0.32173857
S        5.03311704      17.20392662      59.72354291       0.52308098      -1.06879242      -0.39188288
S        5.86094839      19.31029267      62.86207609      -0.57295331      -1.20357975       0.73488330
S        2.58341930      20.07153137      60.76058731       0.10936612      -0.16602858       0.87968426
S        2.62282949      16.89486523      62.50672650       1.24630056      -1.21789640       0.84721619
S        2.28580514      16.25458262      66.62183712      -0.43545117       0.10246289      -0.13577122
S        2.67072084      19.53748625      75.21705296      -0.27812219      -1.03877083      -1.04963937
S        6.08583845      19.50255507      67.12747856      -0.23022079       1.35981453      -0.03910547
S        5.75459849      16.27241420      76.30897780      -0.60549732      -0.32217106       0.33693885
S        5.87903434      16.44070969      70.16805804       1.20265810      -0.57337000      -0.43510722
S        6.30103447      19.05514882      72.93138967      -1.46239857       1.57262203       0.92279814
S        2.68616347      18.54853593      70.29107591       0.09021324      -0.59341345       0.75907893
S        2.53461571      14.85446223      70.48929246       1.35449056      -1.04885175      -0.13344931
S        1.28482448      22.93300855      58.63354748      -0.83460010       0.99726571      -1.14381754
S        2.14297080      25.71282520      67.24641022      -0.29763392       0.29399507       0.73943548
S        5.74744194      27.61335733      59.12285583       0.07821503      -0.73996040      -0.42567601
S        6.33407564      23.15369616      65.51274047       1.29725371       0.18083272      -0.01594658
S        5.87356982      23.60888599      61.06764103       0.04191161      -0.51609437       0.43656141
S        5.14522939      26.64233044      63.29760281       0.63436631      -0.90250424       1.41270440
S        2.85748430      25.89440452      60.15416285       1.01366220       0.75778406       0.00588910
S        2.45598788      23.87361750      63.21466828      -1.51178182       0.26849212       0.22388468
S        0.92564316      22.87834294      71.15339076       0.66615179       0.48868622       1.17179377
S        0.94206221      27.09281295      77.51704889       1.37814623       0.07397305       0.98715686
S        7.04263638      26.23325260      69.61217488      -0.49832368       0.93544315      -2.07934120
S        6.02678961      22.88629502      76.05456449       0.55081815       1.64840810       0.67100200
S        4.32238109      22.65789419      69.77128265      -0.45768912      -0.83035835      -0.14608534
S        8.31863138      22.70921817      72.36262662      -0.21243231       0.81760669       1.40625660
S        3.35294104      25.24343328      72.55837021      -2.03662275      -0.17492247       1.43778883
S        0.78188007      23.18442720      75.54111940      -0.05513998      -0.44947455       0.24620080
S        8.94889553      15.87834355      58.66732613       0.46883037       1.41761243      -0.75351514
S        9.10647914      20.34700533      65.70492944       1.90293404      -0.10959242       0.95864981
S       13.30393280      19.83670651      58.44953068       0.63943296       1.30933059       0.57970307
S       12.72894306      15.54184539      66.10706036       0.29208299      -2.91329489       0.87924690
S       12.60814407      16.75718605      59.84190800      -0.54681257      -0.86919849       0.16418320
S       12.37347597      19.49669080      62.60973208       1.84428863       1.02805229      -0.57421105
S        9.58933343      19.17525549      59.95758885      -0.19690587      -0.92259883      -0.37927324
S        9.88546072      16.43123290      62.60852540       0.49479050       1.98040110       0.53849663
S        9.30683370      16.20087778      66.78732588       1.04307703       1.33212580      -0.74537270
S        9.07990724      16.13672679      78.39662408      -1.92157353      -0.84457913      -0.83089711
S       12.77420805      19.35201392      66.58454480       0.28180549       1.02361766       0.27545443
S       13.55059428      16.34142795      75.53769508      -1.17338789       0.27996867      -1.03591044
S       12.98597676      16.76009931      70.68885990       1.44087959      -2.51969441       0.96209790
S       13.06832660      20.59283870      70.69771000      -0.99630529      -0.84330047      -1.10346347
S        9.88255489      18.71462559      70.24173997      -1.41266205       0.56826528      -0.27999320
S        9.29083070      15.89337845      73.81486719      -0.08811031      -0.51660517       2.41225059
S        9.21390164      22.81834111      58.74639976      -1.47809216       0.82292999       0.16026331
S        8.98980596      27.18261342      65.74525708      -0.34992900      -1.71449815      -0.01561463
S       13.02920684      26.92233810      58.68555274       0.12054762       0.85424178       0.01218217
S       13.76659637      22.78139536      65.41398613      -1.23711465       0.77945670      -0.38194606
S       12.41284735      23.93951929      60.35729777      -0.72734802       0.14282792       1.43186879
S       12.04964396      26.35349290      63.56085571      -1.14332701       1.73089279       0.59189904
S        9.16674742      26.60133666      61.19690459      -0.93339304       0.43022641      -1.94021563
S        9.71902186      23.22356326      63.11154506      -0.47185642      -0.40099912      -0.50027963
S       10.49833664      23.41072825      68.04581899      -0.81917811      -0.64781542       0.15361273
S        9.59811227      26.68401086      74.98376612      -1.20052206      -0.77230880      -0.79785775
S       12.19069296      29.07754393      68.19842887      -1.27250665       0.08163348       2.03328713
S       12.76323259      23.67708616      74.07163701      -1.71216493      -0.48895523       0.84280814
S       14.25406334      24.80089502      69.44554704       0.85103032       1.42127451       0.63726987
S       13.65500411      28.06371023      72.63341905      -0.25407020       0.59009593       0.93669546
S       11.01384792      26.06289278      70.55994552       0.32117218       1.39485786      -1.21953882
S        9.88799739      19.88731319      75.38019563      -0.84456113      -0.71687746      -1.35887936
Sb       1.45860170      14.50816972      75.75936612       1.56416863       0.09081804       0.73593666
Sb       4.00432551      18.42258802      61.58369065      -3.46551595       0.25071346       4.60936534
Sb      -0.28823495      28.60937852      65.84413803       2.53630271       1.81372325      -1.68692348
Sb       3.90054460      16.66181620      71.37739629      -0.09198123      -0.40923484       3.68099891
Sb      -0.05739603      21.41459330      57.38030722      -0.01440672      -0.06472539      -2.09211828
Sb       4.07381976      24.94934339      61.87908929       0.66504288       1.93705439      -0.34666695
Sb       0.72656620      21.48836149      66.63089621       1.24397427      -3.18247524       2.43656009
Sb       3.18530987      22.85512578      71.86498152       1.69287031       1.04512274       1.89411562
Sb       7.20924767      28.80945835      57.70311435       1.61561318      -2.46312602      -2.19771341
Sb      11.10520747      17.95210762      61.33188509       0.00433973       1.38859145       1.50193152
Sb       7.21048377      14.74464615      66.35780126       2.82501642      -0.04064554       0.18805868
Sb      11.88745103      18.63088547      71.64393900      -2.63564976       1.39008784       0.61315344
Sb       7.35389697      21.68136553      57.59556063       1.38399322       1.62196799       2.18951002
Sb      10.91238595      24.91150148      61.88862883       0.00086128       3.47752650       2.26289410
Sb       7.49188572      21.51126032      66.98987456       3.56628914      -1.93384819      -1.60624525
Sb      12.04201010      23.83999373      69.90941755      -1.91568779       0.58507056      -0.58418831
Na      29.62306855       4.62650814      27.28257839      -0.33807856       0.77198074      -1.03381702
Na      17.71874793      13.89090119      32.26568641       1.22871493      -0.45853090      -0.18248661
Na      16.41647427       1.32470439      31.45892096      -0.68293153      -0.09570066      -0.18523617
Na      13.94243411       3.41596456      30.12844059      -0.41294230      -0.02441721      -0.64627490
Na      28.23868781      14.13985550      29.29083440      -0.00424055       1.48424163      -0.11781162
Na      16.74535011       4.73602536      24.78681432       1.29138662       0.12205482       1.61300843
Na      14.11537822       3.87046209      34.27724701       0.14955566      -0.90571724      -1.65836337
Na      17.97708822       0.44516206      41.34513720       0.07591820      -0.91005962       1.06260479
Na      17.59928408      -0.19525189      38.18484162      -0.39645350       0.34254962      -0.30653388
Na      14.41937404       3.61429245      38.86214665       1.11304894      -0.23433167       0.01400438
Na      13.68239502       0.92570535      36.34036087       1.43181472       0.97902419       0.27496972
Na      17.22604633       3.35153410      34.06564110       0.94354521       0.71582474       0.01181072
Na      28.60997645      11.99717555      26.33034563      -0.07937438       0.43598410       1.46577730
Na      17.40861452       7.39486880      32.33267205      -0.60260068       0.36144324       0.11220751
Na      16.67409744       7.86133592      25.94096013      -2.08619793       1.07344794       0.74605317
Na      28.06763254      10.74360222      31.82742375       0.21452805      -1.26847412      -0.76373987
Na      28.65111536       7.86891400      29.33665314       1.07641319      -0.70473250       0.69440936
Na      18.26743325       8.78840985      23.22916028      -1.49064333      -0.29865586      -1.38519432
Na      27.81031960      10.94389481      35.36323992       1.11539816      -0.85315486       0.27923247
Na      18.08419001       6.91347840      39.99171270       0.30482699      -0.46008229      -0.40298809
Na      17.35280266       6.89786256      35.82114905       0.05222240      -0.57273519       0.42055062
Na      27.71284094      10.70583328      39.42808006       0.22581552      -1.03369300      -1.14279143
Na      28.73145649       7.27541969      37.53113687      -0.40384946      -0.17660182      -0.62836395
Na      17.33621263      10.93735261      33.76417852      -0.37221085       0.46762784      -0.41507273
Na      21.40866155       2.89731671      30.36908188      -0.37600260       0.85662040       1.47545838
Na      24.57477397      14.48565464      31.74043837      -0.08471446       0.41889474       0.50536207
Na      25.71596075      -0.55010056      30.70202957      -0.10837598      -0.26981789      -1.56005239
Na      18.14487037       4.37642562      31.19744940      -0.72251420       0.41114247       0.95016175
Na      21.28574784      13.45374267      29.90918223       0.94623509      -0.08507211      -1.51115983
Na      24.60636989       3.37153400      41.55168262       1.13657660       1.71631030       0.13401612
Na      20.59594252       3.13520955      33.86777903      -0.21900984      -0.65417984       1.77529987
Na      24.79011130      -0.18216099      42.53771698      -0.44960924      -1.24714014      -0.53772544
Na      24.40844980      13.82022363      35.08087021       0.19854529      -0.10972406      -0.95149881
Na      21.30078286       3.42267071      38.24368089      -1.02959838      -0.76606661      -0.38103929
Na      21.37860396      13.79162948      38.07329383       1.00206864       0.05289555       0.18814483
Na      24.26874487       3.11513304      34.04827831      -0.50083374       0.48061907       0.93988070
Na      24.85123923       6.87615723      28.04287705      -0.02508942       1.62687676      -0.79874447
Na      24.75597234       5.23996974      31.19135901      -0.42843494       0.26870770      -1.23527196
Na      27.06416861       6.14558991      25.73655000      -0.56651857      -0.38318706       1.19541464
Na      21.78235875       9.03226838      31.30675656      -1.20274961      -0.97906690       1.06088526
Na      21.34874883       5.66306025      28.18103196       0.02489892       0.03445882      -0.02214472
Na      25.32770801      11.03766285      25.38869798       0.25000609       0.17769147       0.23095664
Na      20.58728316      10.81900211      34.51813057      -0.40353595       0.03104304      -0.46860013
Na      24.60679988       6.86168253      38.67132183      -0.92537222      -0.91961938       0.04883437
Na      24.51692230       6.60980174      34.99480025       0.27629621      -0.08201556      -1.18446788
Na      21.32124995      10.40626133      38.36741531      -0.57260048       0.74865860      -0.83424492
Na      20.57160867       6.57191920      36.19630720       0.58095794      -1.51069562       0.56146427
Na      24.75898823       9.91374836      33.38583805      -0.30774687       0.35629357      -0.06528215
S       16.95811699       2.14324626      24.30577511      -0.16087151      -0.61076703       0.35542278
S       15.57412604       5.21733115      31.78393144       1.68572703       0.66129436      -1.03185132
S       17.23496255       5.88056346      21.43657412      -0.15171274      -0.45741067       0.55659054
S       18.85957628       1.85875610      32.03391447       0.54860996       0.21498658      -1.40923754
S       20.19474820       2.78025346      27.81980668      -0.07118685      -1.25065668      -0.17534346
S       18.78049613       5.83943160      29.13430861       1.78210838      -0.74443092      -1.18225766
S       15.29591582       5.81975294      26.69335898       1.40774628       1.30413059      -0.62896966
S       16.32260849       3.00511151      28.93848297       0.05339756      -0.06226155       0.75681164
S       15.32496472       1.34446683      34.21642174       0.65110002       0.93359362       1.08722654
S       15.29562232       5.61608551      40.47646337       0.89526829      -0.09929303      -0.07650491
S       19.39461724       5.85103698      34.06704068      -0.44790774      -0.93439672      -0.33212105
S       20.08456664       1.47767387      39.84162464       0.22651890      -0.04951406      -0.01134458
S       18.87326362       1.93390326      36.34990546       0.37646400       0.76782749       0.59007025
S       19.37901507       5.19539565      38.18609150      -0.21240138      -0.18470232      -0.43326885
S       16.02376026       4.68257471      36.42373472       0.97051880      -0.03624525       0.26353504
S       16.78297405       2.53054934      39.56883125       1.35956235       0.09753007       1.20207564
S       14.16909936       8.91383543      24.70467553      -0.55183432       0.52885869      -0.44048079
S       15.44584395      12.41118453      31.94607027      -0.17618037       0.05462217      -1.36853151
S       19.40698891      10.14059663      21.15140574       1.23289388      -1.04139504      -0.02061943
S       19.31092896       9.66755726      32.22161403      -1.69493436      -1.59885723       0.87833576
S       21.15707364       6.25536717      25.02640518       0.38980060      -0.07505944       0.64249284
S       18.71928036      12.45162468      29.30418519       0.62687126       1.19763643       1.27839996
S       18.35444155       9.97383679      25.83895127      -1.69565794       0.42120718      -0.84346985
S       16.37135525       9.25035338      29.85351999      -0.98003150      -0.67872247       0.84838296
S       15.49216042       8.22821322      34.37259784      -1.38971276       0.73455615       1.00608105
S       15.34197309      12.38872106      40.42086702       0.81013240      -0.02819393      -0.78412521
S       19.47728930      13.30768917      34.25955283       0.97941502       0.15675537       0.89214238
S       20.03690090       8.84661204      40.32300210       0.34799873      -0.35537916       0.80677889
S       19.09178061       9.13876292      36.15320119      -0.67108280      -1.46978298      -0.56990546
S       18.96402743      12.03522184      38.72444475       0.25184469       0.21193298      -0.07919978
S       15.98599661      11.78717185      36.22855940      -0.10168617       1.98245191       0.56330233
S       16.41530346       8.65772436      38.61454167      -0.86722618       0.08286408      -0.23278209
S       21.95789982       2.00937061      23.37820100       0.12974932      -0.20111731      -0.83493918
S       22.47397646       4.27829420      32.37887502      -1.57652136       0.20522527      -0.60268892
S       29.63535776       6.37377240      24.69082165      -2.21145936       0.66449276       0.75694704
S       27.54067809       1.56606467      30.54610742      -1.10560557       1.07364463      -0.21748162
S       30.16890957       2.01413145      27.38732232      -1.11772575       1.38005133      -0.01821885
S       27.14605266       5.48488436      28.37771780      -1.90179463      -0.27343841      -0.65791938
S       25.68297833       3.87567695      25.31475998       0.20339902       0.55000420      -0.18458111
S       23.78528890       4.08792416      28.70848313      -0.26763131      -1.48435014       0.23222379
S       22.37323799       0.98379497      34.56478097       1.19109211      -0.29335653      -0.80773879
S       22.51328595       5.53672321      40.10581824       0.20720457      -0.44211442      -1.66074530
S       26.39144054       5.00198570      33.51786008      -1.70683759       1.37310045      -1.26061956
S       26.81235925       0.69705520      39.94047167       0.15207237      -1.68991789       0.36002405
S       26.16377252       1.94088104      35.97228037      -0.77716841       1.62490907      -0.28431983
S       26.50533369       5.02101843      37.88845104      -0.47529080      -0.08302868      -1.28385742
S       23.14483077       4.73456878      36.36123687       0.46901619       0.69461046      -0.19891641
S       23.78039903       2.27027579      39.12251256      -1.13471812       0.59845529       0.75233829
S       23.10111313       6.91011064      21.51895084      -0.03787716       0.80098311       0.47776483
S       23.23717333      15.35400488      29.12524829       1.64433590       0.10986861      -0.91893932
S       26.53178980      13.51661897      26.65025927       0.49358696      -0.13456190      -0.55040420
S       26.68136221       8.15019611      31.55480468      -0.89463545      -0.80736790      -1.01038052
S       25.47754658       8.23691398      25.39170017      -0.76894337       0.19447829       0.11160939
S       23.39967332      11.32469856      30.70462384      -1.66587376      -1.59126470       1.12014213
S       22.83334796      11.23226351      26.96100534      -0.32598653      -0.50209760      -0.06796910
S       22.44344293       8.02038820      28.93261141      -0.60779451       1.33652555      -0.43511982
S       22.44857307       7.73486852      33.75959645      -0.45461249       1.07282354       0.85451913
S       22.49121155      12.46352832      40.43767999      -1.28433153      -0.24883754      -0.17889492
S       26.14028645      12.34240638      33.43864737       0.46514581       0.99942827      -0.10325757
S       26.63638039       8.10507103      40.54672750      -0.35505316      -0.07256493      -0.41189854
S       25.69681482       9.13028497      35.82513413       1.96441147       0.86133085       1.20301051
S       26.16774934      12.41256116      37.59329811      -0.55148601       0.15812841      -0.73389797
S       22.69586450      11.63896001      36.14373056       1.53925519       0.61278815      -1.85002185
S       24.07719356       9.66219750      39.17498541      -0.42422905      -0.17912173       1.81519764
Sb      14.22468359       0.17422347      41.26013804      -3.48751088       1.01139030       2.60632285
Sb      17.89479700       4.19039857      27.47299628       3.28315003       1.68011127       0.10040540
Sb      13.98455120      14.15516846      32.83815437      -0.91795904       0.35458624      -3.96253575
Sb      17.75159409       3.57371333      37.67811412      -3.05682999      -0.77978191      -3.24177591
Sb      15.66844045       7.52496080      22.70601907       0.53673564       1.20356332      -2.27044309
Sb      18.73719581       9.98908476      29.76029710       1.40649566       0.52711353       0.58826332
Sb      13.85553610       7.29031080      32.83292678      -1.76183609      -1.27527043       2.11578410
Sb      17.62458947      10.46211400      37.45714529       0.93023822      -0.96938271      -0.78360389
Sb      21.79527238      11.13492563      21.85228599      -1.77521681      -0.86842395      -0.98931145
Sb      25.87498006       3.45503010      27.73407557      -0.23867205      -4.44058104       0.48106498
Sb      21.73131717      -0.22665964      32.52635604       0.11448950       1.38979006       2.54944911
Sb      24.90874832       3.38661504      37.35754987      -1.53373672      -0.59372017       1.42966193
Sb      19.12141866       6.07599301      23.37998493      -1.61260494       2.02597131       1.54431216
Sb      24.03105911       9.96347725      28.79501783       0.02128901       2.39486673       0.16588759
Sb      21.19679911       6.28130440      32.34373331      -0.21210113       2.60317446       1.03374653
Sb      24.59340024      10.67176353      37.14450334       0.36601028      -0.05246748       0.38925926
Na      28.19094558       3.31341806      39.94316901       0.19212341      -0.99746434      -0.53550235
Na      17.85210972      14.06020462      48.61698839      -0.08627015      -1.04574104       0.61759513
Na      17.54928939       0.16006253      44.81072516       0.32335633      -1.31064138      -1.71346357
Na      13.89917996       3.31465038      46.88130553      -0.34075846      -0.59765533      -1.50795272
Na      28.26244089      14.37920527      45.18225940       0.41040699      -0.98114835      -0.83159327
Na      17.05568792       4.22534424      42.07860746       0.28759217      -0.25320372       0.29598379
Na      14.01546640       3.64212086      51.54767382       0.54486527      -0.53689439       0.59150346
Na      17.54042564       0.53359331      56.28896795      -0.23555548       0.81900374       0.45794861
Na      17.23212464       0.09261965      52.42913401      -0.11691124      -0.50192622       0.07851981
Na      13.72763974       0.61546304      54.10902843       0.10726401       0.42044728      -1.53759424
Na      14.12540332      -2.78507844      52.88079515       0.79915090       1.79804720       1.70635074
Na      17.29628006       3.71007352      49.43212186       0.37335852      -0.59953441       0.49843624
Na      28.16594697      10.41527499      43.02023916       0.61324873       0.45736713      -0.36630659
Na      17.87954224       7.35045471      47.63849011       0.45900319      -0.83545272       0.64064430
Na      17.59601455       7.12843341      44.10177454       0.16799763      -0.52870359      -0.61601444
Na      28.24891268      10.73510375      46.36554254       0.50736220      -0.65298314      -0.84951216
Na      27.76339531       7.21435936      45.70325615      -0.17334759      -0.28262227      -0.06178485
Na      17.28334890      10.13355054      40.82296960      -1.01064934       0.14998588       1.14856723
Na      28.41371600      10.63769735      50.20095570      -0.42652653       0.05031157       0.92591222
Na      18.03751470       7.07076865      54.58154766       0.67787755       0.50528198       0.46962919
Na      17.73864940       7.41235841      51.04846808      -0.73863535       0.56963278      -0.44731871
Na      28.60958078      10.52667568      53.41129942       0.31014565       1.51922961       0.53018411
Na      28.90237038       6.44544227      53.87517599       0.00637830       0.14594992      -1.80318369
Na      17.18380433      10.29579496      49.32734690      -0.71230317      -0.52868358       1.35954081
Na      20.91302107       3.58894110      41.78321571       1.05662596      -1.21254623       0.33950791
Na      24.70766672      14.25223092      48.20135449      -0.88552655      -0.07856270       0.06310386
Na      24.42352321       0.04614312      46.67134809      -0.97695052      -0.14173635       1.66983977
Na      21.30294203       3.45433148      45.66144639       0.37413101      -0.52269789       0.02382021
Na      20.89945082      14.22027037      45.82435629       1.62193249      -0.47943502      -2.29262009
Na      25.38210360       2.82614769      58.52885361       1.03492873      -0.22620630      -1.09267792
Na      20.99349347       3.16006246      49.27592857      -0.55097461       2.64680821       0.42685944
Na      24.57601767      -0.87394871      57.67481581       0.55153774       0.89752406       0.24513762
Na      24.77688405      14.48161679      52.34638235       0.81515413      -0.86591831       1.29490938
Na      21.51152843       2.91882712      53.51760437      -0.45169310       0.33647638      -0.79984128
Na      21.31636959      13.88063740      53.95710084       1.10674334       0.13450573       0.52686267
Na      24.95842446       3.11777635      49.82593218      -1.88856759      -0.29486457      -0.13620837
Na      20.99827780      10.51719338      42.51106460       0.25458071       0.62555725       0.28826102
Na      24.98261966       6.85011460      47.58596702       0.32206117       0.38050060       1.22399741
Na      25.13134305       7.05665747      42.89056412      -0.39088021      -0.82786629      -0.79765971
Na      20.99482349      10.58593336      46.50965827      -0.65293847       0.24207670      -0.20607525
Na      22.02689949       7.12358218      45.51905324      -0.11138521      -0.08385960      -1.53980489
Na      24.34842567      10.89021686      41.79668815       0.74360627       0.17052039       0.37753862
Na      21.16692895      10.82767654      50.66733065      -0.71704724       0.37994588       0.19570122
Na      25.40123144       7.14492505      56.47767748      -0.94881375       0.29659861      -0.55860441
Na      25.44580873       7.13861535      52.38905864       0.49140514      -1.10924589      -0.93218013
Na      21.18635670      10.46290899      54.62295219       0.29875101       0.05537973       0.48993950
Na      21.77806126       6.73123545      53.43957667       1.27498695       0.47617278       1.00970279
Na      24.71797411       9.89489117      49.40966195      -1.08713628      -0.08313254      -0.05552047
S       15.55666425       1.40965021      42.73648972       0.03535983      -0.89940380       0.52052322
S       15.51318141       5.48420611      48.34312238       1.58833069      -0.69038776      -1.24642687
S       19.63477539       5.96099485      42.74286274       0.55855866       0.73443815       0.33666839
S       20.18410761       1.16685631      47.54117955      -0.47924091      -0.30945864       0.30765747
S       18.84787692       2.51378440      44.03458372      -1.52753736      -0.82577843       0.39644128
S       19.16046666       5.12217568      46.69255353      -1.41709250      -1.18955494       0.29078857
S       15.89652010       4.92529689      44.46160223      -1.04633892      -0.94127842       0.66985223
S       16.40975281       2.14080075      46.79224175      -0.06840278       0.59161065      -0.24217887
S       15.49599169       1.38029981      50.42827379       0.52745052      -0.18845026      -0.45904831
S       15.83125748       6.21219462      56.12065159      -1.05929049      -1.91407689      -0.17474076
S       20.06682064       5.56817150      50.89006861       0.43069903       0.64473942      -0.61566907
S       20.16573689       1.49027891      56.05139766      -1.95520761       0.13644450      -0.59795242
S       19.19018352       2.25494177      51.94422721      -0.48836558      -0.11359238      -0.28809714
S       19.29545564       4.58125104      54.86914243       1.54546295      -1.88278672       0.88760429
S       16.40179889       5.09991699      52.29347704      -0.02719649       1.08044138       1.07323425
S       16.17020675       2.27937652      54.69103198       0.26502659       0.45414445       1.37244477
S       15.33313281       8.42103091      42.93078643      -1.08405990       0.90516006      -1.22891152
S       15.32314960      12.89618255      47.89948232       0.74384339       0.40710207      -0.20610299
S       19.98020841      13.21992778      43.16163746       0.28854949       0.59137164       0.93275361
S       19.75659165       8.99024475      48.83723111       0.21699611      -0.66170143      -0.10104160
S       19.10714042       9.21616039      44.38055488       0.08821712      -1.42770180       1.13348392
S       18.73367002      12.29465868      46.80195071      -1.93123440      -1.17210330      -0.05150565
S       16.03074778      11.65314134      44.06928268       0.23863835       0.11632028      -0.95368363
S       16.16344445       9.29557643      46.94355442      -0.10120636       0.08185082       0.83018619
S       15.00197521       8.65022073      50.82418348      -1.53823704       0.88086711      -1.05355753
S       15.41632466      12.98192967      56.10570718      -0.88001404       1.06763705       0.29273943
S       20.09147743      13.32362676      51.36508185       0.17131137       0.08106400       0.00474535
S       19.58819545       8.54999801      56.42799858       1.35006394      -0.48122583       0.31727501
S       19.32501390       9.30390596      52.45799690      -1.32288596      -0.66956444       0.21912887
S       18.56870417      12.50353446      54.75128476      -0.48656184      -0.57986056       0.39680201
S       16.54386199      11.88160719      51.61866708      -0.99153057      -0.49333063      -0.25487509
S       16.07905478       9.60066292      54.68481659      -0.43895075      -0.46223385       0.35359357
S       22.39323285       1.34838223      42.75174457       0.64985555       0.94066521      -1.60333277
S       22.39115071       5.95194236      47.91301895      -0.57966258      -0.60757370      -1.21810138
S       27.00108740       4.88303932      42.35783049       1.87738837      -1.32807767       0.21872185
S       26.84946620       1.08858721      48.33750006       0.23841361      -1.25431861      -0.75454030
S       26.08840867       1.90964647      44.35409752      -0.53666513       0.25038672      -0.78279087
S       26.66243528       4.91502624      46.57276767      -1.03915471       0.81898120       0.92824689
S       23.41097918       5.01361235      44.17907703      -0.35837178       0.93739003       0.43943964
S       23.55112078       2.53613692      47.13116880       1.47277770      -0.91948506       0.80785523
S       22.33930393       1.18881698      50.88501594      -0.52164215       0.77650628       1.04870554
S       22.37037873       5.86514521      56.01175629      -0.06556157      -0.43440021       1.59418021
S       26.79142246       5.51285344      50.64697790      -0.33085521       0.36564813       0.32123112
S       26.93937760       1.09850605      56.62962731      -0.47782202      -1.74501460      -0.83022291
S       26.08578223       1.79638237      52.50956605      -0.01673065       0.21774188       0.70737212
S       26.50515042       5.31900475      54.58344429       0.24946992       1.07287929      -0.85123923
S       23.45725820       4.73092610      52.26304768       0.11370514      -1.81739370       0.21488298
S       23.60977684       2.33989517      55.19471811      -0.42799591       0.67554998      -1.40820611
S       22.81356138       8.46527403      42.87244403      -0.30188913       0.17915086       0.59463925
S       22.26614790      12.57415177      48.13946255       0.27139364      -0.43666727      -1.26747629
S       26.61532570      12.89302999      42.26684760      -0.75972573       0.40368977      -2.03342463
S       27.10234673       8.74918294      48.27408003       0.07652966       0.97328337       0.07910798
S       26.22937006       9.19676296      44.37734153      -0.27626626      -0.51322650       0.95827242
S       26.15966593      12.23997687      46.55160580       0.85476222      -0.96157258       0.32498228
S       23.12728199      11.87935298      44.28134204      -0.40198083      -0.36607231       0.74699477
S       23.47733789       9.20100854      46.79931253       1.44073088      -0.49442804       0.01648158
S       22.86309771       8.26202936      51.00316487      -1.24870166      -1.37380363       0.37794546
S       22.67055240      12.48248547      56.45616278       0.91247271      -0.65116889       0.93151658
S       26.90608906      13.14848974      50.52074063       0.41931943       0.26447860      -0.38156117
S       27.80304771       8.16595061      55.92647111      -0.75025508       1.85634692       1.52630262
S       26.17915740       9.60215048      51.82369879       0.24957479       0.54354749      -0.99038626
S       26.60867726      12.07715352      54.57142781      -0.93970384       0.03751516      -1.81131660
S       23.14936249      12.11906879      52.65027667      -0.47691478      -0.56187577       0.17740259
S       23.75266168       9.14172949      54.92518821      -0.20506978      -0.91750027       1.43276639
Sb      14.21091929       0.03173142      57.68227842      -0.64799986       0.43077020       0.31712543
Sb      17.57947150       3.76997348      45.57568235      -3.37704380      -3.24334942      -4.78084849
Sb      14.12184473      14.29904067      49.42907699      -3.52984799       3.10223852       1.24967080
Sb      17.83186273       3.49255336      53.39246659       1.73955224       2.13156469       1.85511425
Sb      13.91922459       7.02688907      41.73787984       0.32093862      -0.81694807      -1.94573592
Sb      17.65620809      10.64871870      45.51184483      -0.81536980      -0.40534179       0.84986581
Sb      13.98284188       7.03593080      49.52058812       0.02045437       1.78849524       0.72195725
Sb      17.66528142      10.79119134      53.36377509       0.58298565       2.98923154       0.36844131
Sb      21.29927999      14.19389619      41.51866407       1.12719439      -4.28290452       1.66892332
Sb      24.96154848       3.63662571      45.45336910      -3.10214941      -0.37210466      -1.21823320
Sb      21.23342609      -0.13518785      49.21268546      -0.83418167      -0.29536276      -1.98980810
Sb      24.92035217       3.66312926      53.73855464       0.82564100       1.08462149       0.76541677
Sb      21.30081029       7.12816234      41.52475743      -0.09649242      -1.31731992       1.17618129
Sb      24.75299464      10.61700702      45.51278689       0.97533519       0.80363998      -0.39252969
Sb      21.31418713       7.20174720      49.59313604       2.22960757      -0.94915686       0.96849009
Sb      24.87988253      10.64649906      53.55309456       0.29434856       2.72517595      -2.62103616
Na      28.12587104       3.50639047      55.94710070      -0.11524968      -0.60782042      -1.39235179
Na      17.85853708      14.60251984      64.14545881      -0.95820572       1.48849266       0.42476880
Na      17.80258420       0.34027805      60.19428805       0.70586341       0.13780754       0.89830251
Na      14.36089372       3.72360415      60.25047070       0.01105048      -0.53797187       0.40308572
Na      28.06359825      14.63397086      63.02253217      -0.98552584       0.06788018      -0.66268776
Na      17.37008093       3.76406905      57.32593699      -0.17227017      -0.20811176       0.44696956
Na      13.96487934       3.71334199      64.79888941       0.32748346      -0.83161051       0.06994776
Na      16.29198168      -1.49899793      72.14429953       1.20339688       0.09980549       1.03022937
Na      17.17608694       1.50908588      66.90313888      -0.76255239      -0.15929730      -1.02512154
Na      13.74938332       4.08744512      68.48980109      -0.23613373      -1.26987559       0.45122407
Na      18.12722485       2.30977133      70.42465326      -1.44176105      -1.23953523      -0.67915514
Na      17.06418627       4.33067233      65.88015025      -0.10689790       0.13796308       0.54986168
Na      28.11255438      10.49670394      57.32195556      -0.14645436      -0.81629161      -0.22058403
Na      17.45907096       7.51902652      62.17721131       0.63690018       1.04999975       0.22783855
Na      17.71101736       7.52847846      58.42181899      -0.33671283      -0.57649577      -0.03810650
Na      28.55251539      11.19830762      61.17433223      -1.59775440       0.17353546      -1.78922645
Na      28.23300708       7.33542120      61.51202142      -1.51674246      -0.00107531      -0.50082685
Na      17.69225089      11.15886602      56.93127090       1.24843752      -0.71478269       0.11278433
Na      27.98560093      11.29271410      65.36499203       0.94120129       0.32594389       0.33151931
Na      17.63460564       9.68893959      72.66675074       0.30058618      -0.74521300       0.45021433
Na      17.73964210       7.50159962      65.27835400       0.93618635       0.29808737      -0.00543199
Na      25.49985268       9.90722307      68.12567688      -0.50916570       0.93608139       0.60593186
Na      24.68124446       8.46412953      70.65709989       0.45245477       0.15946781       0.23543313
Na      17.76130384      11.18287592      65.75476014       0.98245481      -0.18182246      -0.15108134
Na      21.69709448       3.35239661      57.45568916       0.40818947       0.96382776       1.06225386
Na      25.20754225      14.37883987      64.76301279       0.53047608      -0.14572792      -0.60132815
Na      24.72196000       0.27587250      60.92532356       0.88494222      -1.01968588       0.47689534
Na      21.33220695       2.63414242      63.49765734       0.14055356      -0.12337499       0.14862444
Na      22.03723626      14.17956053      62.80943196      -0.47133084      -0.16435963       1.52240144
Na      28.13078395       6.79118121      72.22372688       1.57821281       0.63928181      -0.45894365
Na      20.59431957       3.96108802      66.63402156      -0.22785096      -0.00666755      -1.15372830
Na      26.56771068       0.49827641      71.55312468      -0.84564567      -0.12285265       0.02012270
Na      23.54579081      13.00616229      68.10661192      -0.21974303       0.84434143       0.55619246
Na      23.50519876       1.86607761      70.28993247       0.10616926       0.64419815       0.51492429
Na      21.34736391      15.80856735      69.91452092      -0.39235670       0.86415396      -0.44981460
Na      24.53133346       2.17096803      65.05317340      -0.71954075       0.86081328      -1.26421151
Na      20.67828277      10.70818373      58.67108553       0.62744330      -0.80967519       0.35592408
Na      25.23017739       7.08176863      64.46369766      -0.03189214       0.06497795       0.39964095
Na      24.63413395       7.10885993      60.90454877       0.08748079       0.30714903       0.19492791
Na      21.18365966      10.55815750      62.09667233      -0.40911880       0.14274162       0.23799426
Na      21.03280600       5.55231003      61.19517054       0.40220338       0.76112639       0.11194688
Na      24.22645617      10.07924201      57.60116718       0.08462701      -0.92271496      -0.04802845
Na      21.26945605      10.93247377      65.66761225       0.52305676      -1.66354107       0.32017895
Na      27.54767412      10.24491386      71.45822723       1.15378642      -0.18197011       0.54147040
Na      25.43295747       4.18972215      67.06860005      -0.83637393       0.62377134       1.07288719
Na      18.08618072       9.77009989      69.71591295      -0.07882158      -1.01961702       0.54715607
Na      21.22011029       9.06302666      68.69949690      -0.93749991       0.13056843       1.16633339
Na      24.37685276      11.05380570      65.16082000      -0.86508449       0.97919933       0.77883041
S       15.89064943       1.63765333      58.58768852       0.66402507      -0.26705924       0.18939721
S       15.20302966       6.01658358      65.01901878       0.22032051      -1.03988508       1.87051423
S       19.71413761       5.69258712      58.76846893       0.16280508       0.53967420      -1.60884454
S       19.69508623       1.66196846      65.74481134      -0.22793589      -0.72701387       0.77094350
S       19.32666206       2.57861434      61.27152201      -0.24540029      -0.57962795       0.21836556
S       19.17908603       5.30154079      63.83960974      -0.04724715      -1.40643469      -0.30229405
S       16.56751971       5.42272787      60.79545079      -2.53255222      -0.11025116       1.62222995
S       16.49629728       2.66261902      63.72862707       2.07493708      -1.06924750       0.75224574
S       16.89393649       3.59028631      68.42963923       0.66118021       2.49994278       0.00098546
S       14.60403647       6.41459876      74.78008773      -0.07874518       0.64269888       0.32182500
S       20.04290637       6.81385048      67.02417829      -0.68989817      -0.78692126       1.71725058
S       25.07931176       0.84090569      75.19603709      -0.26886520       0.31992766       0.31373087
S       20.72612909       1.13356656      74.62929000      -0.98204787       0.19441803      -0.85983472
S       19.33613117       6.11826019      74.84071963       0.37536550      -0.99395790       0.80979186
S       17.39794790       7.18852261      71.31332327       1.11747984      -0.35924851       1.31368680
S       16.76017920       2.63601546      72.89738924      -0.22245908      -0.59944745       0.10550241
S       15.27765680       8.96576158      58.86090912      -0.52800331       0.96884624      -0.63142418
S       15.84817863      13.03071883      66.12340327      -0.89143036       1.52525631       0.57582907
S       19.56900829      13.22222667      58.60368931       0.06290675      -0.61709240       0.13160659
S       19.49624639      11.17685009      67.89213965      -0.75762422       0.87182355      -0.14771891
S       19.11780871       9.55435810      60.49344613       1.31108228      -0.51341633      -0.01393511
S       19.26303910      12.17029452      63.48377295       0.18702201      -0.94530974       1.30424905
S       15.92611405      12.86953632      61.58929122       0.32278019      -0.45097645       2.05739397
S       16.44377299       9.52766462      63.79070421       0.16470243      -0.53179790      -0.91183200
S       16.12075389       8.60304514      67.36536433      -0.36300787      -0.11139599      -1.18313307
S       15.43314733      12.33930602      78.09960303      -0.74686147      -0.58176601      -1.19733468
S       19.36284759      14.15820635      70.83983999      -0.03944700      -1.12923141      -0.49862039
S       19.85530918      10.63185614      71.91547545       0.59151301      -0.18589693      -0.10829997
S       16.35576892      11.54877854      71.10034227       0.58247467       0.48387834       0.03540724
S       19.72916398      13.73505798      74.72014870       1.57019246      -0.04589625      -0.41927367
S       16.77865952      14.88295516      72.61570624       1.82597158      -0.74715995      -0.12244168
S       16.57419876      10.18188858      74.97797660       0.02254802      -0.84102772      -0.94924664
S       22.64581630       0.99608567      58.97956214      -1.52998325       0.24288166      -0.53539398
S       23.10354029       5.08017841      65.69989498      -0.47701836      -0.19916851       0.91776815
S       26.93114208       5.50951321      58.79198685       0.84917222      -0.67327645       0.89619171
S       27.23097404       2.09530569      65.49041925      -0.65421968       0.30798695      -0.20300938
S       26.50946417       2.18214481      61.04684242      -1.23874561       0.71701256       0.02346329
S       26.73301387       5.50039017      62.65266605       1.25543509      -0.83139717       1.35847633
S       23.55458954       4.59000901      60.31856333      -1.75305742      -0.33924105       1.00247281
S       23.31027913       0.65348421      63.34437297       1.18557831       0.75893850      -1.61401526
S       22.96072174       1.73406080      67.55177281       0.21857496       0.40749365       1.23547913
S       23.01686053       7.54089533      78.54698188       0.18429395      -1.57505208      -0.84144559
S       25.99981763       3.41470125      69.52327015       0.36209244      -1.23894814       1.00696434
S       27.75332394       3.14039919      78.60046909      -0.70620460      -0.35267484       0.35023317
S       27.75374437       4.09326189      74.51178644       0.27566608       1.10081580       0.43999948
S       30.64605791       6.63676458      72.52651207       1.18613854       0.06186649       0.41524122
S       22.36359753       6.81918298      71.06047422       0.44558266       0.69166408      -0.01283728
S       23.74398574       5.23083990      74.94117775      -0.18097277       0.21775010      -0.69170213
S       22.43832237       8.50609813      59.04820963       0.36003605       0.29789253      -1.91852581
S       22.58958955      13.33452374      65.52204457      -0.42072069      -0.16902549       0.49267205
S       27.13028179      12.91764320      58.72442491       0.28956783      -1.34171800      -1.69877488
S       27.64251396       8.00580176      65.99654863       0.29770568      -0.52420304      -0.26832912
S       26.25833257       9.57025574      60.15129493       1.74869367      -1.27329538      -1.32018405
S       26.47936227      12.32213136      63.10514029       0.40682900      -1.00741191       1.04119712
S       23.20292472      12.26866286      60.76550780      -0.66518991       1.18168553       0.82066112
S       23.58886070       9.23688690      63.08515224       0.13690393       1.35353596       0.17013687
S       23.00823542       8.72807231      66.54648172      -0.40695739       0.74680849       0.25538878
S       24.53777839      13.54518411      74.28129346       0.32409414      -0.10780494      -1.57306433
S       26.09551763      12.41382890      67.19183551      -0.39001334       1.24356102       0.73141149
S       26.81647365      10.98228181      76.79199616      -1.06077557      -0.33766455       1.37536298
S       25.93937785       8.73758876      73.15234688      -1.26472511       1.55998279      -0.22275888
S       26.82620451      12.89463249      71.18814665       1.42394063       0.88514155      -0.14606223
S       23.37598217      10.74233075      69.94430661       1.04637468      -0.35453005       0.04206693
S       22.28612244       9.49943374      75.12890281      -0.57057062      -1.62299745       0.54274416
Sb      10.53559717       2.57577666      76.60641159      -0.36655241      -2.56923798      -2.54305542
Sb      17.83570840       4.00075195      62.34479046       0.90070582      -1.00496287       0.62895845
Sb      14.57945169      14.73363506      67.43239209       4.32481542      -1.64387564       1.75820300
Sb      21.08101539       2.33902854      72.42243145       1.41554075      -0.36053758      -3.15910822
Sb      14.25692408       7.27881474      57.65153124      -0.96656006      -0.76073351       1.06374446
Sb      17.60318263      10.96075540      62.08981430      -0.02968061      -0.04272650      -0.09305219
Sb      14.37456997       6.89173388      67.02774710       1.04132398      -0.35312638      -1.48466845
Sb      18.32914231      12.71265167      72.50298881      -1.79159436      -0.16636501      -1.31074475
Sb      21.41320738      14.21857315      57.51250444       0.09066136       0.32054633       1.48208898
Sb      25.05614440       3.77642287      62.15584957      -3.27112900      -1.01052649       1.31780608
Sb      20.86116069       0.60241807      67.66915433       2.45867983       0.74785241       3.65784673
Sb      27.14590055       3.71439268      71.94725158       2.62529224      -0.01758872      -0.90377607
Sb      21.16023274       7.16404399      57.55855075       3.06121571       1.00114922      -2.46015208
Sb      24.93009267      10.83302087      61.76303884      -0.34788706       2.03834385       3.02978263
Sb      21.70313043       7.11666707      65.21264000       3.23149060       3.34244095      -2.40571069
Sb      24.37958570      12.30364940      71.85828823      -0.64294400       0.84826797       1.20078323
Na      30.06675615      16.34977110      31.47824184       0.04530690      -0.12590684      -0.12474625
Na      17.46804411      28.52571529      34.26749125      -0.56679669      -0.59424034       0.91933139
Na      15.97113402      13.27349110      29.22637530      -0.10689418      -0.43020905       0.09842379
Na      14.50779664      17.46362037      31.82053863      -2.22584013      -0.20796999       1.32669408
Na      27.83919115      29.46002383      28.04033276      -0.42384065      -1.35798748      -0.56857214
Na      17.75652286      14.68244143      23.98368595      -0.76934347       0.10777133      -0.17421782
Na      14.70473900      16.79292203      35.71216498      -0.54550266      -0.00658194      -0.31814269
Na      17.70753635      14.18006202      39.89964713       0.57511777      -0.31961301       0.32753532
Na      17.19992690      14.43054248      35.54516305       2.40371030       0.27673089       0.58679923
Na      14.06325510      17.86214071      38.75083299       0.43924989      -0.72656582      -0.41615822
Na      14.20164812      13.55746703      37.87611354       0.78029470      -0.74674804      -0.77863632
Na      17.72572272      18.00492770      33.12277178      -0.10164625      -0.31243957      -0.51539767
Na      29.32808704      25.67196616      27.11904311      -0.00423709       0.68176135       0.57083192
Na      17.36051998      21.68229971      34.36755667       0.00052136      -0.89977562       1.07678286
Na      19.09428206      23.41811743      27.92218556      -0.16113019       0.55005233       1.83656927
Na      28.92076333      25.72927763      31.37747179       0.75798331       0.36020802       0.44366122
Na      28.34597487      17.99365096      29.38359775      -1.42678835      -0.85638151      -1.46969671
Na      20.79220369      20.71150139      27.86887086       0.70735635       0.54524727      -0.71838231
Na      28.12474870      25.35736692      34.74701482       0.33795316       0.05651883      -0.47348708
Na      17.73541987      21.76222814      41.56353335       0.60237505       0.58452867      -0.38740275
Na      18.38789622      21.43940684      38.08400083       0.93249784       0.54521466      -0.99466886
Na      28.66402199      24.92647392      38.88459469      -0.70870981       0.12900782       1.00788547
Na      29.27708831      22.28966925      35.96074395       0.47477335       0.46615612       0.32896068
Na      18.68618298      26.85356702      31.63483187       0.45271927       0.46744004       0.17324361
Na      22.14127352      17.20637064      31.01182259      -0.64828413       0.15222689      -0.37831589
Na      24.86333509      28.00650928      34.48114518      -0.75381509      -0.94223786      -0.20856775
Na      24.73728238      12.88547131      28.55726341       0.74110728       1.42993815       0.01270422
Na      18.38628098      17.53110880      29.34487904      -1.13464963       0.53451683      -0.95651576
Na      18.57882487      29.65059202      29.23512556       0.73867008      -2.05932251       0.55257535
Na      24.70008319      17.49663948      41.17479144      -0.40744533       0.89184709      -0.83560751
Na      21.11969751      17.86162921      34.28525183      -0.16740696      -0.40478367      -1.23952503
Na      24.95190805      13.96085244      39.53811157      -0.50872211      -0.12260247      -1.10550221
Na      24.52830057      28.43487945      38.26026942       0.46868535      -0.05244894       0.29734892
Na      20.93065047      17.63832131      38.24059649       0.56298436       0.02742860      -0.49146490
Na      20.69671087      28.04118807      36.16608078      -0.03890730      -0.05861984      -0.02433875
Na      24.71456758      17.27876248      33.61724026       1.12040746       1.08048869      -0.90238225
Na      21.89891526      25.19143513      26.10078233       1.22729921       0.69010193      -0.84092162
Na      24.79252573      21.03127122      33.95401169      -0.75835232       0.42513186       0.48120456
Na      26.76891787      23.81610258      28.44127525      -0.22670722      -0.61580265       0.65154441
Na      21.17767941      24.46083028      31.82364153      -0.19709963       0.71141337      -0.46106691
Na      24.57395895      21.46513858      30.07263190      -0.07014933      -0.70838889       0.75149209
Na      24.80647385      30.10674884      24.48100064      -1.15265845       1.08428378      -1.11480638
Na      21.22804066      24.63852791      35.08365797       1.45105870      -0.51903304      -0.47524007
Na      24.91060438      21.15954861      40.80189144      -0.34179425      -0.01676693       1.18195992
Na      25.73610228      21.25206366      37.16206000      -0.09157386       0.86570035      -1.08768064
Na      21.55428820      24.63686435      38.79972235      -0.34214923       0.29877861       0.14891176
Na      21.42106803      21.08772523      35.67717139       0.42280831       1.70092373       0.02139704
Na      24.77050042      24.67698099      33.46577023       1.04368374       0.53055179       2.27438991
S       16.15833494      13.26134309      22.50424390       0.19071271      -0.56469317       1.15759616
S       16.76668981      19.13903930      30.75139416       0.16173786       1.83805101      -0.22833898
S       20.97123246      18.73830729      22.46945571      -0.37901554      -1.49700304       1.40391598
S       19.69510776      16.36792205      31.80484558       0.34350822       0.11400336      -0.67911455
S       20.09659479      13.76662562      24.89664071       0.23123134      -1.01463851       2.50489194
S       20.37563194      18.26671803      26.80973761       0.57889171      -0.82790805       0.19717338
S       16.79633607      23.13509366      26.80655551      -1.08402465       0.46416074       0.50121687
S       18.03499323      15.52083076      27.47515545       1.30410341       0.34026197       0.24766982
S       15.78037228      15.78970858      33.57256611       0.60279371      -0.48616619      -1.08756909
S       15.68910875      19.67054366      40.48311167       0.43795619       0.62210552       0.95283668
S       19.72235377      20.27466756      33.63248543      -0.17892482       1.26211060       1.40372866
S       20.15737835      15.57039838      39.99253354      -2.23899131       0.16322954       0.39450744
S       18.66873080      16.98758506      35.63326742      -0.33091338      -0.29029458      -1.08992720
S       18.68177324      18.82048210      38.92793730       0.70557144       0.01703744      -0.05382710
S       16.03978749      19.61886084      35.98949830       1.97370938      -0.15913250      -1.37995261
S       16.11712928      16.02016809      38.07528171      -2.07621151       0.36380079       0.98961022
S       17.52542692      20.63723908      24.12226521       0.04587243      -1.10417652      -0.28188865
S       15.77870956      27.44799653      31.47733791      -0.27934035      -2.69246596       0.85418714
S       22.68409056      25.19216593      21.52777963       1.54520275      -2.57104109      -0.03765547
S       20.38437183      22.38090536      30.22708861       0.78429683       1.57931651      -0.05323286
S       20.93843280      22.72093761      25.86749676       0.55045640      -0.10914372      -0.08365619
S       20.46703162      27.05979193      29.64697094       1.30747280       0.32223158      -0.21245031
S       20.37718979      27.45946925      25.81679913       0.74388795      -0.18189905      -0.63179070
S       16.93539355      27.68480530      27.96184088      -0.83747375      -0.81397299       0.56134553
S       15.89262914      22.93632083      32.54907600      -2.01056549      -0.55131768       0.13284314
S       15.85452374      27.46749607      39.93168998       1.63233902       0.93473800      -0.58845919
S       20.29904606      26.72370107      33.56388600       0.76470342      -1.42158853       0.20042564
S       19.90071212      22.81566284      39.87710142       1.61649004       0.25676959      -0.54948566
S       18.94780995      23.36581546      35.61149664      -0.48642079      -0.23413383       0.52056225
S       19.32223346      26.26175502      38.41114017       0.49419108      -0.59270827      -0.50635504
S       16.34403960      26.26073809      35.86401962       0.39023505      -0.01292182       0.47379264
S       16.49768735      23.70358256      38.67241325       0.03076401      -0.72323079       0.72418252
S       24.37065948      11.82071121      22.84539840       0.94451633       0.50355149       0.55687442
S       23.83449367      19.16219017      31.69172468       0.88070422      -0.14118020       2.11841025
S       30.70239563      22.20403207      21.89721916       0.69615374      -0.78489421       0.52887327
S       26.79192079      16.19275593      32.09899170      -0.63020230       1.36439467       0.03654898
S       23.79808073      16.29340104      24.62893661       1.08815260      -0.43566897       1.29076430
S       27.29847264      20.70571920      28.98103550      -0.40068219      -0.93863539       0.13168210
S       23.72612047      19.89840843      27.57071362       1.24380371       1.17738986       0.56694623
S       26.74636088      17.71474712      27.04430318      -1.45345355       0.46089083       0.34999610
S       22.72458142      15.55135420      33.89490317      -0.10001495       0.03554220       0.38015796
S       22.44097713      19.67018558      40.14196326       0.53762227       0.84454337      -0.57560856
S       27.52582525      20.79940878      34.12229807      -0.94155791       0.88901294       0.65010845
S       27.03490173      15.83530135      39.87571789      -0.81707365      -1.64398405      -0.17423313
S       26.21053213      16.60455428      35.90776654       1.00622655      -0.78333478      -0.08852462
S       25.90070344      18.98862197      38.76463015      -0.41540901       1.06405842      -2.06339896
S       23.41486494      19.32568246      35.88442418       0.71582029       1.20688240      -0.85360337
S       23.31174145      16.24804658      38.45740293      -0.06526746       0.41683442      -0.72666508
S       25.33618449      21.82402650      23.52193874      -0.67155546      -1.46384201       0.86756110
S       23.69712912      27.10647557      31.93097094      -1.38090234      -1.39086346      -1.34983202
S       26.60231328      28.57115753      23.35527350      -0.70769221       0.12313325       0.50993248
S       26.35826183      23.61953272      31.64012194      -0.81390740       0.01413195      -1.79761156
S       28.08986061      23.79903676      25.68433431       1.27449674       0.49981719      -0.05911321
S       27.25591068      26.70265124      28.53328143      -0.80742891       0.79458146       1.16739726
S       24.24422511      28.42270438      27.55338836       0.99103099      -0.06597657       0.53668259
S       24.33457377      24.62029793      27.31045211       1.35510524       0.64749272       1.56120576
S       22.43331024      22.83830507      33.39029371      -0.27386476      -0.33134742      -0.53991539
S       22.93611257      27.16223747      40.23237191       0.33101443       0.40692578      -0.38774256
S       27.25677537      27.08753707      33.04567141      -0.83963701      -0.36507923      -0.71706147
S       27.40680867      22.56183043      39.66457581      -0.32926509      -2.19372000      -0.70977007
S       26.20352926      23.42499650      35.46241280       0.29267713       2.47258051      -0.36512627
S       26.15221359      26.09649470      38.46382718       0.49761303       0.25857692       0.66572918
S       23.31499319      26.23507546      35.90384604       0.03003729       0.05486198       0.17238327
S       23.69946947      23.23280157      38.25027738       0.75794225       1.12102602      -0.21216263
Sb      14.46269043      14.15574929      41.63535352      -1.48308365      -0.22870257       1.73681807
Sb      17.97544810      17.51045520      26.00136757      -2.74282235       3.46029419       1.86301062
Sb      13.87680574      28.38639540      32.84574311      -0.70079431       1.56571160       0.53879264
Sb      17.28526131      17.92592401      37.20369443      -1.40051096      -1.05976174      -1.39510928
Sb      17.21683199      20.77289232      26.56334416      -2.28269313       2.88390672      -0.52226752
Sb      19.01883389      26.52085228      27.69377867      -2.62987713       2.97136475       1.89546738
Sb      14.39440008      20.95377515      32.33452807       1.43509833      -0.30338838      -2.89932630
Sb      17.79060241      24.89464207      37.08592402      -2.55861825      -1.58244867      -1.32075331
Sb      24.64937713      26.97743380      22.37371485      -0.18163878       0.58060911      -0.83021531
Sb      26.12937188      20.03071919      26.94339279       0.06844921       4.84467989       2.46703197
Sb      20.93821534      14.47381129      32.72291591       4.18733191      -0.36789748       0.15067058
Sb      24.64823958      17.77490065      37.20399836       1.60416509      -2.18678894      -2.48511265
Sb      23.23750506      20.38935978      22.73751349      -0.81024955       2.16044265      -0.69340207
Sb      25.63981187      26.66949005      26.66564525       2.24331214       0.51917715      -2.29096692
Sb      21.46468638      20.95219998      32.07116609      -1.69166982       0.87817345       2.97700827
Sb      24.89895482      24.78520576      37.01456749       0.58240535       0.13373497      -2.17822394
Na      28.53607768      17.81897805      42.83184460       0.11771652      -0.68421778       0.04916570
Na      17.67436372      28.84318513      48.48458812       0.32819940      -0.36284180       0.01234187
Na      17.40126678      14.25180859      44.58187639       0.38909610      -0.28308993      -0.94678921
Na      13.96550118      17.75952143      46.63874976      -0.68815435      -1.02496243       0.04309860
Na      27.72500939      28.63657550      46.10492782       0.09015166      -1.31788554      -1.27408464
Na      17.96862174      17.64148627      41.64498557      -2.07795309       0.80614154      -1.15835098
Na      14.52649524      17.82592191      50.00322125      -0.06513476       0.38024178      -0.40586060
Na      17.52942142      14.61767997      56.59072880       0.17226324      -0.28325132      -0.11644949
Na      17.49983294      14.44834835      52.64204467       0.19336993       1.16351036       0.78196953
Na      14.41727678      17.98854496      53.59844193      -1.27763100      -0.50657643      -0.06589841
Na      13.41851799      14.46087267      53.50714094      -0.43828466      -0.91134422       0.03740710
Na      17.82603182      17.34295717      49.50845663      -0.49514827      -0.21184264      -0.67127848
Na      28.60649889      24.83788097      42.76498485       0.55375454      -0.83470626      -0.65995745
Na      17.60706065      21.44981490      48.25661881      -0.51855271       0.14596804       0.32419767
Na      17.61129072      21.23924607      44.74973985      -0.10495165      -0.86007193      -1.03810032
Na      28.58316070      25.20330247      46.16659568       0.53490071      -0.38051153      -0.37128928
Na      28.06917501      21.32691964      45.56207498       1.54040209       0.05665609      -1.90333789
Na      17.91269849      25.78700175      40.85415433      -0.84684905      -0.18458426       1.45748539
Na      28.76655702      25.15080000      50.33333894      -0.80083202       0.07086424      -1.18089293
Na      18.19217184      21.81349790      54.94643810       1.23227359      -0.00847214       0.38169278
Na      17.80526763      21.45904359      51.57031639      -0.70241435      -0.76820863      -0.09584595
Na      28.36660670      24.70456058      53.73087670       0.14875361      -0.75380019       1.58088859
Na      28.92039422      21.07017670      53.22300092       0.56422352       0.79797216      -0.29576401
Na      17.92241995      25.47292626      48.97175359      -0.17349812      -0.37341532      -1.65681783
Na      21.31629143      17.84108884      42.12389266      -0.56190598       0.61493827       1.18602156
Na      24.58659532      27.99849838      50.82715125       1.38188014       0.79637654       0.74348510
Na      24.35876850      14.22367498      44.45682929       0.93320486       1.15422374       0.62403226
Na      21.24294391      17.81120047      46.25804947       1.12084677       0.28261518      -0.65090880
Na      21.11280487      28.44423960      44.78375509      -2.10406543       0.72047454       0.63869017
Na      25.55396842      16.94224273      58.44818027       0.01096529       1.03203179      -0.05810206
Na      21.73267326      17.90328278      49.56028612      -0.04932968       0.66856873       0.38453793
Na      25.15791149      13.92349373      56.17416023       0.95324587       0.96075219       0.33655854
Na      24.58516872      28.56799540      54.49345243       0.97994850      -0.07454000      -1.67133684
Na      21.27680563      17.45714248      53.05761054      -0.11756324       0.78620033      -0.04483594
Na      20.75188003      28.32072491      52.77124102       0.12478496      -1.22998348      -0.56383215
Na      24.89931812      17.80615940      48.95817643      -1.28938577      -0.04090676       1.22394417
Na      21.47400072      25.18740929      42.53782053       2.26964837      -0.40102287      -0.39540488
Na      25.03579012      21.23628375      48.34793627      -0.19978068       0.68046702      -1.15557948
Na      24.65778244      21.49948519      44.38152591       0.47755826      -0.01841415      -0.03405482
Na      21.47369317      25.44248011      46.69613783       0.59457504      -0.06283865       0.38964482
Na      21.19169440      21.90192611      44.98582803      -0.36731642      -0.42885575      -0.27828570
Na      25.00805102      24.59865974      40.77420245       0.52542801      -0.36224917       0.68144089
Na      21.25184308      25.22679722      50.56949170      -0.17838844       0.57204566       0.49878591
Na      24.83178646      20.98979702      56.31539398      -0.58650799      -0.73126499      -1.06516704
Na      24.81786687      21.43925904      52.37352273       0.02854455       1.10160643      -0.27246083
Na      21.06353821      25.05590489      54.57735567       0.09020485       0.53225737      -1.01336788
Na      21.34324100      20.95987212      52.85646612       0.13034712       1.25992149      -0.31448181
Na      25.11009532      24.16847585      49.15925836       1.35386517       0.28303768       1.62620395
S       16.13531110      15.59444605      42.53090465      -1.03050475       1.80124058       0.84004130
S       15.53621197      19.88417314      48.04664056       1.02069533       0.39046933      -0.17398971
S       19.81755674      20.25431136      42.73055070       0.78144800      -0.05399886       1.00547937
S       20.20996343      15.82274271      48.34542122       0.13555932       0.19019572      -2.03115052
S       19.07566606      16.53084716      44.35879549       0.90273831      -0.61161695       1.74413148
S       18.76639599      19.40572691      46.65869814       0.42181285       0.53045470       0.30969571
S       16.00317348      19.04972019      44.25031358      -0.10758675       0.43624158      -1.07952169
S       16.23621572      16.36560762      47.03156194       1.26092702       0.39422240       0.34173933
S       15.63373633      15.44936077      50.76955266       0.10227551       0.09324976       1.95921593
S       16.40736574      20.37996029      56.24341711      -1.00066983      -1.79896541       0.61025281
S       19.81777801      20.16056357      50.37279688       2.20507991      -1.11791632      -0.17749049
S       20.29015748      15.60814887      56.04460997       0.56015415       1.03638343      -1.90030586
S       19.00653105      16.75629981      51.89453625       0.23686224       0.37931885      -0.29948147
S       19.38106957      19.34200727      54.64684352       0.16726311       0.56463115       0.82820397
S       16.28020085      19.20247451      52.05875359      -0.45298228      -0.01630951      -0.99690264
S       16.39861732      16.62454926      54.72373565      -0.22869164       0.47013413      -0.86291871
S       15.60359767      22.39626717      43.02991498       0.91311129       0.76090409       0.13149461
S       15.36794334      27.26425603      47.62430245      -1.74022830       0.81661282      -1.39396720
S       19.83589669      27.45132487      42.60694859       0.53119968      -0.10048151       0.00515635
S       19.83592458      23.17479382      48.09074721       0.50764309       0.07607847      -0.45353203
S       19.46212315      23.87383328      43.79077987      -0.66357594       0.60625349      -0.33745093
S       19.13260412      26.91870320      46.27387148       0.14828604       0.75447476      -0.66311644
S       16.17996127      26.45742041      43.88854632       1.28260641      -0.40448952      -1.03897589
S       16.77591062      23.75581198      46.51436836       1.77028908       1.54910780      -0.42851426
S       15.52428083      22.74643273      50.72230966       1.14786654       1.67603292      -2.37749826
S       15.49409128      27.55099093      56.01469530       2.40174707      -1.94239855       0.66829427
S       19.43846249      27.35008091      50.36455016       0.38325444       1.51052731      -0.12467048
S       19.98143314      23.24340295      56.84730158       0.36332189       0.27300017      -0.86166055
S       19.45861394      23.73268447      52.41424981       0.96727638      -0.02440242       0.72996923
S       18.83985975      26.87108963      54.36773957      -1.55391001      -1.51559416      -0.27153922
S       16.42325202      26.16174713      51.44666760      -0.78825387      -1.50393570       1.63171155
S       16.27297278      24.06066418      54.52131983       1.31762923       0.24018855       0.51386281
S       22.81183084      15.75402743      42.54594850       0.87525054       0.22827232      -0.56493887
S       22.54243827      20.06386517      47.84121035       1.04394692      -0.34232043      -2.14628101
S       27.03644844      20.21908045      42.83567891      -0.46998340       0.45793582       0.44570257
S       27.23488448      15.64301557      47.92213452      -0.47002167      -0.09097398       0.11804751
S       26.35119029      16.36634594      43.92750003       0.83028719      -0.52605369      -0.86237874
S       26.04260439      19.36340338      46.62096794      -0.81156012       0.91815478      -0.06552210
S       23.48575777      19.13998364      44.07254127      -0.77253640      -0.85764850       0.31283929
S       23.62463292      16.21026385      46.62855911       1.92475889       0.60496725      -1.09310270
S       23.32201897      15.63333575      50.32382344       0.56798154      -0.22289406       1.14275310
S       22.28344314      20.26090428      55.45378817      -1.46531429       0.30335070       0.72635499
S       26.81760481      20.30017122      50.70996257       0.53275194      -0.80501095       0.36463626
S       27.32818739      15.58593918      56.11476834       0.47137570      -0.43099303       1.28079576
S       26.57116060      16.66200020      51.93606745      -1.62226580       1.78219670       0.25665289
S       26.14603154      19.55111591      54.23869356       0.71303600       0.00046773       0.84562985
S       23.30200233      18.86653551      51.77776584      -1.07231778      -1.32682509      -0.29424280
S       23.85611401      16.21760024      54.72985693      -0.21369194      -0.36064659      -0.08367190
S       22.79501028      22.80542650      42.26754574      -0.49788040       0.56891735      -0.21559761
S       22.94550586      26.99608104      48.62913595      -1.49080633       0.65212324       0.89957192
S       27.28457538      27.57957828      43.24626452       0.76102879      -0.19570677      -0.07864711
S       27.37038762      23.09869987      48.12027394       0.19931340       1.48841475       1.59833553
S       26.29548913      23.88906551      44.05260260       0.08248947      -0.85976116       0.56996549
S       25.99038806      26.33949612      46.78380869       0.83439222      -0.26526187      -1.17207705
S       23.09361202      26.52370256      44.33498549      -0.67036469       0.44244803      -0.66828910
S       23.42968484      23.25981370      46.34500844      -1.16845938      -1.52842377       0.49541440
S       22.61602000      22.73682045      50.61560741       1.06962601      -0.77397787       1.14695989
S       22.31985765      26.81087963      56.44607538      -1.17774427      -1.28683075      -0.03066839
S       27.42185087      27.56378387      51.42061392      -0.14766946      -0.16799652      -2.17982227
S       26.97464272      22.74050223      56.29462668      -0.66971034       0.24836441      -2.04957475
S       26.16893290      24.36035074      51.90940507      -0.41116365      -0.38053647       0.50850923
S       26.03528930      26.05718521      55.15518105      -0.34221781      -0.51913797       0.57532585
S       23.22692220      26.52977107      52.59364967      -2.19876861       1.03492260      -0.39909929
S       23.12731807      23.29913099      54.53069893       0.77005397      -0.24169254      -0.69281293
Sb      14.12380412      14.48542818      57.36126044      -1.92590956      -0.84933658       3.49173584
Sb      17.45115456      17.80722704      45.61224007      -4.53912308      -0.35641857      -0.03511283
Sb      14.04634015      28.56962067      49.31014917      -1.62199228       0.01750302      -1.12424366
Sb      17.80809236      17.99561146      53.47539636       1.10586906      -0.47796508      -0.19040597
Sb      14.22208419      21.13171231      41.60179617       1.66156466       0.71310050      -2.69961037
Sb      17.87434769      25.20518634      45.03757570      -0.13849549      -1.58652511      -1.92279660
Sb      14.18141709      21.41802657      49.36311379       1.08234303       1.30164945      -1.93373532
Sb      17.77459319      25.17781261      53.09506768      -0.37338133       0.04900313       1.50937367
Sb      21.31421977      28.65665268      41.14793657       3.15065235       1.29937228      -0.00537742
Sb      24.95035579      17.66227458      45.29094683       0.74735983       1.43540964       0.49966747
Sb      21.44052592      14.23002234      49.60093287       0.33216180       0.88885815      -0.18742414
Sb      24.94205338      17.75375655      53.24409832      -2.31134692      -0.63339395       2.55098820
Sb      21.20873781      21.30842280      41.22816889      -1.49857321      -0.23658898      -1.46405586
Sb      24.73133106      25.04201329      45.29429519      -1.72932262       1.13271377      -1.37855773
Sb      21.23233586      21.56751097      49.07464223       1.50568416      -1.08825450       0.43321742
Sb      24.62557579      24.90918995      53.60365519      -2.26375792      -1.81681833      -4.06338798
Na      28.83207184      17.70987076      57.21265882       0.97036555       0.31352587       0.04550390
Na      18.04593332      28.40895821      63.90871953      -0.12457330      -0.01716896      -1.47660527
Na      17.88073556      14.39606685      60.36504816       0.40850893      -1.09340758      -0.33753237
Na      14.33284547      18.86140760      61.01171894       0.15868821       0.50160093      -0.47106504
Na      28.87916446      28.89673247      61.29878646      -0.38673353      -0.87723044      -1.59857349
Na      18.23962126      18.33920802      57.51061168       0.19193855      -0.48368488      -0.21712689
Na      15.17159997      17.46163301      65.46274092       1.61816719       0.13466031      -0.38596897
Na      19.08398499      15.80353055      72.87307436       1.02340536      -0.17510100      -0.02225733
Na      17.84683191      12.95792020      68.97350833      -0.19523424       0.25545511       0.57163120
Na      11.99313113      17.14294221      68.14049778       0.91384185       0.62836085       0.03532195
Na      17.52970426      16.21644580      70.29649424       0.70780774      -0.80029963      -0.55285797
Na      18.59530643      17.90805926      65.85443856       1.10539070      -1.50245434       0.64253598
Na      28.87567480      24.90416916      57.06736802      -0.25482190      -1.51314737       0.37278226
Na      18.77136039      21.95387656      62.79105708      -0.48180008      -0.26051373      -0.18541337
Na      18.28359120      21.87541721      59.27376796       1.04514013      -0.71898558       0.03690263
Na      29.40725074      24.64446468      60.66878426       0.04991718       0.26487606      -1.44355421
Na      29.45783605      21.60096468      62.40629055      -0.10435036      -0.32611712       0.08332281
Na      17.68617499      25.21815816      56.79515904       0.17917521      -0.50031102      -0.45969812
Na      25.88547517      24.67554994      66.24387271       0.33701728       0.14997576       0.34263387
Na      18.71654829      21.17289491      72.16678919       0.85684626      -0.81168393      -0.31807217
Na      18.21335883      21.68436961      66.06192456       0.47784785       0.51718110       0.36239694
Na      28.24516063      26.23746003      68.69720009       0.40055577      -0.07716605      -0.25634633
Na      27.70496300      20.67942838      70.06030548      -0.07031215       0.13019639       0.22464252
Na      15.82259111      24.61268046      67.07124045       0.14640249       0.01387600      -0.52737576
Na      21.83468045      17.88164710      57.02620114      -2.59558686       0.43082758       0.96201146
Na      25.69788686      27.67544401      64.09563563      -0.41125131      -1.00374572      -1.47196046
Na      25.29973419      14.11941498      60.83347922      -0.06431313       1.20310060      -0.71014504
Na      21.59146627      17.34025993      61.02407584       1.50491560       0.42035563      -0.01130685
Na      21.46361761      28.11878390      61.22388523      -1.12526509      -0.10603661       0.80735735
Na      25.57340369      18.69857627      75.15378926       1.55026693      -0.29982660       1.26407849
Na      21.98606293      18.25669187      65.23283395      -0.53357756       0.77508348       0.84876087
Na      25.91385130      14.77279595      69.09260333       0.45011532      -0.76591029       0.97787010
Na      26.19933244      29.50128777      68.61147129       0.85669783      -1.10541199       0.04868296
Na      21.88788943      18.91986196      69.03655722      -1.61362739      -2.51913474      -1.47098368
Na      21.05138855      28.45378219      70.70048864      -0.50316496      -0.56171348       1.34754324
Na      25.89062186      18.41257964      65.81024182       0.22172203       0.86270252      -0.79938976
Na      21.65886087      24.96434522      58.80898466      -0.63071359       0.10375272       0.33782525
Na      25.51078634      22.26996129      63.29918934       1.10017433       0.10358108       0.88272676
Na      25.41325417      21.10318208      60.11269016       0.89073932      -0.26946818       0.99740101
Na      21.81935627      24.30739654      62.49620533       0.27338828      -0.74018870       0.85282287
Na      21.60921174      20.83647943      60.99369808       0.68948502      -1.71964782       1.09105149
Na      25.52703370      24.21056028      58.57715881       1.08175821      -0.71251403      -0.64774469
Na      19.15115302      24.71767603      65.51403414       1.72558428      -0.22236084      -0.01226297
Na      25.80871744      21.42072104      67.37639066       0.54597528      -0.36370426      -0.27502402
Na      22.33003498      27.06240474      64.29794575      -0.09988693      -1.64278809       0.27985998
Na      21.28786430      24.61350269      69.07268084       1.30649696       0.49240712      -0.09766013
Na      19.61926682      21.40738368      69.16056083      -0.47143826       1.06806165       0.75814437
Na      23.69725425      27.23629967      68.08471123      -0.02653101      -0.49495104       0.35259265
S       15.74949908      15.79343018      58.59575326      -0.36744773       0.80482933       0.23118727
S       16.32486441      20.02968847      65.52808816       0.38388290       0.25904371       0.50392295
S       20.40840931      20.01350914      58.69570118       0.62560064      -1.52929951       0.31127949
S       20.33772117      16.01564916      64.56531377      -2.11284528      -0.52589589      -0.06213281
S       18.97586409      16.94634265      60.13542829       0.39099178       1.62430359      -0.77609912
S       19.85459707      19.36282489      62.86142960      -0.54924222      -1.06259832      -0.58505438
S       16.69938949      20.36578953      60.93060663       1.76020308       0.18296434      -0.44188128
S       16.27032909      16.79308313      62.68399572       0.53763614      -0.81719620       0.12633411
S       16.32964086      16.48652531      67.69311405       1.44757419       0.59011851      -1.23873122
S       14.81218626      20.71663094      75.95879101       0.33294841       1.43583254      -0.09462490
S       20.43613778      19.95306153      67.11261916      -1.28361490       0.03153685       1.61032881
S       22.68069507      12.45110936      78.42203897       0.35595075      -0.68739619       0.23974291
S       21.35235618      17.40806793      73.47310575      -0.31297386       1.51104922      -1.14464592
S       20.05994691      21.29718934      75.28535773       0.72783099      -1.34983913       0.67389207
S       17.59340802      19.39513220      70.19814387      -0.65848418      -0.20631801      -0.51486904
S       17.89633429      17.52948856      76.74236268      -0.33280716       1.12296349       1.24213577
S       15.38808251      23.19526529      58.82330229      -0.36331374       0.73988777      -0.95751004
S       16.04322179      27.67891702      66.41330743      -0.91973484      -0.14873494       0.39644242
S       19.37609707      27.27571814      58.56986750      -1.06100207       0.07530396      -0.85624190
S       21.01799460      22.48306235      64.47228607      -0.29553919      -0.11207236      -0.95540235
S       20.09033816      23.47419085      60.78194659       0.52383020      -1.27340531      -1.04803367
S       19.93140942      26.55540129      62.80443392      -1.45106660       0.67759200       0.41039558
S       16.50502805      27.21372915      61.85762783       1.21445106       0.91451336       0.17577147
S       17.16781028      24.02429819      63.82638996      -0.75143954       0.36875157       0.79277406
S       18.22886777      23.81806083      68.00337431      -1.76814052      -0.03667435      -1.84057251
S       13.33393800      31.17379918      76.09377839       0.00274948       1.70175781      -1.31171665
S       18.67743722      27.16098636      71.12160461       0.25565981      -0.46091637      -1.41704283
S       24.36594850      21.46246668      76.03403521       1.00146097      -0.34936284       0.05933312
S       20.81856423      22.88551062      71.23430121       0.17391678      -0.23616854      -0.51490038
S       22.06877961      25.80177004      74.64688523      -0.82262740       0.59038167      -0.32599464
S       17.61382397      27.49096053      75.16027199      -2.57137811       0.13582878      -0.39548226
S       16.60964498      22.84385759      72.71221781      -0.87213545      -0.29934508       0.64296766
S       22.81583342      15.71241567      58.75843003      -0.38639551      -0.16692749       0.04936485
S       24.00744330      20.42663926      65.80977517       0.17212814      -0.84702914       1.05166074
S       27.53312673      19.80267505      58.73635860      -0.05848544       0.00970228       0.25480065
S       27.45048907      16.07206808      65.27087641       1.12484456      -1.58630199       1.22907090
S       26.80233699      16.36092702      60.90235678       0.83516421      -0.04775925      -0.55871885
S       26.74729196      19.55087293      63.18435775       0.51216093       0.47564835      -0.52122953
S       23.93244558      18.85226055      60.60752377       0.72462552       1.70141962      -0.25241956
S       23.98822803      16.48707243      63.69502289       0.42319039      -0.66272984       0.26107402
S       22.56501049      16.63925173      67.54698075      -1.61433509      -0.47928896       0.58000816
S       22.14822001      17.71352239      77.68881729       0.43519602      -0.72543368      -1.02103753
S       27.97942854      19.65521771      67.41736989      -0.86354789       0.46621701       0.49879475
S       29.04395428      15.90721419      73.91727830       0.29614474      -1.13297206      -1.65596506
S       27.01207771      17.30218917      70.19127150       0.44367186      -0.15822455       0.48954006
S       27.32351269      19.73787388      73.11300464       0.08837102       0.07497337       1.10305184
S       24.13520297      19.87898992      70.84259571      -0.42667445      -0.78730099      -1.17125968
S       23.45742012      14.33089687      70.86857119      -1.16787617      -0.22994002      -0.39351185
S       23.29333758      22.27767093      58.74451349       0.12948362       0.31851752      -0.42814966
S       20.94781168      26.78865833      67.29370172      -1.07510902      -0.01219138       0.36909632
S       27.73920790      26.90542905      59.28222362      -0.46565236      -1.39833617       0.90454663
S       28.04541773      22.63106422      64.98880219      -1.19891060       1.54095909      -0.34254375
S       26.51227820      23.42006891      60.98570617       0.40162863       1.76776965       0.08605196
S       28.26679249      27.62300914      63.64965656       1.83541300       1.98137996       1.48544467
S       23.94072810      26.18490698      60.14503404       0.14605067      -0.65939206       0.98825986
S       24.36353906      24.98469848      63.92074897      -0.95396504      -0.26411737      -1.37230987
S       23.83578176      24.57842391      68.83020822       3.10765599       1.03658848       1.87953239
S       25.51724143      25.81976350      77.34190937      -1.27317397      -0.04336917       0.01711634
S       26.31814202      27.17949167      66.74857060      -1.30233272      -1.06661731       0.15064386
S       27.51057387      18.80923975      77.62618600       0.75328881      -0.31014375       0.46527438
S       27.20301605      23.39705571      68.72145164      -1.42052469       2.35821974       0.01657678
S       28.41766211      27.66825668      73.42694078       0.15786688       0.53368858       0.43052680
S       24.04192350      27.88411315      70.97913296      -0.43641533      -0.06682085      -1.47662387
S       25.40830959      24.05804623      72.27785977      -0.18842288      -0.06240423       0.53218851
Sb      14.51821095      14.41942136      76.88728749      -0.38987812      -1.56220564      -0.37680145
Sb      17.95910954      18.37580660      61.69043928      -1.61094932       3.42712117      -0.03478858
Sb      14.27658110      29.47462800      66.83306691       1.53776223       0.11017585       0.98382066
Sb      19.70061551      18.45441303      71.58951533      -2.77918605      -0.28484859       0.04661026
Sb      14.51290146      21.57509950      57.35366277      -4.59620703      -2.00545013      -1.15481542
Sb      18.29474013      25.10674262      61.76568144      -2.68880109      -0.92498493      -1.68317223
Sb      14.52556781      20.97548129      66.81479702       1.13971816       2.02158475      -1.12468020
Sb      17.04717187      25.02875395      74.17085072       0.38655347      -1.26286041      -2.80655789
Sb      21.03520107      28.42844573      57.49275612       0.06235325       0.47549887      -0.62358840
Sb      25.43763620      17.82275712      62.13086003       2.46145262       0.09745561      -0.36800288
Sb      21.05979014      14.95495687      66.55740872      -1.21294581      -1.80268914       1.29589773
Sb      25.63820598      18.25628280      71.93649079      -2.41269016      -1.11549837       1.68791755
Sb      21.50058609      21.51764915      57.35727245       0.90750739      -3.50942623      -2.90499930
Sb      25.67938869      25.65643273      61.80658807      -1.69828788       2.07139583       4.78811137
Sb      22.13328258      21.81898505      66.48442141       1.17755550       0.50743420      -1.38566858
Sb      25.85367196      25.10512371      70.04226578      -2.58854229      -0.90930500      -1.95693396
Na       5.17227690      -3.79618554      74.40758510       0.52263205      -1.47155492       0.67455587
Na       2.94501770       1.94677130      77.65704102      -1.05854564      -0.83800348       0.48279753
Na      -1.63533058      -1.79037160      79.25518259      -2.18242932      -0.86256283      -1.32514015
Na       1.91199177       1.15528644      80.57929789      -0.77718963      -0.33164954      -0.27003008
Na      -4.63116921      -0.20466525      81.37055162       0.32031745      -0.58094635       0.61951596
Na       3.13277328       3.10375493      83.06085378      -0.07458467       0.86105406      -0.72250370
Na       0.79721348       0.40412828      84.31505733      -0.29831572       0.76129178       0.47125017
Na       2.08538983       2.26449885      87.10716719       0.10509220       0.59322948       0.20536211
Na      -0.16024953       0.02046432      90.02828935       0.20916254       1.42496740       0.30245340
Na       2.25832610       2.34623543      92.14041142       0.56881723      -0.02048043      -0.03683468
Na       0.50303168      -0.29418353      94.61209011      -0.04254646      -0.44588969      -0.11285788
Na       2.15844543       1.85918430      96.87374047       0.41306771      -1.33421697      -0.60716809
Na       0.88103356       1.83817942      70.99681005      -1.11873205       1.32164980       0.35825566
Na       0.87335844       3.13524905      76.25191345      -0.37208033      -0.54325941      -0.40323201
Na       0.47323549       6.04618102      75.68009491      -1.14917350      -0.18772893      -0.47750600
Na       0.64375916       5.34316535      78.78389300      -0.34989637      -0.97222134       0.81606022
Na      -0.03187248       3.92623447      81.22452600       1.13357134      -1.36376225      -0.22116678
Na       2.51349185       6.66569396      82.29493158      -0.27562288      -1.04729740       0.81586200
Na       0.37959335       4.52017159      84.59647538       1.12709231       0.53311594       0.23770171
Na       1.74922650       6.05713806      87.33342884      -0.21035994       0.30124277      -0.46539513
Na       0.28346844       4.31528985      90.12955130       1.16417586      -0.12340408       0.56361744
Na       2.07054392       6.51052838      92.28239276      -1.30833626      -0.68704697      -0.93080529
Na       0.24897548       3.59901674      94.93073407      -0.13024861      -0.12561919       1.13342924
Na       2.15052238       6.06483256      97.10049892      -0.14149934      -0.28813687      -0.38298382
Na       0.91912156       5.13753135      70.28276927      -1.12485541      -1.10454729      -0.52255646
Na       2.13331405      11.32719963      75.48193216      -0.26908922       0.03654154      -0.11037125
Na      -2.50751497       6.24608503      74.57700830      -1.45726470       0.77729177       1.13504790
Na      -0.08553714      12.82126908      77.72363650       0.39165319      -0.09114544      -1.52436448
Na      -0.86408728       8.32198452      81.05451998       0.51888843       1.14634599       0.22651464
Na       2.58880558      10.01631685      82.47829465      -0.26284509      -0.46424847       1.28143267
Na       0.24274160       7.90554851      84.47668326      -0.24820533      -1.24172880      -0.66685591
Na       2.37632478      10.09070520      87.22201997      -0.07334148      -1.61285587      -0.26611115
Na       0.13994140       7.86160034      89.90270201       0.60173058      -1.33521725       0.56516701
Na       2.17209940      10.03536586      92.03931622       1.31867159       0.26654243      -0.40442984
Na       0.68583457       8.32045742      95.05868357      -0.31481550       0.27107715       0.70538367
Na       1.50834505      10.00010751      97.85437398      -1.07633992      -0.14147257      -0.71170211
Na      -0.15479528      14.90730687      71.48333314      -1.11896320       0.26748757      -0.42084884
Na       3.13414100      16.34448899      77.48058067       0.23927827       0.82986526       0.36991949
Na      -0.64138668      12.70822726      73.79503334       0.89543685      -0.24542852      -0.26076029
Na       3.78688154      16.82158252      80.66617077      -1.36749377       0.30356166       0.95203056
Na      -0.35813831      11.63435618      81.18927790       0.56717653      -0.00638618       0.04110483
Na       2.98988599      14.62732946      83.68145317      -0.51413437      -0.34953123       0.37951153
Na       0.38333132      12.10710603      84.64130818       0.77492569       0.23617659      -0.06654651
Na       2.61644186      13.43247325      87.38634000       0.85760886       0.35019254      -0.29698764
Na      -0.02750707      11.83804895      89.88367742       0.72507939      -0.11298879       0.21848262
Na       1.89764378      13.65727907      92.48882596      -0.67291802       0.67707900       0.31954593
Na      -0.09895418      11.92020437      94.42941235       0.42627131       0.28158621      -0.63276245
Na       2.45657722      14.28890183      97.06214627       0.76618205       0.47363017      -0.12476179
Na       0.59914074      17.82962358      71.87455160      -0.94779578       0.25501873       0.73064799
Na       3.31532044      17.03529044      74.25577158       0.39081642      -0.24201180      -0.16821546
Na      -0.31356136      15.83422771      78.07149170       0.02079092      -1.14573059       0.95001473
Na       0.85778336      18.47980779      79.59318864       0.03730112       0.57258153       0.09605316
Na       0.37053798      15.09355659      81.85445756       0.14213814       0.04721491      -1.64215595
Na       1.58432458      18.18638568      83.06414457      -0.64367704       0.60400737      -1.12256633
Na       0.83822776      16.64237038      86.43567204      -0.49119918      -0.00715041       0.35726884
Na       2.70381295      19.20453189      88.09636503      -0.24207901      -0.60682330      -1.30583964
Na       0.53660828      16.77706680      90.02374472       0.78868275       0.06274366      -0.29684591
Na       2.44961646      18.24615101      92.49794177      -0.65284786      -1.00021657      -0.28405123
Na       0.04218205      16.15031344      94.64754218       0.00961968      -0.70960576       0.03254849
Na       2.59665900      18.00966103      96.27713603       0.12888167      -0.52841358       0.56611030
Na      -1.45316113      21.54450333      75.87691594      -0.20083231      -1.27042155       0.22893099
Na       3.54118329      22.13880474      75.16924055      -0.71313593      -1.24796401       0.20387554
Na       3.00370199      21.70493443      81.11318205       0.72816206      -3.16961441      -0.10538138
Na      -0.36996830      23.38537762      80.65312004       0.39900049      -0.31826937       0.31917782
Na      -1.11757114      20.42260282      82.80625051      -0.47635717       0.02033097       0.82278483
Na       1.23806871      21.92464975      84.49576216      -0.59821121      -0.04430106      -1.14660445
Na      -0.27680956      20.14596070      86.45519786       0.98158493       0.19476603       0.40904087
Na       1.83577913      22.54655169      88.19507031       1.12511689       0.28799156       0.86463287
Na       0.06894533      20.42471163      90.40258310       0.13654656      -0.04627399      -1.75673795
Na       2.25563635      22.91762565      91.70313177       0.23902203      -0.32551931      -0.47029702
Na       0.47571090      21.07754398      94.26228158      -0.15167143      -0.60422934      -0.41690659
Na       2.77091630      21.91730865      97.17414515       1.20218004      -0.12842587       0.41866477
Na      -3.00776603      26.74368736      73.31993273       0.98629957      -0.39869582       0.86843258
Na       6.35949964      24.11148718      71.06499990       0.81751904      -0.83794660      -0.14213891
Na      -1.47199849      27.53052934      75.93818795      -0.07218882      -0.11134519      -0.59823517
Na      -0.79758401      29.35313944      81.18967643       1.10218104      -0.36518986       0.32051736
Na       2.03981211      24.59948263      83.04373957       1.16001829       0.14297970      -0.43758253
Na       3.61961033      25.38254484      85.76687992       0.18851104       0.81765095      -0.23531575
Na      -0.26271042      25.06038353      86.26672620       0.65445320      -0.11289891       0.39629920
Na       1.57023692      27.15441959      87.58347834       0.21370737      -0.56403477       0.51910033
Na      -0.52694315      25.15320548      89.93901364       0.28873640      -0.68988521       1.39401588
Na       2.52529774      26.47040885      92.57051370       0.20163385      -0.00299101      -0.12064644
Na       0.54193717      24.68549305      94.62781451       1.51189470       0.86926212      -0.08122031
Na       2.58261279      26.63342474      96.46788635      -0.31340001      -0.56083932      -0.84735744
Na       1.62006020       0.21049377      75.21341856       0.44218118       0.67783878       1.03331709
Na       5.24105051      -1.27418936      71.96210782      -0.62769672      -0.15974199       0.14010846
Na       6.29312526       0.26926803      77.57669988       0.63762724       0.92965160       0.77672017
Na       7.53544751       2.72884922      79.66155696       0.53699948       0.36592255      -0.65057112
Na       3.80431308      -1.12574911      83.00287774      -0.29024464      -0.57210864       0.78984681
Na       7.39467716       1.99148250      83.01680115      -0.89237943      -0.55058266       0.21864982
Na       4.70192925       0.30974720      85.22367845       0.24616611      -0.84808511       0.34928518
Na       6.83061196       2.37850425      87.87487391      -1.00011356       0.92037749       0.24880920
Na       3.87217492       0.27499236      89.66855871       0.08206346       0.30385698      -0.35277827
Na       5.98329143       2.12158777      91.83686463      -0.39362670      -0.33575707      -0.80854848
Na       4.89361272       0.03534117      94.24205687       1.05140833       0.59966471      -0.79974166
Na       6.35212941       1.83892609      96.93912136      -0.95410748       0.27255301       1.17067203
Na       6.69909830       0.27109481      69.81330357      -0.09131680       1.62497102       0.38626965
Na       6.20440853       7.15762455      76.26275281       0.88253781      -0.56410812      -0.12952200
Na       4.62163852       1.22753880      74.06605716      -0.08418017      -0.83482202      -1.15287229
Na       3.52278207       7.38851712      77.57898385       0.81080506      -0.37025687      -0.54308663
Na       4.12727122       4.38896496      79.42006038       0.34633061      -0.03852116       0.30205270
Na       5.78088443       5.20226579      82.61194891       0.53722489       0.28227445       0.26332719
Na       4.52693383       3.96701209      85.80006328       0.58520691      -0.54011496       0.17579779
Na       6.58789271       5.96267040      87.63780139       0.87825827       0.30655618      -0.01652258
Na       3.97173890       4.00312028      89.61950999       0.21161550       1.07029142       0.87203728
Na       5.59871052       5.84291546      92.88613952       0.23969730       0.11111422      -1.11237681
Na       4.25163914       4.19767779      95.54836599       0.16732252       0.64287262      -0.08831064
Na       5.91013294       6.23737385      97.59191441      -0.30117583      -0.86074872      -0.01961127
Na       1.86471402       8.25041680      70.13838532       0.37905127       1.01369911      -0.34901841
Na       4.91756660      10.79561638      77.36790013       2.00715689       0.37654451       1.23491117
Na       1.91819604       8.63701722      74.05692802      -0.23663943      -0.06527888      -1.37626432
Na       7.59296132       5.43113322      78.57344240      -0.48786545      -0.33256360      -0.91359006
Na       5.56025757       7.86594141      79.84570127       0.68666843       0.57750727       0.22682959
Na       6.30184189       8.58774956      83.14926906      -0.63095627      -0.52743407       0.16676866
Na       3.98731608       7.53333242      85.39555014       0.42352193      -0.99285284      -0.20139165
Na       6.50108653       9.89340050      87.26241284      -0.38664225      -0.53301296      -0.25321098
Na       4.30393053       7.99485749      89.50033452       0.32811416       0.17119587       0.18719843
Na       5.97080178       9.65717215      92.19561015      -0.07081920       0.47479186      -0.55662560
Na       3.89228423       8.57042174      95.37930502       0.12650077       0.45649881      -0.36627200
Na       6.03764878      10.05143614      97.35823431       1.23632883      -0.27556649      -0.08879072
Na       4.24487943      10.64531400      72.89153432      -0.69163684      -0.20045467      -0.55634611
Na       6.46804485      15.73365612      73.65081018      -0.69585284      -0.31991888      -0.25803039
Na       2.41072971      10.33120440      79.07223290       0.40323966      -0.55296296       0.15726474
Na       5.14003017      14.23996428      78.36273621       1.11446218      -0.13039579       0.09603818
Na       3.13621668      13.36740350      80.37270365       0.79627670      -0.84810955      -0.18028982
Na       6.32588665      13.86261341      83.14680814      -1.11684035       0.96980975       0.08967423
Na       4.83895566      11.52325330      84.82554859      -0.23205691      -0.58326279       0.20261143
Na       6.31615239      13.51288821      87.46757379       1.28767281      -0.51794157      -1.19006976
Na       4.22378420      11.69307335      89.56561359       0.87454003       0.85661657      -1.42827761
Na       5.73431790      13.48800782      91.90827505       0.82918179       0.23925812       0.12937233
Na       4.08121510      11.89305435      95.01773267       0.25677168      -0.66608751      -0.77378778
Na       6.22993403      13.77592842      96.74166029      -1.03162923      -0.20981987      -0.09803773
Na       3.69850014      19.77329487      72.52947608      -1.29397833      -0.43683521      -2.58896751
Na       8.18617517      14.85119459      76.10350993      -0.50244645      -0.60357126       0.97390713
Na       6.83076025      17.87678361      78.26875588       0.77601578       0.83395106      -0.21298006
Na       8.79247882      19.23637560      80.99893839       0.60761244      -0.53602415      -0.53004062
Na       3.54287303      19.46192901      77.79489564       1.00540204       0.38508903       1.91293013
Na       5.95809696      17.82925514      83.16865026       0.89661452      -0.33685272       0.71220704
Na       4.15627868      16.69351582      85.94951031       0.29943484      -0.77064225       0.28344661
Na       7.15934111      18.96617109      87.16604889      -0.47314125      -1.55360623      -0.22488866
Na       3.90124830      15.40555041      89.49963012      -0.92034904       0.88454949      -1.26421056
Na       6.25210844      18.10472180      92.18267417       0.36740349      -0.18456255       0.70893317
Na       4.03476840      15.39289287      94.19593806      -1.33739570      -1.22187341       0.17345662
Na       6.18157255      17.79349420      96.46414447       0.96154017       0.19580100      -0.06994075
Na       6.02415090      19.98546021      70.47912403      -1.36454058      -0.64629177      -0.33496542
Na       6.89893190      21.23463547      74.21354933      -0.05924642       0.35422216      -0.33672765
Na       5.41476723      18.86932118      75.53123427       0.15502438       0.35770992      -0.33773486
Na       5.50265387      22.21995973      78.65910257       0.63763557       0.90570168       1.00635753
Na       5.43077877      20.19149374      81.23003558       1.55799294       0.05011703      -0.80827683
Na       4.73074513      25.12053368      80.21709440       0.48399850       1.39910110       0.09379575
Na       4.04502104      20.39097443      84.75951608      -0.16806661       0.14679134       0.10882909
Na       5.63356012      22.38371460      87.41293760      -0.13038074       1.33583252       1.08615941
Na       4.63049509      20.73531533      90.70871460       0.13434824      -0.56483910       0.34965428
Na       6.57395527      22.86664815      92.41502639      -0.40167799       1.38600727       0.15218393
Na       4.60338999      20.73818772      94.26317832      -0.39603445       1.80798732      -0.65772669
Na       6.56905808      21.97854053      97.03778374      -0.45539397      -0.34326199       0.65030773
Na       1.88048425      25.97073137      74.95899463      -0.87225397       0.95934253      -0.50929413
Na       8.67943127      27.39028270      71.93923952      -0.89668694       1.18351712       0.54608278
Na       2.41744321      24.46801648      77.70131545       0.33659733      -0.68200257       1.46307707
Na       3.60012983      27.55675420      77.90220209       0.16655044      -0.44625850       0.61878944
Na       1.43168876      26.68379905      80.26049695       0.60750901       0.55218147       0.04088493
Na       6.55241395      26.30181603      83.69842614       0.51760721       0.91286734       0.29126904
Na       5.18658863      23.32591810      83.56982091       2.05145080       0.78613961       0.26285550
Na       6.39913348      26.53727247      87.47995988       0.30792654       1.02478187      -0.11987537
Na       4.46690599      24.58427367      90.07848105      -0.13184150       0.66037322      -0.03271034
Na       6.23278234      26.11591219      93.04455200      -0.48518520      -0.08053169       0.91744297
Na       4.13307474      24.18920411      94.76406015      -0.53499691       0.07253981      -0.61649327
Na       6.18303400      26.92911905      96.90000371       0.22524616       0.32900475       0.62158612
Na       9.53815694      -1.15096199      68.70353700       0.61944181       0.76206147      -0.13301641
Na       7.35877631      -0.35497723      74.73776190       0.15890333       0.85309375      -0.20417228
Na       5.19026540       0.30111368      80.66138611      -0.76280274       0.99353758       0.11265544
Na      10.37639000       1.67133630      79.50723909      -0.37446766      -0.27957964      -2.11089359
Na       8.00609990      -1.00127660      80.59565381      -1.28174167       0.49436197       1.27896412
Na      10.79969369       1.50180856      82.69336783      -1.29930032      -0.22852683      -0.34782321
Na       8.93464032      -0.21287210      85.17205080      -1.11747356       0.05509422       0.29572188
Na      10.15232908       1.78341958      88.04923461       0.02430533       0.33420878       1.73163404
Na       7.84331178      -0.19618004      90.41500470       0.23274267       0.09711525       0.44067601
Na       9.81470369       1.69744866      91.91744860      -0.15065264       0.23266247      -0.05342541
Na       8.70165910      -0.56967951      94.51261992      -0.94153658      -0.43227309      -0.30506014
Na      10.09167440       2.26492177      96.59715099       1.72603229       0.46407711      -1.64067743
Na       5.67754122       3.77576148      72.18142764       0.44298755      -0.44510988      -0.37626995
Na       1.75723121       4.06058134      73.28871531       0.12008259      -0.02642052      -0.56159978
Na       8.91776619       4.94920884      75.19492457       0.60514889      -0.10800003       1.13310209
Na      13.44594285       5.29449783      77.05312009      -1.62432279       0.92795298       0.78301570
Na       9.55779736       4.46747705      81.83017340       0.24976732      -0.63957825      -0.50030157
Na      13.34646445       4.87800184      83.06833380      -0.36497987       0.07641873       1.34394150
Na       8.39886200       3.56983804      85.37423351      -1.36775437       0.37052554      -0.68777908
Na      10.39022404       5.81814521      87.76993250       1.20853789       0.78742009       0.23610558
Na       7.78634229       4.19999174      90.72213500       0.02577242       0.00575683      -1.81127176
Na      10.16257312       6.05927826      92.63326128      -0.07456049      -0.42454333      -0.41632669
Na       7.64002709       3.79380764      94.48610157      -0.81155533      -1.16258371      -0.84067503
Na      10.26030591       6.23104262      96.72995596      -1.02376236       1.25638565       0.18682577
Na       5.13726368       7.20521112      72.64838805       0.34163629      -0.81132949      -0.68185272
Na      11.57803140      10.63837960      73.52579247      -1.25029281       0.30554608       0.21485155
Na       3.64957698       6.03617251      74.75783597       0.19076585       0.42436770      -0.89744362
Na      10.50610659       5.40525643      78.53157406      -0.77866331      -0.58954367      -0.52492262
Na       5.50424318       3.68816022      76.39366603      -1.07757483       0.08896391      -0.23181107
Na       9.44052022       7.96318992      81.33994722      -1.43824084      -0.54356605       0.31290259
Na       8.42969563       6.67285862      84.64063800       0.50034596       0.32376600      -1.20339103
Na      10.35992333       9.57539450      87.42285494      -0.94188772      -0.06934984      -1.02006344
Na       8.02462464       8.02408037      89.97747828       1.98305223      -0.50147444       1.23992248
Na      10.24584450      10.06573605      92.82180947      -0.10331036       0.20676630       0.82236787
Na       7.74568804       7.92707215      95.05977439       0.24252348       0.34243951      -0.65633477
Na      10.00663348      10.68876242      96.73565684       0.48676461       0.86908162       1.54555728
Na       6.66241995      11.23306172      74.76391005       0.07528536       0.53763164       0.54225713
Na      11.85210779      14.26020801      74.77033281      -0.03697229       0.63363007      -0.77019382
Na       4.44647414      13.94637256      75.51593141       0.00367984      -0.40237947       0.56596640
Na      11.49652165       8.68177526      77.99171807      -0.26374524       1.09765820       1.01541713
Na       6.42283519      11.25546381      80.09411923      -0.79522232      -0.90598388       0.85753568
Na      10.30111700      14.01113244      82.67622490       0.74476045       0.58668120       0.13422426
Na       8.19893305      10.97880959      83.91487107      -0.72041963       0.08635040       0.08490079
Na      10.38828579      13.09036978      86.95061970       0.76845344      -0.15283972       0.39381216
Na       8.24443255      11.93900221      90.04633549       0.05310237       0.56984267      -0.01293499
Na      10.07881773      13.75067755      92.35390954       0.35313523       0.71609228       0.13872794
Na       7.68506077      11.67276838      94.10817879       0.51712988      -0.09625956      -0.78047385
Na       9.96816946      14.10554963      97.27766653       0.77888228       0.25793573       1.16157968
Na       8.22133443      17.17173357      71.60088275       0.50778895      -0.18083447       1.67048141
Na      10.01124422      18.58842339      77.84825413       0.01977884       0.62598348      -0.72306304
Na       8.33981144       9.54881942      77.98878336      -0.66541004       0.04532150       0.50054066
Na      12.62634279      19.37272166      80.75454108       0.57315751       0.30596330       1.27012868
Na       7.73336338      15.90596611      80.82910670      -0.35055759       0.30502712       0.72908536
Na      10.14534153      18.17674166      84.06308858       0.13701787      -0.05322975      -0.47886545
Na       8.02336919      15.51544201      85.10131249       0.35194511      -0.51501924      -0.18186288
Na      11.15223729      18.00532474      87.29527839      -0.79417882      -0.05946093       1.20003050
Na       8.28201780      15.85869086      89.25801255      -0.72708469       0.99498720       0.60396980
Na       9.77220144      18.09289245      92.30296642      -0.86136396       1.25948671      -0.62163851
Na       7.79978013      15.52557420      94.72892777       0.55033623      -0.74870564       0.33914169
Na       9.99717721      17.85217888      97.00422216      -0.07479002      -0.72860408       0.61094625
Na       8.08091839      18.01595645      74.84332851       0.58220402       0.67593669      -0.30812004
Na       8.99628081      20.06925670      72.51720940       0.58771815       0.24606440       0.56185933
Na       8.29161480      21.07786588      77.26263022      -1.15137131      -0.75375809       0.89767859
Na      11.17860318      22.02697548      79.79519805      -0.32011662       0.55128947      -0.38433541
Na       6.71117255      25.39339140      77.28239562       0.44626991       0.03012835       0.19986696
Na      11.10568596      21.44650526      83.25929658      -0.07474178      -0.62313614       0.51550578
Na       7.65114130      20.71253971      84.17270771       0.65113106      -0.61013548       0.63016950
Na      10.92571609      21.49657950      87.26813609      -0.08314925       0.66239207       0.11274966
Na       8.08147370      20.46249474      90.14607920      -1.41086947       0.25128457      -0.70520134
Na       9.93877331      21.78722980      92.73745694      -1.36401369       0.10642792      -0.31978257
Na       8.22295271      20.33760233      94.56834588       1.15510505      -0.25649431       0.66481134
Na      10.37217472      22.17869443      97.30448701       0.06066843      -0.55009301      -0.01309790
Na      11.75858443      25.95397258      73.01141652       0.69076862      -0.29913623       0.07687771
Na      10.08812057      27.95745691      77.41374629       0.78330352       1.24679999      -1.46965258
Na       8.41518696      24.10360840      74.66880329       1.66128229       0.39794275      -0.05715736
Na      10.01078303      25.11615273      79.06612905      -0.17562672       0.58921691      -1.07777694
Na       7.89502285      23.40952431      81.64961518       1.06965310      -0.07624436       0.13757517
Na      10.36895936      25.89821784      82.36582637      -0.54935447       1.22733130       0.25646169
Na       8.98318192      23.75941448      85.51709684       0.06255980       0.94333478      -0.53589523
Na       9.86352882      26.32238321      88.14069774      -0.71316987      -0.62838574      -1.44889619
Na       7.86342454      23.84448518      89.68247340      -0.89885426       0.51646915      -0.64381855
Na      10.31676046      25.94667431      91.92854802       0.60504229      -0.52744373       0.41413777
Na       8.14324663      24.27173493      95.08493362       0.40906422      -0.58014620       0.21198616
Na      10.37987240      26.74357926      97.44902432       0.05488209      -0.67025645       0.45002757
Na      11.48773086       0.08729465      74.33916222       0.02083744       1.55342440      -0.43452662
Na      14.70887483       3.92719354      73.87173988       0.02552161      -0.15558198       0.46203770
Na      13.10075874       0.01313846      77.35115432      -1.10565743       0.28718530       0.72816014
Na      12.97373220       3.07230566      79.11474166       0.27372386      -0.15746467       0.99231053
Na      12.60184342      -0.72928291      80.68245868      -2.01371575       0.97368348       0.32533410
Na      14.59736297       1.50146211      83.16920768       1.42645714       0.54801300       0.18070143
Na      12.26692264      -0.30658154      85.46078154       0.50160649       0.21353200       0.32681759
Na      13.72604371       2.03677045      87.89180488       0.42139263       0.97072350      -1.50711336
Na      12.07677655      -0.10785635      90.05278121       0.53171020       0.61910069      -0.77561983
Na      14.29774200       2.08495290      92.67940655      -0.04586015      -0.81746950       0.82969096
Na      12.00938637      -0.33298188      94.29884420       0.79865954       1.13296263       1.47443649
Na      14.12353813       1.80721829      96.30708742       0.74776564       0.05860760      -1.36398704
Na      15.77275738       4.76577845      70.98886080       1.08828360       0.87271069       0.38660837
Na      13.01612582       6.39861904      72.51004599       0.48835961      -1.29131266      -0.14494727
Na      11.64818623       3.37818767      73.60332580       0.52590885       0.34175605      -1.75947789
Na      14.91033531       8.30969906      76.78746920       0.18526523       0.70943667       0.70577053
Na      15.83922569       4.34580745      80.64808546       0.01840157      -0.46454944       0.86490617
Na      16.08598524       7.06354834      83.74204620      -0.93112573      -0.20297082      -0.41697698
Na      11.66062799       3.35925940      85.46354598       0.54060708      -0.00873797      -0.41154588
Na      13.74817497       6.45355959      87.41447789       1.13361067      -0.15803622      -0.71185557
Na      12.15740311       3.87651203      90.11825035       0.51443469       0.55095755       0.75599218
Na      14.12202540       6.36454910      92.47901370       0.12342969       0.26145699      -1.08926709
Na      12.17937853       3.95119597      94.53940330       0.51735611      -1.32715824      -0.22481027
Na      14.09479725       6.48123221      97.50934338      -0.96802468       1.77443227       2.17338195
Na       9.46767941      11.41763984      75.89597824       1.00099011      -1.24106690      -1.12927486
Na      14.26012590       9.14169892      73.53057268      -0.44263551       0.00643651       0.15385412
Na      11.83302749       7.39453682      75.10643753       0.38369415      -0.87894687       0.00408783
Na      14.34469189      11.74548408      75.62129169       0.90733415       0.18849810       0.39945446
Na      13.23066959       6.87680062      80.51942815      -0.34230933      -0.83546974       0.64579633
Na      13.84960879       9.42685867      82.21202158      -1.21925686       1.57620068       1.00082995
Na      11.62400695       7.77307264      84.20497856      -1.43524342      -0.43022570      -0.42354972
Na      13.91460221       9.67659705      87.44956402      -1.64586633       0.14032149      -0.30876879
Na      11.69167527       8.32544041      90.40407910       0.09346085      -0.87394833       0.26234256
Na      14.44724786      10.53304642      91.90645246      -0.32577060      -0.15086399       0.04021276
Na      12.86217772       8.64834312      94.61402132       1.03181852      -0.12843894       0.51424376
Na      13.62126985      10.15611439      97.53917149       1.42826809       0.02495399       0.21193628
Na      15.16228243      12.61874045      73.32517010       0.16202403       0.41882845       0.19854389
Na      15.45576810      18.20431400      74.84894415      -1.54454445      -0.85250316       1.06996129
Na      12.53753462      12.11892476      77.15028035      -0.16427012       0.56634175       0.55964465
Na      11.46898597      15.70566439      77.18983363       0.33915060      -0.91451214      -0.76447447
Na      11.38947921      10.92156420      80.36683097      -0.32689864       0.41525504       0.06657062
Na      14.19148175      13.46685126      82.96858408      -1.75271645       0.23988449       0.96404063
Na      11.50930527      11.50067226      84.37515251      -1.54395744      -0.32434854      -1.03935599
Na      14.01298433      13.51386950      87.06351406       0.26250527       1.37277552       0.12551434
Na      11.90693573      12.06962455      89.90072480       0.88367097      -0.22488415      -0.00012343
Na      13.84639653      14.07821942      92.25121402       0.55766992      -1.15739701       1.98890875
Na      11.87737841      12.39039064      94.83476323      -0.86041975       0.32784446       0.54992763
Na      13.92278813      14.62948685      97.08612290       0.76934404       0.13379206      -0.62520171
Na      10.98607479      14.87181097      71.66231606       0.77675719       0.79232894       0.84873696
Na      11.32156351      17.71270358      74.49859403      -0.37283838      -1.07130795      -0.13979441
Na       8.95201167      13.49882588      78.78649046       0.69711426      -0.57741903       1.17641510
Na      12.84510390      18.85655448      76.90260555      -0.93875708       1.75774771      -0.17632384
Na      11.20186411      16.69314125      80.16984702      -0.00139642       1.27857324      -0.78432560
Na      14.60897365      16.59784654      78.88529275      -1.26917210      -0.87698088       1.41498295
Na      12.01747170      15.57045877      85.20109952      -0.04215076       0.80169757       0.02735895
Na      14.23754557      17.34382442      87.77693924      -0.49392415      -0.08514222       0.31812573
Na      12.05862423      15.57874717      89.85775254      -2.29035259       0.72090190       0.56938975
Na      13.89151634      17.60318841      92.74434346       0.75667589      -0.54017856       0.66839486
Na      11.43555445      16.30408014      94.81789725      -1.73687825      -0.47664676      -0.62756131
Na      14.17361262      18.46890743      96.58555661      -0.06333788      -0.21377998      -1.00729288
Na      14.98398518      18.57705280      69.75557821      -0.31216086       0.68260493       0.86396233
Na      14.59280221      21.21550605      73.25240144      -0.13045784       0.04623321      -0.10661339
Na      12.08261076      21.64156493      75.97925998      -0.18787212      -0.19633947       0.31806504
Na      14.49625212      21.57439630      78.53907741      -0.73538833       0.43657625      -1.03172186
Na      13.55225798      16.99264655      82.85692157      -0.20530491       0.48066951       0.89743473
Na      14.60704756      22.86462567      82.32873222       0.74269075      -0.24581399       0.36502156
Na      14.26782920      19.92185218      84.68107666      -0.24230691      -1.36470933       0.15985156
Na      14.27785781      21.64753402      88.12411133       0.56105142      -0.25925147       0.32793847
Na      11.79589112      19.72174781      90.28116890      -0.35554255      -0.87735075      -0.20334561
Na      13.91732122      21.88282180      91.93687335       0.33338299       0.00134511       0.67279368
Na      12.05144372      20.21235180      94.36648747       0.80288943       0.79684023      -0.33218991
Na      14.25314682      22.45140492      96.71255905       1.56029642       0.36770851       0.27178891
Na      10.99905632      22.34395591      72.37671656       1.10030601       0.21710218       1.95854577
Na      14.48369648      26.67830954      74.91607326       0.46476368       1.66307067       0.57187684
Na      11.36795849      24.93681548      75.99372384      -0.14760879       1.54803354       0.66665486
Na      16.57973217      26.60541628      77.30245513      -0.08407028       1.89028056      -0.24167171
Na      13.37776150      25.24462057      79.23313603      -0.24690825      -0.33142529      -1.25438886
Na      14.81183215      26.47024343      83.13041192      -0.67750997       0.30401185      -0.42981668
Na      12.78565610      24.69919996      85.33179188      -0.98430656      -0.85720908      -0.44613398
Na      13.79235005      26.49229661      88.70794216       0.89583841      -0.20625999       0.60872616
Na      11.64132394      23.63227984      90.00156265       0.67087202       0.26838501       2.09715233
Na      13.94085833      26.08520871      92.14279754       0.56790733      -0.02002217       0.71602702
Na      11.52284518      24.28297355      95.04447281      -0.40927920       0.12870524       0.23917481
Na      14.42943608      26.36606501      96.79792752      -0.38276932      -0.78084220       0.45333476
Na      17.34384463       6.33982588      68.44134900       0.54351309       0.18787294       0.24249906
Na      18.31876562       0.52663833      72.95147198       0.10980113      -0.23880891       1.10818417
Na      15.37133627       0.73766759      74.37436199      -0.27911041      -0.21685164      -0.68256968
Na      19.42016760       3.75016805      79.58058177       0.14651147       1.35901416       0.99776979
Na      16.25484642       0.42894189      79.69402442       0.81492911       0.25043873      -0.58211934
Na      17.68232040       1.94511181      83.57393303      -1.04615991      -1.44450352       0.88704076
Na      15.89074630      -0.36371533      86.11923423       0.25423232      -0.28529312       0.99656479
Na      17.69686107       2.44271392      88.16129205       0.54721975       0.21275560       1.48853235
Na      16.12442058      -0.10523681      90.37751530      -1.12284559       0.37899292      -0.53822182
Na      18.07493699       2.36653396      92.48466909       0.36454379       0.64511416       0.11322047
Na      16.41753440      -0.05525014      94.39394327       0.95193712       0.30166391       0.04081242
Na      17.62576886       1.99267377      96.40213012       0.71146142      -0.76563160       0.34504278
Na      14.51783662       1.50330865      71.23247049      -0.33716563       0.19310741       0.84684166
Na      20.05488898       7.84673468      72.34184242      -0.41409253       0.42703932      -0.80874099
Na      18.45907407       4.82033518      72.59592366      -0.45068009       0.31713978       0.29227580
Na      16.91390436       5.61349616      76.30473957      -0.97274724       0.32158349      -0.91323022
Na      15.93693417       2.44344282      77.27770632      -0.08757484       0.29719557       0.68888063
Na      18.89655056       5.14168481      82.96886224      -0.06190352       0.39616039       1.27442999
Na      15.99612609       4.12113930      84.98296164       0.38286980       0.32830575       0.67387758
Na      17.52863661       6.48825998      87.25938209       0.98883898      -1.21912711      -0.39163331
Na      15.81238866       4.71611481      90.21446559      -0.16699113       0.20310078      -0.55003521
Na      18.33643257       6.20474238      92.49531293       1.07908962       1.35039315      -0.63784905
Na      16.17815689       4.40442205      94.92217062       0.75886046       0.22869272       0.22523874
Na      18.34218083       6.17197788      96.81277427      -0.57684045      -0.13520832       0.15159642
Na      11.37237012       5.77842887      69.85809056      -0.61047794       0.53972312      -0.57884400
Na      17.48826522      12.93755591      75.93426974       0.59131037      -0.72544323      -1.25084347
Na      16.86241430       7.49501442      73.98535487       0.09586270      -0.87538139      -0.66464552
Na      17.08982424      10.52487040      77.74221349      -0.42085431      -0.88660570      -0.22563765
Na      16.65191979       7.65579706      79.84141381       0.90555135       0.94999681       0.77294214
Na      18.72930785       9.30532116      82.49698884       0.68621036      -0.95640107       0.49959079
Na      16.20796418      10.59067598      84.91733362      -0.90199089      -0.00164479       0.51778220
Na      18.33166465      10.15660641      87.90151822       1.27362960       0.09851646       0.27685933
Na      15.91213003       8.53843925      89.94051793      -1.10228365       1.03171321      -0.51449402
Na      18.47303695       9.89865511      91.54917142      -0.06696816      -1.06926309       0.97305083
Na      16.18231854       8.45654791      94.88408660       0.00454618      -0.31681762       1.47182612
Na      18.99794759      10.40839836      96.72276788      -0.13531001       0.15870139       0.14375029
Na      13.61861027      11.36169811      70.82739306       0.13825520       0.08229586       1.15904520
Na      16.86855139      15.73450615      74.99567355      -0.42092101      -0.79296989      -1.48831135
Na      16.95977943      12.53655368      80.38879825      -0.30911914       0.29162500      -1.17938868
Na      22.67748685      15.31847305      78.46206789      -0.93187958       1.03010203      -0.55740037
Na      14.07925879      10.57547950      79.48156637      -0.31819167      -0.69641578      -0.58050130
Na      16.60391416      15.44673815      81.19018208       0.77798751       1.33699962       0.07411912
Na      17.37045695      13.63697101      83.67555560      -0.05880407       1.55673339       0.02050601
Na      17.64401054      13.77742226      87.00731984      -1.09689533       0.66664242      -1.45706534
Na      16.02400492      12.21934059      89.74627555       0.75449859      -0.26223560       0.76590116
Na      17.52201849      13.70243066      93.24164897      -0.15958031      -0.32028996       1.30322987
Na      16.00508803      11.72431251      95.16421444      -0.42870709      -0.97378930       0.62327821
Na      18.60465665      14.26779477      97.12738576      -0.71986797      -1.55459383      -0.07874801
Na      14.16126669      15.48119360      73.10197464      -0.50317535       0.09105979      -0.47210948
Na      22.41816124      19.54539333      75.31535485      -0.06613130       0.01758076      -0.59502248
Na      17.09227235      14.69400550      78.15238923       1.30684020      -0.43675165       1.33815996
Na      17.11413108      21.22366144      74.90659195       0.05700215       0.34804109       0.28416057
Na      13.31044199      13.89294926      79.59921675       0.95144629      -1.01396536       1.26697906
Na      19.03335015      17.74523008      83.46438521      -0.08704935       0.49000952       0.41766086
Na      16.22482486      16.48568408      84.70460344      -0.24009064      -0.86656212       1.21954625
Na      17.85806020      17.96169932      86.74909423      -0.12278327       0.95848422      -1.11638815
Na      16.24334977      15.48470164      90.50629603       0.15584204       0.01650898       0.53149603
Na      18.29039985      18.25074467      92.34805618      -0.68708680      -1.49731300       1.27507653
Na      16.29297607      16.25572794      95.16634785      -1.16202868      -0.42432625       0.23130723
Na      18.47808165      18.29995042      96.56372353      -0.13366515      -0.06392096       0.93052425
Na      14.95002068      23.22086436      75.61229756       0.08445179       0.73141194      -0.79914665
Na      21.71449446      20.27231491      72.31556172      -0.87421142       0.43376496      -0.63198182
Na      16.45999793      19.25189408      77.75897794      -0.08535566       0.67577038       1.84341913
Na      18.58307998      23.27749667      76.53124408       0.78729147       0.52632528      -1.02454646
Na      16.52904246      19.26116845      81.78215497      -0.39564618      -0.78197541      -1.19942626
Na      18.53169272      24.24298965      82.76459010       1.05488119       0.88329506       0.41478691
Na      17.50104989      20.99313678      84.62288659      -0.70520356       0.88304946      -1.28787725
Na      17.94627781      22.14676408      88.33000481      -1.01043298      -2.02533312      -0.58359146
Na      16.39186991      19.59212479      90.15047739       0.19596602       0.74340944       0.05721436
Na      18.15791784      21.99561548      92.55263334       0.89002721      -0.69698258       0.70664540
Na      16.41334758      20.02935120      94.74592289      -0.22475198       0.30401728       0.48363588
Na      18.40946659      22.30947932      96.51338686      -0.90327576       1.29343096       0.59778165
Na      14.47456972      24.39343604      72.12515817      -1.07307258      -1.26619387      -0.91109605
Na      18.34205036      24.47352352      70.94471770       0.61758920       1.03637956       0.43487433
Na      19.90125911      23.77710507      73.74195731       1.08140368      -0.38208936      -1.21269648
Na      18.74207679      29.55850880      76.40510461       0.36648729       0.24181331       0.85799016
Na      16.71537278      25.23874901      79.96888910      -1.13849616      -0.11306230       0.21308949
Na      18.02744590      27.27746333      82.22646318      -0.30576974       0.94796096      -1.52792393
Na      16.38074380      24.48580425      85.93149904       0.49088521      -1.62785714       0.21970220
Na      17.96122258      26.37998279      88.65359029      -0.04659307       0.57822703       0.12665820
Na      16.31422024      24.26313759      90.56367039       0.76057124      -1.75240948      -0.29631000
Na      18.38748811      26.39549148      92.61747989      -0.26365954       0.33417476      -1.70194460
Na      15.88458705      24.29297154      94.23980948      -0.73278169      -0.04243429      -1.23412598
Na      18.45376002      26.62742958      96.38426794       1.47483667       0.14554968      -0.36226549
Na      22.80158264      -3.27390840      72.05544767       0.83126170      -0.45539802       0.72129218
Na      22.41343161       6.12447141      68.48581997       0.14493660       0.41818383       0.25774960
Na      23.22904248      -0.02775102      73.42644547      -0.58643509      -0.30077525       0.16483388
Na      19.38775706       3.45303162      75.19692062       0.76922182      -0.73582156       0.89351088
Na      20.08064151       0.06663882      80.53276438       0.32282423       0.82083112       0.43680593
Na      21.80773263       2.86059388      82.86736191       0.80453382      -0.39170907      -0.09776589
Na      21.01097841      -0.49676307      84.44557869      -1.36812739       1.50961093       0.56471331
Na      22.41645287       2.26182265      88.78628648       0.44120241       0.44070831      -0.70795030
Na      20.48758287      -0.34068118      90.55972691       1.29455109       2.22089520       0.69867241
Na      22.80832287       2.38630028      92.34116250       0.86633686      -0.51253824      -0.11760891
Na      20.51656552       0.37672777      94.51139810      -0.80600835      -0.93907492      -0.63933056
Na      22.92852295       2.09729714      96.74388388       0.93161421      -0.08151338       0.26464793
Na      22.19735380       9.93898777      72.40390066      -0.73874991      -0.53660222       0.11945520
Na      22.73920837       2.79272938      75.37912049       0.20038155       0.57040876       0.51990254
Na      21.52435903       5.28042887      73.26701204       0.71275418      -0.81222945      -0.39029088
Na      24.27863021       8.46777855      81.13153236       0.94534631      -1.07647254      -0.56481543
Na      23.11985725       5.04567892      77.66879572      -0.49798758      -0.60135809       0.76626325
Na      22.75725113       5.70934883      84.23369036      -0.86153837       0.72347212       1.03286900
Na      20.52630659       3.43376899      86.63245748      -0.48227632       0.31723539       1.54591349
Na      22.40531625       5.80927157      88.01898132      -0.34328128      -1.50006756       0.68568081
Na      19.84781182       4.68004494      90.34160061       0.69123471       0.12430358       1.28842436
Na      22.46188628       6.07401929      92.26111645       1.33436519       0.74050354      -0.22211811
Na      20.35944900       3.98556066      94.58610879      -0.65059251      -1.58246281      -0.59286881
Na      22.80613996       6.02833344      97.13509986       1.86540684       0.38945309      -0.36927270
Na      21.13457286      12.07441752      70.03169736       0.38819176       1.83102970       1.00699169
Na      21.64471794       6.90380075      76.10169605       1.27299374      -0.04626843       0.05939717
Na      18.82626732       8.84492190      76.02280759      -1.46678786      -1.24604281       0.60505119
Na      19.88466096      11.61795673      80.03967087       0.52764738      -0.03634027      -0.08068614
Na      20.35854752       7.63405043      79.72104244       0.61438664      -0.00824041       1.64432233
Na      22.55420852       9.56456225      83.63234329       0.26019609      -0.41832453      -0.65929001
Na      20.36329100       7.51979670      85.62265703       1.69413537       0.77873452       0.43636751
Na      22.52490623       9.67775103      87.52263826      -0.23500197       0.44540218       0.65300859
Na      20.11667638       7.85710102      89.29928876      -0.28210562       1.24025320      -0.96294167
Na      22.76726021       9.98693611      91.60214794       1.08848996       0.98945562      -0.08738565
Na      20.54873636       8.02769273      94.77365033      -0.42795126      -0.23199034       0.02202174
Na      23.07788733      10.38530574      96.11084564       0.66718975       0.32342886       0.18431886
Na      19.71720244      11.06187451      74.53833474       0.47783641      -0.41600739       0.26479578
Na      22.30191116      12.34617944      75.27701191      -0.61934016      -0.94489746       0.83195238
Na      20.16555332      12.77520001      77.16265460      -0.37463752       0.76276692       1.07731559
Na      25.24351757      16.92819331      77.63462913       0.98285067       0.68410520       0.55618214
Na      20.13128218      15.09061352      81.69773597      -0.54461709       0.68350770      -1.32552008
Na      23.48841913      15.79460417      82.80968297       1.10053739      -0.10167452       1.25340341
Na      20.31296220      12.01386033      84.90048822       1.18756982       0.03214799       0.98056311
Na      22.58232415      13.52841583      88.38423032       0.64193994       0.15542097       1.26207549
Na      19.81794318      12.66344183      90.04875906       0.90939649      -0.70753182       1.15303007
Na      22.48299344      14.10123163      91.91968669       0.07309806      -0.00820783      -1.73627143
Na      20.46445634      11.60319355      93.95824441      -0.99818065      -0.73849679      -0.11695731
Na      22.49872064      13.98781870      95.92021780      -0.19839864       0.38796062       0.05145761
Na      21.51579164      14.56981035      72.75557109       0.24782393      -0.62001249       0.75619603
Na      20.49159372      15.91897758      76.04873794      -0.42738328      -0.49908706      -0.25135945
Na      19.21994013      18.79422114      74.72790464       0.23689071      -0.88925169       0.29552936
Na      19.80826898      19.95109244      77.49388357       0.37658031      -0.95718431       0.33773833
Na      19.01769895      17.01275213      79.19331677      -0.08759584      -0.32125752      -0.21379541
Na      22.16695343      18.99533170      83.93403297      -0.62434982       1.35529486       1.04909502
Na      20.35084697      15.48743722      85.53010718       0.79998946      -1.38413373       0.50034477
Na      22.85360260      18.71933271      89.05530381       0.39082609      -0.57996412       0.20376754
Na      20.15549356      16.50923736      89.58685915      -0.24306162       0.67043517       1.02491531
Na      21.66978687      17.68308323      92.29704657      -0.41460212       0.77367269       0.01097836
Na      20.16828382      16.21454783      94.70319467      -0.69966267       0.23171142       0.41350569
Na      22.81555419      18.04447934      96.43966154       0.81008727      -0.61509936       0.52402219
Na      23.43913031      15.92386576      74.67537618      -0.69040335      -0.20883872      -0.43051248
Na      24.18826689      24.40440848      75.08847092      -0.11948959      -0.13032147      -0.04627606
Na      22.05918753      22.84010583      76.37828403       0.57721734      -0.27653521      -1.31749823
Na      21.09364654      22.63687492      80.03229742      -0.63841596       0.11298819      -0.69162296
Na      19.70077934      20.39081680      81.97756431      -0.06956923       0.20515429       1.14159709
Na      21.48758919      22.44895787      84.10934767      -0.05315539      -0.10003704       0.85292586
Na      20.51191880      20.27063115      86.71408707       1.26903015       0.51866697      -0.02036711
Na      23.17809418      23.17367144      87.74750763      -0.13373380       0.28371450      -0.67954705
Na      20.45627470      20.39751744      90.51743334      -1.27702588      -0.21164209       0.07144446
Na      22.49516639      22.20729559      92.59374125      -1.01054232       0.63747740      -0.03397887
Na      20.29123374      20.29926227      94.59920032      -0.42639315       0.12253504      -0.17854110
Na      22.56888451      22.17552665      96.91847259       0.03950197      -0.33155251       0.34171356
Na      23.46337568      22.36802959      70.48066767      -0.15748923       0.02154549       0.46494983
Na      22.97760337      28.16581368      76.38911950      -0.03428809      -0.47274092      -0.51709202
Na      20.03304578      26.93506749      73.33215356       0.99780839      -0.53183075       0.58519503
Na      20.04587107      26.54841317      76.25521404      -0.92645618       1.16677553       0.11654481
Na      17.79222955      21.95902643      79.53079537      -0.09286320      -0.61828256       0.21133927
Na      19.83106107      25.26522648      79.28568130      -0.22544300      -0.08382663       1.59528590
Na      19.53743454      24.83697308      86.25515452      -0.25019091      -0.40254662      -1.20726043
Na      22.23856876      26.76298446      87.70254295       0.45415421       0.22015168      -0.57191542
Na      20.52204080      24.26644638      90.46266108      -0.26685634       0.54660110       0.34399247
Na      22.36634922      26.24827650      92.31495886       0.86579947       0.86305629       1.01789755
Na      20.88236283      23.98530147      94.57544335      -1.69908759      -0.42362506      -0.66956078
Na      22.42898291      26.96371098      96.69459109       0.62406749      -0.82251222       1.09374671
Na      27.48882638       1.40644679      74.50465389      -0.19019977       1.47864376      -0.27839387
Na      25.64990886       3.17022301      80.32011271       0.01197054       0.12597203       0.30793238
Na      25.39312189       0.69173563      77.84541113      -0.37762456      -0.81520387       0.37967395
Na      22.68770177       1.89742450      79.05349223       1.09887316      -0.43892972      -1.37456901
Na      21.39663897      -2.65765212      81.77099915      -0.16515081      -0.62677584       0.15986780
Na      25.93099153       2.60115235      83.40442914       1.83224730       1.02142833       0.16568567
Na      24.02901771      -0.00685494      84.99471941       1.35310679      -0.48105678       0.39272249
Na      27.25725114       1.68620211      86.84425768       0.42240402      -1.28349674       0.44898651
Na      24.48554554      -0.15887298      90.75114753      -0.33744193      -0.19358179       0.79301127
Na      26.80142360       2.02185672      92.88245217       0.36263962      -0.34708855       0.74030250
Na      24.21666204      -0.46319603      94.05078168       2.34798734       1.09592185       0.02793263
Na      26.33776811       1.93016620      96.66702911       0.70489578      -0.64349976       0.35685259
Na      24.37265030       5.08165119      71.55396972       0.06514465      -0.80806809       0.97744979
Na      24.38552170       2.97096974      73.29601016      -0.53256212      -0.72103137      -0.73596597
Na      25.86797889       3.35402291      76.45800347      -0.40648331       0.32772681      -0.53342139
Na      25.99879786       6.10140743      78.65629704       0.67132057       0.22299364       1.01289084
Na      23.23976001       5.34392343      80.81405744      -0.00264722       0.23797948       0.84565245
Na      25.83365714       5.87587901      82.99676944       0.25279712       0.39300695       0.26857895
Na      24.10647448       3.45388108      85.70045624      -0.05142173       0.12935064      -0.32675450
Na      27.02174529       5.99133375      87.05637160       0.63877505       1.08677928      -1.08961605
Na      25.35998418       3.71418534      89.69929451      -0.07390743       0.08772693      -0.18973239
Na      27.27144075       6.27983000      92.73597560      -0.15643971      -0.66353337       0.42481534
Na      24.47733517       4.32252626      94.75431587      -0.67484416      -0.02625728       1.22622698
Na      26.70177251       6.23025265      96.79961585       0.11875657      -2.43043128       0.17154316
Na      23.54597754       7.64494349      73.40667106       0.51649841       1.11440472       1.39358780
Na      27.83792735       9.70824505      74.60335040      -0.25293649      -0.07141974       0.63788886
Na      21.66362660       9.93444410      77.69530184       1.01796028      -0.51744461       0.63319614
Na      28.27615178       8.74716865      77.75805650      -0.84305244       0.41482254      -0.67333544
Na      25.10287795      10.79295564      78.73319654       0.15610549      -0.21363009      -0.71366947
Na      26.04580391      10.43951981      83.55394728      -0.50234680      -0.44703507      -1.40972387
Na      24.69291081       7.81753982      85.67751886       0.83988840       0.07417572      -0.14291657
Na      26.68568194      10.41149421      86.98443614       0.18792882      -0.53045443       1.31302130
Na      25.18795637       7.64627683      90.01044583       0.19260781       0.73148726      -0.23311753
Na      27.32935626       9.80238389      92.40290524       0.25895431       0.05042466      -0.47907768
Na      24.64667943       8.13759867      94.25417554       0.04933026      -1.46681796      -1.51572276
Na      26.20063476      10.42145022      97.41108351      -2.01348283      -1.30874186       0.25951822
Na      24.77629289      10.67605019      74.62219380       1.04572262       1.35449261      -1.52377582
Na      24.72811990       8.14235938      76.25277166       1.44894158      -1.00524180       0.28481047
Na      24.79403777      13.33444303      76.87944863       0.09538749       0.45930108      -1.78078983
Na      26.02745376      14.10155635      80.25059752      -0.35312703       0.56649808      -0.34437014
Na      23.41644840      12.35807738      81.50719654       1.20731577      -0.58773504       0.03177232
Na      26.30062013      14.04859001      83.57645301       0.94338476      -0.41522207      -1.22656048
Na      24.05330341      12.90443238      85.34274826      -0.85062935       0.73204184       1.34003045
Na      26.73481534      14.68135012      87.82115495      -0.71346471      -0.92879157      -0.12254000
Na      25.17128643      12.14589696      89.97516129       0.66153464       0.17986594      -0.58967842
Na      27.03294039      14.33002057      92.30938134      -0.12331949      -0.30189197       0.48793301
Na      25.06202137      12.17110367      93.99367660       2.00709481      -1.79598564       1.66130706
Na      26.54333858      13.89369864      96.75988203       0.08987134       1.13187642       0.19543640
Na      25.54627131      15.27882340      72.61320437       1.19578674      -0.23818194      -0.56877666
Na      28.94986766      18.02203943      75.53103232      -1.16177341      -0.71795891      -0.22779836
Na      26.83777893      15.01459674      75.34370330       1.11714145       1.36865562       1.29902421
Na      26.79276633      21.01006939      79.11885986       0.61387612      -0.18434128       0.30608493
Na      26.34030204      18.05122253      80.38663664       0.29182704      -0.19018937       0.05076462
Na      26.68729808      17.32107362      84.53474002       0.13128501       0.72065229       0.37017862
Na      24.09032599      16.21443318      86.49929788       1.49246951       0.17867021      -0.61473392
Na      26.41203847      18.27665820      88.22153315      -1.15363962      -0.27426133       0.78882122
Na      24.71628008      16.02020665      90.41294666      -0.93243341       0.68349139      -0.33597422
Na      26.89476362      18.56926994      92.69143985       0.17650446      -0.93672998      -0.34665266
Na      24.51927382      16.73779969      93.95318710       0.78486632      -0.08507618       0.70492861
Na      27.17213903      18.44508728      96.78921594       0.50230498      -0.67907932       0.83661722
Na      23.03064408      20.20459630      78.22320098       1.53719267       0.50539130       0.51850221
Na      29.59241160      20.80684422      77.04402399       0.31699647       0.18165475      -0.42775351
Na      28.01485914      24.74717849      77.28249392       0.93572841       0.86254407      -0.60964197
Na      24.11567745      20.58140430      81.47601394       0.58094674       0.47083935      -1.03577805
Na      22.31952340      17.85330871      80.61932713       0.32291389       1.37812715      -0.50360951
Na      26.48874657      23.17706814      84.19877951      -0.35451258       0.38900961       0.46437834
Na      24.72103086      21.03359591      85.44064107       0.93934750       0.24042670      -0.12297818
Na      26.78584210      22.36987621      87.93313214      -0.28643615       0.71448557       0.40232634
Na      25.13236693      20.28289347      90.90323976       0.49965953       0.10380679      -0.53459154
Na      26.78062376      22.59873733      92.52515480      -0.34106833      -0.08597766      -0.44016278
Na      24.68884977      20.15511631      94.62806829       0.02593625       0.61859041       0.55717290
Na      27.15270112      22.63590720      96.45315948       0.38100877       0.25647847      -0.56861463
Na      28.19413538      24.31251393      73.20745669      -1.07910708       0.09900287       1.52504500
Na      25.13349218      21.50583186      73.28190859      -0.16798382      -0.91935810       0.28663434
Na      24.87695273      23.24073120      78.32682358       0.33724542      -0.40853780      -0.47030743
Na      23.17054118      25.66545935      78.20365348       0.16771208       0.15460521       0.45961458
Na      24.81258798      24.10674076      81.32668520      -1.57016472      -0.41814017       0.90120709
Na      27.19269299      26.80507841      83.19979206       1.02360467       0.13904863      -0.10113235
Na      23.29647670      25.10427270      84.62285028      -0.54427821       1.40206289      -0.09578083
Na      26.05940825      26.93727473      87.20676727       1.43127551      -0.81457884      -1.38500843
Na      24.59441439      24.99894661      90.33005244       0.18478028       1.17679915      -0.87075771
Na      26.91018948      26.73874050      92.68447402      -0.45040804       0.30394381       0.69163680
Na      24.74339131      24.22946655      94.65343455      -0.59766556      -1.41097761      -1.17854045
Na      26.83167629      26.63037026      96.28507935      -0.32505103      -1.03077965      -0.76386705
