2712
Lattice="28.6612 0.0 0.0 0.0 28.6612 0.0 0.0 0.0 100.8156" Properties=species:S:1:pos:R:3:momenta:R:3 md_step=4975 tag=warning warn_pairs="[('Na-Na', 873, 887, 2.4468381790800278), ('Na-Na', 887, 873, 2.4468381790800278)]" pbc="T T T"
Na       0.02169243      -0.23280175      -1.95129480      -1.33233413      -0.16612635       1.24398186
Na       1.60496956       1.94497038       0.33472334      -0.92966879       0.23027024       0.03300211
Na      -0.30834544      -0.38606019       2.86471377       0.85262294      -0.08753969      -0.09276450
Na       1.63003137       1.90766584       4.92788992       1.19795231       0.21989274      -0.81105035
Na       0.35758425       0.16708052       7.15467895       0.12739542       1.01342947      -0.33341113
Na       1.93127430       2.27452484       9.66266287       0.68008107       1.53991362      -0.61855208
Na       0.09414636       0.31524434      11.97203301       0.21066262       1.42081442      -1.28438303
Na       2.38560032       2.32379490      13.63082792      -0.15406962      -0.41978647       1.56606154
Na       1.03686188       0.79231104      16.43045727      -0.67355276      -0.24223608      -0.70814926
Na      -0.15227093       0.73940467      22.01707534      -0.66722620       1.19491593       1.31841255
Na       2.74211607       0.95528090      20.76330108      -0.32566734       0.51046977      -0.11362389
Na       3.41426147      -0.11960827      27.21985382      -0.62099825       1.31648911      -0.92125518
Na      -0.04574800       3.81884644      -1.63367539       0.13774066       0.42171126       0.91205272
Na       1.86221174       6.14053994       0.80517433       1.12490871       0.26814464       0.27821139
Na      -0.67066855       4.04985093       2.58760059      -0.30880360      -0.79776989      -0.51579069
Na       1.87193886       6.21612555       4.75415500       0.29624872      -0.08928283      -1.04728056
Na      -0.62557643       3.66061450       7.71129860       1.15151780       0.98770347      -0.52268806
Na       2.04153226       6.14913023       9.31893253       0.85239749      -0.24614330       0.33232473
Na      -0.18032624       4.14409539      11.61564861      -0.22200027       0.90317510      -0.49300704
Na       1.45325277       6.02336052      13.94666902       0.38051212      -0.32244889      -0.43897534
Na       0.24968014       4.35290842      17.15601158       0.38765434       0.06120014      -0.36796895
Na       3.21661332       7.27361343      18.50955971       0.38282197      -0.13938015       0.65803686
Na       3.23320644       5.55752542      25.53385586       1.86900273       0.91558783      -0.10586630
Na       3.78796204       2.45868145      25.76452655      -0.34741585       0.78303093      -0.35540788
Na       0.08007660       7.87840483      -1.86987632      -0.62390590      -1.09010860      -0.47776606
Na       2.15989740       9.68101913       0.11661804      -0.99922259      -0.94002823      -0.07419507
Na      -0.31924829       7.64636032       2.61943029       0.21444419       0.26185829      -0.88437623
Na       2.06535294      10.28797050       5.60358933       0.51674748      -0.85383128       0.78046683
Na      -0.35538843       8.38199631       7.16715380       0.86434546      -0.33098908       0.63914503
Na       2.03894814      10.33049460       9.42939505       0.50295790      -0.36297395       0.28097478
Na      -0.29931230       8.09564859      11.62747476       0.70783362      -0.39655146       0.83869044
Na       1.91658647      10.42353901      13.84670213      -0.24659014      -0.14514856      -1.35273079
Na       0.11159601       8.24358492      16.44566921       0.20403053       2.36067999       0.81065026
Na       2.62125288      10.57298033      18.43792570      -0.03275180       1.09631721      -0.85043958
Na      -3.32367395       7.99415975      16.58356745      -0.62073045      -0.54496212       0.36867876
Na       5.67740975       7.47138452      23.93284188       0.05040330       0.42585266      -0.33440578
Na       0.11032508      12.56195926      -1.70865878      -0.58779111      -1.00691903      -0.86425416
Na       1.99607439      14.46146850       0.61784188       0.09380007      -0.47253074      -0.40589401
Na       0.14419525      11.19086653       2.84858500      -0.74698963       0.93900831      -0.73309576
Na       1.95833241      13.50044568       4.67494751       0.00329693      -0.17863439      -0.40952962
Na       0.20011617      12.33866894       7.47930674       0.02093334      -0.39700419       0.64625231
Na       2.08727071      14.35840334       9.29990559       0.13983469       0.34837598      -1.05175825
Na       0.22325674      12.41036882      11.63054547       0.16000139       0.34595428      -0.41875905
Na       2.01635449      14.40453741      13.24537043      -0.09535734      -0.74362795       0.74033820
Na       0.18770956      12.13004199      15.71470591      -0.48637468       0.03346949       0.23928292
Na       1.80860698      14.20931111      17.61098690      -0.40726821      -2.16669009      -0.73156970
Na       2.08241810      15.46135332      22.26109700       1.17940025      -0.24884933      -0.25450740
Na       6.01195368      14.82026656      29.62914131      -0.46035663      -0.43859529      -0.82881970
Na      -0.02726668      16.16223058      -1.64567439      -0.31213285      -0.60705094      -0.21771386
Na       1.50401637      18.05042816       0.54183250      -0.42870459       1.04934965      -0.12482164
Na      -0.12102575      16.33184049       3.05414423       0.39542352       0.19903460      -0.39236032
Na       1.93237333      18.52066102       4.59840079       0.42911890       0.63028429      -0.29327323
Na       0.26364254      16.11620770       7.00374292       0.11471499      -0.88030426       1.80533487
Na       1.60923974      18.40023960       9.32240727       0.31107815      -0.10894980      -0.67599708
Na      -0.23004026      16.71159253      11.95484611      -0.89972187       0.47650355       0.27244958
Na       1.73595050      18.86983011      14.39821924       0.14259401       0.51785048       0.54517099
Na       0.26397055      16.13415837      15.39709286      -0.49033529      -0.49202792      -0.55674280
Na       2.65918316      18.75939858      17.97837084       0.46578866       0.08643586       0.07075313
Na       2.24514851      17.94833563      26.21634964       0.74792956       1.06851407      -0.19995176
Na       5.47306913      19.53641418      26.26554812       0.60839309      -1.12884975      -0.51711483
Na      -0.55781128      20.69647725      -2.02427462      -0.20079238       0.00608152      -0.06334779
Na       1.56004683      21.91562255       0.31711224      -0.58679474      -0.71622098      -0.27233256
Na      -0.12279273      20.49644911       2.67510122       1.16574077      -0.37166424       1.33714715
Na       1.93227311      22.38284767       5.36078129       0.35932109      -0.07922834      -0.78215253
Na      -0.38834397      20.55721330       7.06564808      -0.55130350      -0.80405242       1.41996736
Na       1.36840058      22.68765567       9.61721899      -0.02068479      -1.66752600      -0.76340054
Na       0.07454954      20.01615421      11.97706495       0.58980012       0.92655625       0.99601573
Na       2.06775069      22.67983265      13.71414846      -0.96718653      -0.35193230      -0.98609771
Na       0.04934689      20.63246821      16.65930828      -0.06961870      -2.98129266       0.23332453
Na       4.02999911      23.07068346      19.69876388      -0.88261423      -0.26426261      -0.08870037
Na       0.77103987      22.15444889      27.06454946      -0.70907188      -0.58007014       0.48995645
Na       2.77382663      26.42725005      22.35578893      -0.18794258       1.50524503       0.11152595
Na      -0.77735233      24.84682369      -1.86258015       0.05779533      -0.94133283      -0.69839453
Na       1.83072012      26.06894659       0.44586085      -0.81559550      -0.58304833       0.46297979
Na      -0.07603762      24.10132938       2.45778142       0.24835530      -0.71777555       0.07692564
Na       1.75646389      26.10140561       5.20058678       0.85650123      -0.83469812      -0.99272871
Na       0.03697647      23.99876339       7.07428983      -0.19899057       0.45775580       0.59310865
Na       1.84245389      26.93106334       9.53840024       1.00550402       0.43174013       0.87765033
Na       0.28996901      24.94126699      11.81433328      -0.98437885       0.27041707      -0.06146254
Na       1.93957027      26.42411414      14.36249291      -0.69280603       0.26132380       0.38397275
Na       1.34751261      23.63254654      16.90836638      -1.04976786       0.14857925       0.04384105
Na       3.02498686      26.56475175      19.26086550      -0.24119364       0.20036568      -0.15247662
Na       0.56916921      24.61950543      21.34939200       0.81768686      -0.18867059      -0.76492888
Na       0.72518949      29.42531821      25.30700947       0.62246328       1.04072942      -1.38584261
Na       3.72961769      -0.07091788      -1.07887243       0.00691540       0.08299306      -0.75554710
Na       6.53727545       1.93452145       0.47979354      -0.29326798       0.57041380       0.23223269
Na       4.22545379      -0.00705754       2.66910143      -0.67866584      -0.08288486      -0.44005319
Na       5.93069872       1.48701867       5.09540397      -0.18192330      -0.21719368       0.24288081
Na       3.66615531      -0.31502360       7.10539021       0.26523627      -0.64876319      -0.24925756
Na       5.65751673       1.98651378       8.84873880       0.80643057      -0.07347092       1.98862051
Na       4.09318036       0.06122142      11.48428278       0.02128079      -0.93122175      -1.11893179
Na       6.24995535       2.25780914      13.92379521      -0.66582452       1.47218129       0.37343834
Na       4.70142531       0.24696192      16.21369965       0.07530734      -0.44678743       0.84728111
Na       5.77938450       2.13587915      18.85817184       0.77568904       0.71446323      -0.01898746
Na       4.40370167       3.11321177      22.49490597      -0.51428804      -0.04162226      -0.44921648
Na       3.98932924       0.08727593      23.83536476      -0.10102933       0.18575536      -0.70696890
Na       3.50681397       4.05964474      -1.62831313      -0.04790226      -0.07467952       0.52044890
Na       6.03660379       5.77051752       0.79057378       0.38683889       1.56053049      -0.78505423
Na       3.39878698       3.54455394       2.36426029       0.18442621       0.94589619      -0.63713448
Na       5.96582917       5.77632189       4.54754369       0.95841916       0.02551262      -0.28414446
Na       3.65558887       3.76384367       7.13592526       0.79058259      -0.26015098      -0.20284952
Na       5.78640867       5.87863482       8.84313092      -0.71563457      -1.24650730       1.18290963
Na       4.20535061       4.18857413      11.48493470      -0.43819875       0.14282934      -0.40504625
Na       6.05630047       6.18508692      14.08623693       0.28595678       0.39499758       0.39089408
Na       4.20808922       4.31777794      16.42554911       0.65511595      -0.30705385      -1.13863418
Na       6.43666936       6.43294271      17.82880115       0.05473247       1.27907814      -0.61506859
Na       7.23925229       2.04024870      24.84808755      -0.74662674      -1.03787740      -0.04690021
Na       7.05300836       5.26988630      26.61688949      -0.49565605      -0.49593762       0.82652700
Na       4.50039552       7.69638797      -1.77542755       0.42711096      -1.26553673       0.39090659
Na       6.36983772      10.14055822       0.91100880       0.56363592       0.74520696       0.67887162
Na       3.49504044       8.51246022       2.45603544      -1.03252481      -0.48754550       1.05039789
Na       5.95359444       9.68800844       4.50981836       1.13854143       0.67472638       0.13129410
Na       4.09366895       7.92264087       6.94511413       0.49103429      -1.74779901       0.75506521
Na       6.30188647      10.01359733       8.95444985      -0.27593057      -0.19525060      -0.43294718
Na       3.64703150       8.16753777      11.65546572       1.08472230       0.37646950       1.20797294
Na       5.89729446      10.28873796      13.24935159      -1.55103555      -0.89735826       0.58116376
Na       3.94182047       8.47968061      16.05048277       0.39401107       0.74456308      -0.52915469
Na       6.02076207       9.75268880      18.38617078      -0.16233049      -0.27783728      -0.11568148
Na       8.78760406       9.20649481      26.86291118       0.02638433      -0.71080520      -1.18742090
Na       6.44826832      11.23769893      28.15337678       2.11450940       0.04062503       0.08086058
Na       4.24504602      11.89692993      -1.42990098       0.51177461      -0.74524125      -0.94656502
Na       6.36948300      13.89249084       0.67160962      -0.51498483       0.82629105       1.48055783
Na       4.38073481      12.39606968       2.78597347      -1.16601022       0.11933627       0.32926676
Na       6.51849781      14.21108754       4.99090276      -0.79029157       0.13928844      -0.40391705
Na       4.00925350      12.41406016       7.23828798      -1.30211940       0.09991181      -1.29085344
Na       5.74567589      15.22061727       9.51704992       0.25816516      -0.83619462       2.02766672
Na       4.14648373      12.28028342      11.26492459       0.83219169      -0.41549007       0.85962228
Na       5.93955974      14.63500231      14.07162006       0.21721139       0.03479755      -1.01237732
Na       4.14594133      12.19601064      15.87245365      -0.63439358      -0.48197843       0.42598383
Na       6.27668570      14.27043358      17.53211453      -0.33789771      -0.02890790       0.65846430
Na       2.62247179      11.79499395      23.95224239      -1.56852467       1.42892591       1.28516148
Na       0.60385795      14.64784166      26.19827316       0.47562296       0.33091553       1.61909742
Na       4.16290228      16.54717421      -1.50339132      -0.48791480      -0.63693525       0.36387542
Na       6.17951274      18.67833148       0.77900590      -0.39315184      -1.75167199      -0.21463591
Na       4.20557410      16.08231408       2.52219732      -0.05735092      -0.32086211      -0.96395115
Na       5.80528541      18.20031084       5.43256532      -0.04125177       0.21177786       1.74924191
Na       3.76160535      15.85259748       6.67312281       1.81315781       0.18364938      -1.52299594
Na       6.09547967      18.41794250       9.80848598       0.17886784       0.24739117       0.64540986
Na       3.65615697      16.72257114      11.78947039      -0.10393869       1.49539858       0.16243791
Na       5.90524849      18.82762779      13.70737843       0.56094291      -0.78649070       0.59300900
Na       3.83069572      16.32810450      15.88976743      -0.27211796       1.84253977       0.55884970
Na       6.53377696      18.65120769      17.43825722      -1.32695743      -1.27870212       0.33402982
Na       3.42917253      20.31577576      23.93876677      -0.71774642      -0.21624907      -0.02579137
Na      11.02048392      15.70630891      23.49764042      -0.54223175       0.65797443       1.15512195
Na       4.29609659      20.07018501      -1.31324579      -1.63521085      -0.36470396      -1.13193194
Na       6.10000764      22.57089925       0.44407674       0.80125997       0.44769198      -0.87285766
Na       3.96154618      20.56512890       2.45375533       0.18976050       0.36141663       0.68197026
Na       6.08454599      22.19583809       5.54837746       1.51966732       0.02401632       0.83603608
Na       3.96109986      20.11654211       7.36498460       0.09350996      -1.11347688      -0.23500953
Na       5.46365606      22.51257524       9.83688494       0.81959267       0.12754835      -0.49619678
Na       3.49355861      20.44101031      11.25835218       1.40313637       0.39528793      -0.43249812
Na       6.45721267      22.54920989      13.52033612      -0.44535793      -0.41729480       0.17571604
Na       4.16631107      21.20185503      16.30830186      -0.06665975      -0.28784804      -0.03589602
Na       6.33794941      21.24116819      22.65813784       0.02262188      -0.09419717       0.02214346
Na       1.28811055      21.19398907      20.05462958      -0.02451133       0.28518290      -0.07251246
Na       8.17973911      18.07728793      24.36309703      -0.19511420       0.72899508      -0.70820966
Na       3.98640106      24.04150826      -1.34405539      -0.82256479      -1.36624210      -1.23465985
Na       6.34875835      26.24856253       0.02578529      -1.68565477      -0.51440630       0.18728380
Na       4.06299727      24.22116216       2.91420858      -0.70051264       0.71125853       1.40754935
Na       6.09009993      26.32695974       5.43611920       0.62966708      -0.99646484       0.24841364
Na       4.26438075      24.53292216       7.34045543      -0.69693464       0.34693967      -1.15223944
Na       5.99493322      26.83360655       9.25699473      -0.48809031       1.61465003       0.15276588
Na       3.98584837      24.71728343      11.28324857      -0.10358937       1.38160392       0.25572680
Na       6.16951689      26.35071669      13.70572249       0.46832254       0.09565425       0.64486022
Na       4.79346441      24.99662852      16.69506890       0.29630989      -0.82996441       1.13301874
Na       6.32197828      27.42577761      18.94488663       0.26568779       0.48022450       0.58068107
Na       6.57096621      25.47899135      21.49709620      -0.00236577      -1.20423126      -0.43503097
Na       5.01656555      25.98874576      25.59981528      -1.02921077       0.36934292      -1.11296886
Na       8.51817278       0.31383766      -1.63596619       0.43679576       1.30296660       1.33083964
Na      10.37764087       1.94363348       0.80770771      -0.09711763      -0.66683752       1.63344477
Na       8.29225197      -0.19678753       2.71031575      -0.03855856       0.22755965      -0.14486072
Na      10.72419835       1.97747868       5.41979360       1.11506199      -0.59508880      -0.06117511
Na       8.33939112      -0.34463662       7.03215752      -0.16259025       0.21106689      -0.63124572
Na      10.01122880       1.88812822       9.18234133       0.66338936       0.75354256      -0.13925970
Na       7.69947199       0.22263072      11.48424314      -0.17983766      -1.43313099      -0.73400688
Na      10.30587353       2.06255414      13.61394218       0.03444562      -1.13305162       0.54440481
Na       7.97412366       0.01894748      15.89960506      -1.09019158       1.01560893      -1.52528212
Na       9.10517739       1.64358634      19.67119333      -0.05396021      -0.39037579      -0.03787399
Na       7.02645966      -1.12909160      24.13228248      -1.46633849      -1.27870219      -0.70063994
Na       9.34307068      -0.75502396      22.27526163      -0.26385786       0.60124577       0.49262306
Na       8.30709634       4.01854732      -1.12020896      -0.35678289      -1.63790170       0.15642786
Na      10.52873109       5.43687862       1.07372590       0.75614321       0.36954739      -0.94108344
Na       8.27403003       3.68078520       3.12417220      -0.66740387      -1.24750581       1.22286677
Na      10.80373640       5.98842051       4.95942828       1.12213986       0.59534144      -0.92418185
Na       8.31166382       4.28380403       6.93541785      -0.40068874       1.68948327       0.27243434
Na      10.18301248       6.35441556       9.47606750      -0.26831964      -1.14682987       0.00514691
Na       8.02511495       4.00324653      11.69117305       0.87212069      -0.35600282      -0.56961206
Na       9.86243254       5.91378885      14.01127752       0.60552477      -0.17588701      -0.77084611
Na       8.41693686       3.52739213      16.35586004       0.41777590      -1.80761466      -0.47356450
Na       7.23345500       4.13548851      22.18953784       0.36206131      -0.25866195      -0.76064790
Na       9.81482003       4.53707995      24.16193722       1.07560259      -1.26498559      -0.58165527
Na      12.83542180       6.62333551      23.39741475       0.24740488      -0.58791539       0.46132469
Na       8.43259263       8.03791579      -1.43454015       0.77402741      -0.20613781      -0.66573176
Na      10.49782223      10.30367246       0.37718891      -0.13218900       0.36740005       1.61329158
Na       8.63191212       8.23833607       2.47344191       0.04939680      -2.25600745      -0.01144185
Na      11.03121213       9.47688998       5.23616008       1.66027069       0.51103474      -0.58726491
Na       8.21365142       7.69720057       6.71914199       0.86863144       1.27663679       0.13397051
Na       9.44407625      10.25663415       9.23625670      -0.12442664       0.65757277      -0.14142612
Na       7.29171971       7.93608705      11.40206130      -0.15093865       1.12310910       0.17309333
Na       9.40183231       9.99843805      12.78378533      -0.62473741       0.64614285      -0.65009608
Na       8.33329094       8.72483195      16.39065934      -0.19071837       0.59849348       0.39250124
Na      10.02363729      10.88134488      18.79974303      -0.53803445       0.78612284      -0.45632813
Na      10.30762595       6.47903649      18.60180010      -1.07503010      -0.47160060       0.08807142
Na      14.27328734      13.17573023      21.39895203       1.56202576       0.61701849      -0.06101187
Na       8.16593617      11.95210472      -1.80393508      -0.88415098       0.07943087       0.60685481
Na      10.14606507      14.21604964       0.82254225       0.06135800      -0.07424940      -0.79508251
Na       8.35412895      11.91181581       2.78849436       0.99510728       0.97501767       0.26254164
Na      10.86532251      14.23411505       5.49379864      -0.59424043      -0.96167162      -0.50792391
Na       7.90692584      12.54446732       7.36104848       0.48417522       0.18945608       0.47837498
Na      10.29911363      14.31421604       9.65938465      -1.40410291       0.17228582       0.61533011
Na       7.19975421      12.94461944      11.19897038      -0.80502197       0.18696106       0.16844505
Na      10.39256824      13.94620335      13.10720509      -0.60594191      -0.23675722       0.39475760
Na       8.44113957      12.28876859      15.50185338       0.20168241      -1.04014174       0.41629227
Na       9.81954981      14.93568968      18.02265645       0.58110790      -0.07471687      -0.43749074
Na       5.51462200      13.71751299      24.10258404       0.74545858      -0.42706455       0.16520064
Na       8.79152956      13.93774754      26.78943302       1.00338755       0.03982625      -0.67425068
Na       7.68441055      16.25628435      -1.20788372       1.55861079       0.19075815      -0.29370607
Na      10.08315575      17.97421037       0.33697302      -1.38650716       0.00522353      -0.10159437
Na       8.14252953      17.37708863       3.08144690       0.84509081      -0.64976251       0.50183512
Na      10.57131645      18.64408262       5.56088002       0.93625867      -0.47042257      -0.93260676
Na       8.32210643      16.32574552       7.04737906       1.32033736      -0.07196593       0.49588598
Na       9.91484833      18.58869027       9.26384767      -0.53238848      -0.93232962      -2.33737759
Na       8.21537782      16.25676517      11.69809540       0.44784962       0.51843863      -0.44328085
Na       9.90396397      18.54105912      13.08863278       0.09789611       1.29926310       0.12722600
Na       8.11668009      16.27473306      15.39394470       0.20570270      -0.76145972       0.03315565
Na      11.12014800      18.91488090      17.29357705      -0.15084931      -0.17657402       0.53819910
Na       6.62223787      16.36493844      22.24933339       0.05840972      -0.26735034       0.31589710
Na      14.89439587      19.36030901      29.54599716       1.08046886       0.14578299       0.72477809
Na       7.92991633      20.53017108      -1.40489284      -0.55064849      -0.09948175       1.77005180
Na      10.09612337      22.91908446       0.89401629       0.61855650      -0.23136251       1.69026544
Na       7.59656208      20.63272848       2.93987524      -0.47213260      -0.77623300      -0.80891899
Na      10.00037960      22.29403212       5.54605729      -0.37788744       0.16378938       0.49769653
Na       7.66914510      19.93111465       7.50190110       0.40294062      -0.39433092       0.67288327
Na      10.08832129      22.28145987       9.48275501      -0.63214909      -1.03285988      -0.62226221
Na       7.88895575      20.90197737      11.50783288       0.10357530      -0.54283826      -1.63031789
Na      10.00077834      23.21118012      12.91215952       0.46745295       0.69968059       0.19628645
Na       7.02829644      23.16938751      18.54085665       0.04302764       0.60756781      -0.28786119
Na       8.67873203      20.89017502      15.79723803       0.03393495       0.56162997      -0.11827895
Na      10.31813377      21.31159666      24.63444366      -0.16700331      -0.29164568       0.49690579
Na      11.09581690      23.25966804      31.24951899      -1.26788534      -0.72156484       0.05913733
Na       8.26437415      24.18879865      -2.00657074      -0.47085748       0.37345629      -0.64183348
Na      10.11139162      26.60277295       0.23757213      -0.69441454      -0.58290664      -0.08321800
Na       8.22059655      24.61623017       3.37167648       0.69633105      -0.63129113      -1.48785664
Na      10.65646994      26.68371718       5.20209130      -0.01445572       0.44621804      -0.17569746
Na       8.10533249      24.32300077       7.36508582       0.83663150      -0.74377580       0.77345806
Na      10.05474937      26.55937725       9.61840012      -0.04165978      -0.54130997       0.92800973
Na       7.75350959      24.75721574      11.38960371      -0.94177994       0.19415086      -0.57788655
Na      10.21741104      26.92782345      13.39948177      -1.16416988       1.27147292      -0.62164534
Na       8.51203241      24.69884955      15.35785254      -0.21669927      -0.27569769      -1.04989896
Na       9.78231618      26.39491337      18.50575041       0.14930077      -0.90965763      -0.08725548
Na       9.44035243      24.95711942      24.19849843      -1.22287602       0.02721973      -0.31724018
Na      10.62310684      30.16940419      24.94484724      -1.31633907       0.63892922       0.11296657
Na      12.32196398       0.28126475      -1.74251070      -0.55485310      -1.03158199       0.50982998
Na      14.38633481       2.28481625       0.60283253       0.42246215      -0.46724682      -0.05998664
Na      12.56686800       0.04037816       3.04091669      -0.75108886      -1.06979520      -1.52859957
Na      14.39879720       2.04435255       5.23574213       0.86026532      -1.55024813      -0.38448022
Na      12.82247055      -0.07424042       7.63218536      -0.31987186       0.43494071       0.52016805
Na      14.71508024       2.41372329       9.85772538       0.40497667       1.18399025       0.20764273
Na      12.65795509       0.22451662      11.48437163      -0.52086877       0.25834217      -0.40418541
Na      14.89543030       1.90574464      15.03793629      -0.60993649       0.98242093       0.50136985
Na      11.61028818       0.28307612      16.61184106      -0.07613634      -0.90252795       2.24459074
Na      14.56268391       3.14935844      18.93633190       0.62760627       0.90835718      -0.35427060
Na      13.21722529      -0.39453081      20.08403195       0.67565916      -0.37193509       0.66825304
Na      13.67155801       1.87690251      23.98068533       1.03524896       0.77453332       0.50258353
Na      12.08558570       3.99494005      -1.87492922       0.95621603      -0.24065610       0.91091300
Na      14.56802176       6.32989928       0.40796158       0.10168786       1.57541106      -0.08212167
Na      12.70087264       4.05392735       3.05815905       0.66506483       0.90757832      -0.09219198
Na      14.48111784       6.37447591       4.99874628       0.29289800      -0.61556933       0.90331310
Na      12.80081448       4.43687271       7.40714699      -0.87338851      -0.05340980      -0.98297378
Na      14.63863001       5.64980829      10.30768304       0.06872795      -0.69030360      -0.26265938
Na      12.04136983       4.55605675      12.06382446      -0.44695761       0.16750720       0.57265222
Na      14.59017707       6.09446852      13.96467703       0.98706908       0.44074929       0.46407844
Na      12.33297717       3.77211766      16.31450875      -1.29441016       0.38372885      -0.25985664
Na      14.09313537       6.50385228      17.81490336      -0.05720196       0.00098977       0.78342614
Na      11.80728945       2.80957165      21.78333057      -1.28307071      -0.95047694      -0.39500832
Na      12.76145231       7.46705387      26.76685114       0.01680050       0.37373574       0.39249298
Na      12.12970314       8.14812103      -1.32951151      -0.46671271      -0.25114118       1.25704105
Na      14.23807509      10.71488936       0.57409896       0.56717241      -0.06718068       0.63845745
Na      12.53539937       8.11524927       2.27042815      -1.33095971      -0.77113594       0.72106727
Na      14.37917182      10.05783617       4.93640998       0.75553411      -0.64040886      -0.50741830
Na      13.33874826       7.73208693       8.04465942      -0.76619735       0.58005435      -0.62455582
Na      15.10268619       9.38815280      10.48568264      -0.45477856      -1.26754214       1.18409814
Na      12.38002632       8.19214679      11.73918384       0.06596489       0.70983553       1.20521688
Na      14.76227158      10.15100088      14.27850031       0.13276170      -0.05085933       0.13807649
Na      12.04618164       8.34322288      15.96502511      -1.14089963      -0.22967795       1.89290663
Na      14.53253886       9.74160766      18.62402536      -0.48480346       1.27448643      -0.45221648
Na       9.66293714      12.79283071      24.12106087      -0.14839683      -0.09775727      -0.54788798
Na      16.02239772      11.15819103      24.56480190      -0.90187486       0.44610391       0.46358827
Na      12.14329867      12.45542273      -2.03043646       0.17282943      -1.98057795       1.09357046
Na      13.78150657      14.16713401       0.42808800       0.37439314      -0.30900060      -1.09217278
Na      12.35007532      12.08242800       3.23517987      -0.47934526       2.11696984       0.55095589
Na      14.56664427      14.45276021       5.36545207      -0.30310829       0.43955543      -0.20462266
Na      12.49841273      11.39281052       7.86219860      -1.70634885      -0.69572588      -0.78010785
Na      14.16981608      14.07408655      10.14040477       0.55169854       0.07599170      -0.53436266
Na      12.18658216      11.57052400      11.32339270       1.73893834      -1.39470128      -0.61034979
Na      14.61906536      13.65841002      13.29964278       0.33348039      -0.51975052      -0.92680137
Na      12.05813082      11.80510120      15.18649951      -1.00083212      -0.09931858      -0.10233413
Na      13.56206616      13.87659733      17.23167057      -1.30338138       0.02104189      -0.61861372
Na      14.30942835      13.98151230      24.55620336       0.01760084      -0.15801158      -1.33419896
Na      17.58336682      13.41507545      27.09905638       0.40827630      -1.01024666      -2.27165129
Na      12.36726251      16.22573464      -1.87544898       0.32390460      -0.63790306      -0.52583933
Na      13.73830412      18.07043837       0.54850547       1.05165551      -0.21834133      -0.09395604
Na      12.46532130      16.25030574       3.33720631      -0.11633903      -0.23326180       0.29030597
Na      14.30525149      18.60069352       5.57381866       0.08934122       0.79156865      -0.47201025
Na      12.50290025      16.46110055       7.44216510       0.39607316      -0.94016157      -0.16282519
Na      13.95627845      18.63662726       9.46381648       0.23901255      -0.38439925      -0.52724330
Na      12.20178231      16.60510184      11.70939258      -0.14747603       0.58584645      -0.11321881
Na      13.97046486      18.74759328      14.02920137      -0.57955595       0.30268763       0.18262364
Na      12.13595936      16.29710488      15.32237726       0.30090279      -0.80474747      -0.35084503
Na      14.52012840      21.60348510      18.45469492       0.97665174       1.49250858       1.64336090
Na      13.90869779      16.99677957      18.40887623      -0.31074698      -1.60031972       0.14047282
Na      14.68115267      18.25214395      24.54471766       0.37877996      -0.30628911       0.42916464
Na      11.56527168      20.76540286      -1.24413465      -1.75551777       0.09480474      -1.47273571
Na      13.70834309      22.45802678       0.98438540      -0.41319386      -0.18807525      -0.69115487
Na      11.71525717      20.29673365       2.80409496       0.57150028      -0.37649532      -0.45756165
Na      13.81812327      22.30639919       4.46084433      -0.50624479       0.64586893      -0.46721810
Na      12.37420241      20.85059211       7.44658483      -0.72663308      -1.58973092       0.14649067
Na      14.73059214      22.49796065       9.76298332       0.00649068       1.59566899      -0.49385938
Na      12.06516230      20.61775323      11.53802555      -0.41899557      -0.32251307       0.52480924
Na      13.56567512      22.86860785      13.23420156       0.67867282      -0.95546589       0.25531847
Na      12.05110018      21.80867218      15.54760862      -0.13210435      -0.47385658      -1.37904294
Na      13.63852772      25.12257262      19.05441784      -0.10322272       1.96871282       1.89660301
Na      10.40670948      23.07574733      18.50860971      -1.98428282      -1.37991657      -1.83726071
Na      14.39260464      21.73050205      24.90950681       0.65741919       0.91886986      -0.04406565
Na      11.98920568      24.31743765      -2.46012147       1.22838534       0.14887501      -1.16025958
Na      13.83116648      26.54862363       0.54031366       0.06782088      -0.11883069      -0.84856389
Na      12.26702573      24.85598163       3.16093898      -1.02403617       0.76048901      -0.10407867
Na      14.68646992      26.70909347       5.52350323       0.09454804      -0.03796019      -0.10989675
Na      12.15688858      24.82269449       7.36560779       0.61723954      -0.30270728       0.20460279
Na      15.39392030      26.74043895       9.79090170      -0.40804583      -1.44930805      -1.44049371
Na      12.35195170      24.57101633      10.94819497       0.55228165      -0.36725538      -0.41403989
Na      14.31316564      26.97004362      13.94114003       0.73564019       0.44446063       0.27207047
Na      12.05065612      25.54102130      16.14567571      -0.52891907      -0.59653644      -0.33518657
Na      17.78025111      29.66839484      18.37352833      -0.82500951       0.91109394      -0.31548032
Na      10.32068197      21.11338782      28.10177014      -0.11258356      -1.07380942      -1.83131699
Na      15.78951234      29.97313154      26.67045866       0.51446017      -0.69428180      -0.37973079
Na      15.93961391      -0.22930188      -1.53057084      -0.07561194       0.05760784       0.38251788
Na      18.75604956       1.84856971       0.60808058      -1.01123147      -1.22295235      -0.11166334
Na      16.35652421       0.09082425       3.02288666       0.94255392       0.45251811       0.19655050
Na      18.42830060       2.50878458       4.87636618      -0.80265617      -0.64420799      -0.02119430
Na      16.67344860       0.46154594       7.51109079      -2.23234251      -0.06250917      -0.10353051
Na      18.90580600       2.53948743       9.62512338       0.35287128      -0.19139863      -0.56988121
Na      17.22380332       0.37648446      11.88635242      -1.31623260      -0.84783364       0.19134930
Na      18.77147635       1.42901952      14.77344450       0.77687573      -0.81910170       1.21378964
Na      20.18745216      -4.20159260      20.75123200      -0.64700513       0.90643024      -0.08604421
Na      21.83889898      -0.01777453      23.21100950      -0.60670140       0.43813189       0.06988760
Na      16.49179801       0.62759407      22.28272898      -0.17801115       0.28338106       0.48308536
Na      21.93305421       4.00605716      25.40197211      -0.47179012      -0.83844483      -1.31943365
Na      16.39394569       4.16001162      -1.76756844       1.40786702       0.56581901      -0.43029609
Na      18.26887369       6.08755492       0.69044163      -0.09901750       0.39092037      -1.07937885
Na      16.64540621       4.38113336       2.87505981       0.51943271      -0.59211927       0.43045313
Na      18.64311211       6.37323900       4.84268072      -1.12312676      -0.06236685      -1.29904974
Na      17.10990461       4.75958381       7.37597945      -1.11637380      -0.79108280      -0.22091177
Na      18.72251218       6.70711104       9.51773991       0.03827786       1.13104410       0.38362134
Na      16.60251320       3.74446733      12.68281617       0.25330384       1.28868109       0.40769688
Na      19.56024755       5.83347431      14.80660519      -0.23778331       0.47227033      -0.19835764
Na      16.94340775       4.56897930      16.50164637       0.30589379      -0.63057790      -0.54736021
Na      16.90166189       6.02031931      19.38800489       0.62898552      -0.05676651      -0.38789873
Na      19.41587472       3.12130994      23.27017950      -0.70778742      -0.84775518       0.16528865
Na      15.45249777       4.12978452      22.20443092      -0.98311755      -0.02259347       0.62730053
Na      16.10949452       8.63458205      -1.71638169      -0.18286251       0.41498267       0.40171203
Na      18.27585106      10.19828843       0.84871682       0.54695687      -1.27502263      -1.33075444
Na      16.34769731       8.34003517       2.70482403      -0.15054404       0.83506221       0.53609747
Na      18.53725720      10.67908279       5.30709091      -1.44989569      -0.43284149       0.10694844
Na      16.76111507       8.35224223       7.05289003       0.22494121      -0.00599526      -0.58521033
Na      18.66687301      10.38337610       9.38545861      -0.10742023       1.21793338      -0.63388072
Na      17.44970097       8.00779322      12.78967102      -0.26405966      -0.39294262       0.29029458
Na      18.72991482      10.41210729      14.81785949       1.25640116      -0.39315776       0.10859842
Na      17.24730296       8.07541906      16.60910253       0.67997902      -0.12263182      -1.07855424
Na      16.73098487       9.48369032      20.85822458       0.70810604       0.85228987      -0.40826674
Na      13.18284020      10.34368132      22.28436647      -0.63983181       0.70482577      -0.46661643
Na      22.44832392       9.55968975      25.42426518      -0.24772558      -1.68164476      -0.41355000
Na      16.46707496      12.59438223      -1.46519533      -0.03750579       1.24555629       1.02035448
Na      18.45649377      14.87381315       1.26821391      -0.88764574      -0.07413047      -0.00783062
Na      16.46648867      12.30437776       2.72920485      -0.10826272       0.56136385      -0.47310604
Na      18.57593668      14.02172317       5.15053258      -0.32339674      -0.88074823       0.40659599
Na      16.38652541      12.12714092       8.05421811      -0.15941585      -0.56343573      -0.50320910
Na      18.56823595      14.55572403      10.17407552      -0.14422844      -0.05256291      -0.85934968
Na      17.00173456      11.76218716      12.17043590       0.46851314       0.66232972      -0.13411357
Na      18.42922776      14.04317398      14.14908397       1.60979537       0.22036096       0.26137123
Na      16.27120072      12.18701791      16.42496254      -0.61389173      -0.26263402      -0.11811339
Na      18.28701781      14.57608010      18.03260695       1.22021240      -1.08383128      -0.33262500
Na      18.03225621      12.70512156      20.63436517      -0.07531967       0.08396373      -1.11707299
Na      19.28595521       8.27633314      27.31810634      -0.93377630       1.04464839      -0.17151897
Na      16.32859960      16.67375993      -1.25709175      -0.49589263       0.17961882      -0.53904320
Na      18.66993887      18.38361973       0.35123251       0.46388628       0.26427286      -0.03490437
Na      16.03298188      16.24658287       3.09562788       0.07337008       0.08172576      -0.74641217
Na      18.17906377      18.65567181       5.61169933      -0.17772685      -0.03496735      -0.07089786
Na      16.22160708      16.34520067       7.91326870       0.06876860       0.75247480      -1.09171913
Na      18.74760397      18.19787914       9.78306236       1.84500047       0.68253324      -0.18839825
Na      16.10310744      16.97674869      11.46991671      -0.08679716      -0.60686184      -0.50272417
Na      17.99781162      18.18542812      14.09545548       0.34651796      -0.30873303       1.30362435
Na      16.14272627      15.82453820      15.69412203       0.79988810      -1.05470560       0.17404292
Na      17.49118193      18.76796562      17.99810699       1.14519704       0.74989581       0.26190179
Na      16.38621900      15.75794512      21.32475508       0.39739982       0.64138122       0.20782158
Na      20.28975578      11.67600540      27.23798495      -0.47433895      -1.67553108       0.80315883
Na      16.37874999      20.66214980      -1.55564061      -1.11193134      -0.32062494       1.02617433
Na      18.49564910      21.96864650       1.21705437      -0.56334581       0.16683947       0.33516042
Na      16.09102884      19.91369041       3.01268859       1.85588946      -0.62073221      -0.22970724
Na      18.25876866      22.29498266       4.95083650      -1.11705306      -1.05390711      -0.39595139
Na      16.71424541      20.43173312       7.65674352       0.35954259      -0.13613313       0.64779770
Na      18.66669687      22.61614168      10.06317603       0.31089809       0.03144127      -0.84705920
Na      15.90478126      21.01340899      12.07343135       0.34529374      -0.61214937       0.66112557
Na      18.75478281      22.58082636      14.19719521       0.06813840       0.99317531      -1.05562717
Na      16.55468546      20.80242286      15.55594740       0.94028484      -1.78749733      -0.24471111
Na      20.94866567      24.12355200      16.66005907      -0.27490728      -0.16213191       0.20612670
Na      15.63384252      24.29071892      15.94378494      -1.25724351      -0.21778136       0.44210923
Na      18.27660023      18.59781511      23.11889959       1.00841863       1.27939354       1.06419170
Na      16.08140666      24.06125465      -1.53585727      -0.33887320      -0.46295594      -1.23116587
Na      17.89383115      26.67830723       0.83288375      -1.64058190       0.14335229       0.25963999
Na      16.30558777      24.58415247       2.83703592      -0.96971073       0.09293256       0.64458602
Na      18.43978278      26.81381005       5.20576444       0.04886650      -0.64534184      -0.97521801
Na      16.22216148      24.36164946       7.07577406       0.01319030       1.08856291       0.00697930
Na      19.11141160      26.13682429       9.58192113       0.16424107      -1.11377123      -2.00350280
Na      16.58270387      24.80500767      12.01083498       0.03347097      -0.09403489       0.55673942
Na      18.89680194      26.15959462      15.04206211      -0.14898839       1.12348820      -0.61917157
Na      15.01106963      27.81885058      16.89606145       0.36167713       0.81936331      -0.06659470
Na      21.60133835      22.88454240      23.38527582       0.50920241       0.56120221       0.37486233
Na      18.32486859      22.78128370      17.88054900      -0.59486942       1.36482797       0.23768809
Na      18.14060575      23.45845338      25.27798063      -1.77843350      -0.24296472      -0.99795906
Na      20.08337820       0.19403902      -2.08129468       0.47321089       0.99050422      -0.58879772
Na      22.51499300       1.74910799       0.68781605      -0.04806240      -0.02494948      -0.66467254
Na      20.71873720       0.71861455       3.17488250      -0.94125265       0.28591401       0.48928583
Na      22.40307018       2.31290418       5.15867986       0.55314770       0.77324281       0.34420409
Na      20.15481235       0.26289996       7.96586254       0.35162871      -0.72211832       0.46557080
Na      22.61039438       2.10875260       9.93519183      -0.90307237      -0.67568261       0.10608140
Na      20.67794038      -0.25102954      11.49848529       0.63011839       0.05700721       0.80951420
Na      22.63199550       1.68041381      14.55404724      -1.84148481       0.96857693      -0.20796462
Na      21.46346786      -0.22074693      17.64675968       0.93793870      -0.20321374      -0.53624339
Na      20.84737865       3.93992816      17.05490850      -0.86639662       0.61697228       0.02616572
Na      21.68623397       0.53654170      26.98942963       0.15767825       1.01725606      -0.10515436
Na      23.23092755      -2.07595027      29.03930684      -0.60673826       0.17981573      -0.14611971
Na      20.14564465       4.00625708      -1.96391390      -0.21602981       0.17583922       0.39691740
Na      21.77754632       6.43543250      -0.02501200      -0.58548771       0.06124636       0.28029372
Na      20.29758777       4.44872949       2.55280103      -0.80370218       0.77602467       0.14750306
Na      22.53394159       5.72490774       5.34275000       0.75162621       0.23380113      -0.73642609
Na      20.91327888       4.00769034       7.71503079       0.95239473       0.66077359      -1.50615147
Na      22.38286148       6.26350434       9.48317457      -0.47738395      -0.19708028       0.28674415
Na      20.45349805       3.64445161      12.40431866      -0.87298199      -1.54595781      -0.03870662
Na      22.95105885       5.96817617      14.93626477      -0.13531405      -0.36637528      -0.88445883
Na      19.67118505       7.20151151      20.29657090       1.55025612      -0.00650400      -1.16410527
Na      22.64569176       6.24560272      18.58107205       0.07170281      -0.26598933      -0.56691370
Na      18.91716110       1.89600560      25.86615295       0.04244618      -0.19617889       1.48038900
Na      23.80465476       6.47761266      23.86621267       0.89283299      -0.66137320      -0.84657880
Na      20.07805974       8.31783160      -2.15774804       0.96695019      -1.33548567      -0.50869166
Na      22.23517923      10.02800313       0.34492813       0.55527330      -0.67206536       0.58282444
Na      20.35178881       8.59483744       2.80084664      -0.23991507       0.71459412      -0.26233642
Na      22.10016146      10.33890977       5.19970238       0.14626398       1.44881255      -0.37537749
Na      20.29254530       8.33487056       7.12560972       0.95140772      -0.50815365      -0.23433594
Na      22.76198682      10.08463508       9.84662669       0.77706150      -0.43806435      -0.59542120
Na      20.73034117       7.59839017      12.42509102      -0.23242553       1.16186932      -0.46595341
Na      22.74863481      10.24801762      14.12569740      -1.90828024      -0.16467681      -0.18600959
Na      21.63943761      13.53906603      19.90567279      -0.61385392      -0.18899194       0.36009293
Na      22.45194485      13.51693580      24.44367042      -1.14544321      -1.22747945      -1.47341671
Na      21.10473849       8.55436480      22.67380198       0.59012698      -1.37504269      -1.68916584
Na      24.56656695       9.45017834      22.79161948       0.27647614      -1.18502082      -1.16169808
Na      19.90904153      12.31988156      -1.22133997      -0.32747984      -1.46086565       0.20480030
Na      22.52562819      14.13368864       0.65720194       0.46308233      -0.47027022      -0.04964060
Na      20.52618231      12.52255179       2.52903852       0.66533849       0.57930290      -0.71835264
Na      22.57563580      13.86126076       4.76244888      -0.44423039       0.75525314       0.86999163
Na      20.74971372      12.44060530       7.47061412      -1.11029813       0.33516448      -0.07707417
Na      22.94168648      14.32697528       9.80603078       0.39375053       0.32407707       0.12004513
Na      20.73281794      12.01091534      11.75207661       1.08077419      -0.80067430       0.51883931
Na      23.01424608      14.07182944      14.19937252       1.28496572       0.49151834      -1.17517623
Na      20.90774128      12.23804932      16.67562808      -0.26410725      -1.15614365       0.64982920
Na      20.48947769      16.82040768      15.72555492       0.68427209       1.06200996      -0.22205613
Na      19.15747213      11.92576694      24.13782689      -0.28290417      -2.54237063       1.10733535
Na      22.08842588      16.03001880      26.57909913      -1.68780912      -0.21126468      -0.62330575
Na      21.05249037      16.14204742      -1.31274567      -1.46336950       0.44338442      -0.29319745
Na      22.29578176      18.34940557       0.67861558      -0.81245001      -0.77096651       1.77958373
Na      20.47860577      16.62040341       3.20566415       2.22306314      -0.68249937      -0.24281670
Na      22.85311116      18.19677161       5.13255143       1.04737246       0.16696812       1.18216974
Na      20.62776364      15.79610589       7.25215754      -0.53671841       0.53875147      -0.32031174
Na      22.37170495      17.96751370       9.78970954       1.32749386       0.48166315       0.35780677
Na      20.96748439      16.08479263      12.22790128      -0.10268068       0.95482181      -0.60917224
Na      23.15954764      18.32699546      14.29093331       0.81123717      -0.48825768      -0.91976108
Na      22.75973244      18.84200659      20.07667187      -0.30551536      -0.16928542       1.48126889
Na      25.63849554      20.78659865      20.71951067      -1.05303518      -0.51081949      -0.16139386
Na      23.80765532      18.38927900      29.23348485       1.71048032      -0.27276592       0.75497862
Na      23.28920419      18.90674856      25.92000768       0.86574114       0.79089238       0.24926118
Na      20.56463847      20.57815145      -1.39712343      -1.24094721      -0.09755947       0.43402550
Na      22.13376688      22.45062195       0.92124761      -1.00644082       0.25496431      -0.84678675
Na      20.46079506      20.16757551       3.19978959      -0.53345402      -1.52989559      -0.28562690
Na      22.61653193      22.49483595       4.91453473      -0.27897899       0.06670437      -1.16515336
Na      20.35504910      20.45558187       7.24054018      -0.29725042       0.35265856      -0.15027397
Na      22.19967101      22.17941536       9.82639270      -0.94945252       0.44771771      -0.32874340
Na      20.65574527      20.32225296      12.40688115       1.40723126      -1.17635763      -0.34368265
Na      23.19092697      22.30565328      14.51163166      -0.92001753      -0.16160749       0.27037863
Na      20.45037621      20.20929414      16.37057531       1.09757955       0.25377604      -0.09246809
Na      24.60457180      23.80104456      21.24284424      -0.81817411      -0.54928055      -0.85617117
Na      20.04767894      17.06699740      20.33108684      -0.32760443       1.15155788       1.69995289
Na      23.55167486      22.44822085      25.81414242       0.20125341       0.41880987      -0.12961049
Na      19.73998892      24.69804561      -1.03809530       0.76775376      -0.35939113       0.43766870
Na      22.17747937      26.57092400       0.48541379      -0.69571285       0.18643708       0.11700924
Na      19.95905859      24.62691381       2.89584276      -0.07893314       0.36498592      -0.43752235
Na      21.93595664      26.87696574       5.31434651      -1.22778249       1.33880264      -1.29039725
Na      20.39033745      24.49138731       7.37999648      -0.72540802      -0.53813398      -1.15418515
Na      22.47176959      26.77876965       8.59506117       0.00487375      -0.71424459       0.06637552
Na      21.16359537      24.50058717      12.39442462      -0.56962760       0.67264860      -0.60483230
Na      22.69026507      26.61463671      14.65191160      -0.35884269      -0.33925983      -1.70225919
Na      22.56085835      21.93703909      19.07679930       0.80293973      -0.58655613       0.90128732
Na      23.07265920      26.19433393      19.66158666       0.31875083       0.51222005       0.69326115
Na      19.34475686      20.86084602      20.55710773       0.32652101      -0.84664568      -1.55198043
Na      20.38266950      20.32072254      24.61975583       1.13751726      -0.04726124       0.71691382
Na      24.26258662       0.00539690      -1.62544378      -0.22424082       1.01533535       0.53133144
Na      26.36519978       2.01204195       0.55091514      -1.19245487      -0.51450303      -0.27361633
Na      24.55262440      -0.00469524       2.91510528       0.05860033       0.77116977      -0.60416339
Na      26.05097822       2.37825127       4.89089471       0.64855916      -0.86922572       0.28578262
Na      24.44147680      -0.07136730       7.02436360       0.66636184      -1.11480797       0.11733660
Na      26.02468297       1.81281513      10.24943481      -0.28605748       0.56870849       0.32955424
Na      24.18861184      -0.69314805      11.92543030      -0.45160115       0.50537645      -0.70686533
Na      26.64111030       1.92516800      14.56143259      -1.05564904      -0.25197066      -0.05595615
Na      24.95348083      -0.21642095      16.96748506      -0.60426888       0.37860933       0.25983454
Na      28.54875738      -1.88991255      17.45376253      -1.67715190       0.80213568       0.48733224
Na      24.21801157       1.35304594      22.01832854       0.46690377       0.42680259      -1.13974142
Na      29.68538851       4.33355570      23.24465890       2.22082409       0.41799781      -0.00177170
Na      24.24363566       4.10867372      -1.65002899       0.62899527      -1.49598016      -0.13305461
Na      26.68690137       5.96268708       0.15909939       0.93697607       0.37593244      -1.14517835
Na      24.03693662       3.90431083       2.73205669      -0.53713318       0.76666604       0.72306596
Na      26.18846489       6.22959074       5.44337496      -1.07547180       0.53561028      -0.29828819
Na      24.54725453       4.02568218       7.49129499      -0.30241657       0.46975189       0.84101188
Na      26.30036529       5.91513741       9.30744585       0.32982364       0.74737779       0.20455376
Na      24.36593657       4.20833808      12.22531482       0.26191352       0.08697221      -0.17116941
Na      26.63890761       5.76604581      14.03380363      -0.15464464       0.94516753       0.92434974
Na      24.91373680       3.96517884      16.98564165       0.84868509      -0.02165976       0.20264433
Na      21.03688435       8.84162853      16.44356960       0.37279113      -0.39739908      -0.10303466
Na      21.60166245       4.94120131      21.97068285       0.16188909      -0.29347595       0.27878200
Na      27.80606218       8.29838180      23.76107600       0.63245228      -0.29948014      -1.07620227
Na      24.65474038       8.13729101      -1.28516673       1.09589471       0.78981359      -0.56311761
Na      26.44222382      10.14360607       0.49260063      -1.07765637       0.82035032      -0.61569113
Na      24.26089526       7.99472499       3.07719598       0.81258854      -0.66406978      -0.93992345
Na      26.84805485       9.82288871       4.99730413       0.07009017      -1.29336742       0.31558878
Na      24.17906320       8.28766528       7.55812312      -0.24725327       1.12997680       1.10309043
Na      27.01129943      10.18459177       9.35842085       0.19922094       0.36968385      -0.86230151
Na      24.52474102       8.20154072      12.52619923      -0.36638913      -0.39965048      -0.62891897
Na      26.82167239       9.92907811      14.27357566       0.62783369      -1.04206628      -0.67317426
Na      18.73035090      10.62159784      18.69369335       0.17753623       0.87052052      -0.66801897
Na      27.81114028      10.79983504      18.72469760       0.21599517      -0.01172278       0.17802514
Na      22.34424625       9.75824598      19.88197877       0.14180836      -0.62650190       0.46352935
Na      24.73334613      12.61256966      20.29506842      -0.56359299      -0.38136550       0.92582843
Na      24.50023081      12.04998592      -1.40386196       1.09960946       1.45457668      -0.00130435
Na      26.48978665      13.63616043       1.08655514       0.78308227       0.31119158      -0.48562203
Na      24.21334561      11.75324693       2.86808137      -1.33081282       0.70552853       0.67854646
Na      26.46132720      13.73995578       4.60631305       0.00273985       0.20399090       0.30195505
Na      24.64556495      12.05776593       7.29677391      -0.73555470       0.20652719       0.78736162
Na      26.99847320      14.55436845       9.63443573       0.04294201       0.45217984       0.32047384
Na      24.95803883      11.98563603      11.42263789       0.43365673      -0.58287145      -1.96510939
Na      26.82476663      13.80535537      13.76341244      -1.87251537       0.43339796       0.27294088
Na      24.99375161      11.56157114      16.41968906      -0.37682328       0.13566551      -0.00985803
Na      26.51573227      14.79312442      17.43557596       0.08197866       0.00388510      -0.06649862
Na      25.45492955      14.26953400      24.46528896      -1.02622881       0.37325558      -0.03943410
Na      25.33439321      15.81490474      27.43564540       0.08696344       0.52675954      -1.08445016
Na      24.81572639      16.00431528      -1.16316096      -0.84433708      -0.24658769      -0.24472369
Na      26.61483575      18.51644977       0.73494153      -0.13338044       0.22553567      -1.34095548
Na      24.67834654      16.02151820       2.92603397      -0.49893992       0.27925845       0.18198080
Na      26.57511869      18.44382708       4.91846352       1.44202923      -0.08630384      -1.01436734
Na      25.07993603      16.01130670       6.99226013       0.16745904      -0.03471567      -0.03623207
Na      26.16700123      18.63698833       9.39595889       0.23079898       1.12668266      -0.07302425
Na      24.65776716      15.98377657      12.11300323      -0.07871272       0.05556674       0.51497021
Na      26.63982154      18.02661082      14.73048907       0.46888682      -1.33829339       0.66787294
Na      23.20161269      15.83947010      17.78273632       0.53023879       0.99281948       0.00140077
Na      27.21915507      17.99585488      18.21650694       0.16639798      -0.01125375       0.39102817
Na      21.72085407      16.80414095      23.33639634       1.06255231      -0.89374105       0.58915199
Na      25.55726598      18.36892830      23.48946422      -0.83808684      -0.08795477      -0.65238314
Na      24.10228512      20.57097606      -1.21392722      -0.62955816       0.21495182      -0.37555384
Na      26.29943297      22.45090445       0.59450080      -0.45812475      -0.80270950       0.35524628
Na      24.38346892      20.53394710       2.71508402      -0.41788464      -1.10497573      -1.04698354
Na      26.14219115      22.39647477       4.76306630      -1.29013439       0.51215488      -0.25577425
Na      24.27546166      20.69673808       7.11082478      -0.60786738      -0.19288991      -1.28588880
Na      26.73862572      22.61560840       9.61724496       0.75408809       1.05813839      -1.55355903
Na      25.32305999      20.35406250      11.91209993       0.08492714      -0.94219325       1.29615293
Na      27.12506751      22.95149039      14.27160883      -1.31336792       0.32269866       0.50490755
Na      25.01951612      20.66630823      16.83069872      -0.30192435       0.80525339       0.70306150
Na      27.25779486      23.47485726      18.72149317       0.76202272       0.12855598      -0.02760512
Na      28.08739646      22.17400842      23.43742053      -0.36713765       0.07084613      -0.08558680
Na      30.52840067      24.38136690      24.86747179       0.11132647      -0.98426673       0.62701614
Na      24.47414528      24.59419734      -1.20341655      -1.25269954      -1.26792898      -1.89580303
Na      26.32280267      26.86805730       0.71869739      -1.08063716      -0.54507212       0.44203693
Na      24.17101378      24.94589138       3.06108085      -0.82910650       0.63191819      -1.37815666
Na      26.81563688      26.32920994       5.49967387      -0.94591701      -0.37125986       0.65816956
Na      24.32736143      24.45034971       7.13870401      -1.26659698       0.20268454       1.39153578
Na      26.80490671      26.35726015      10.04867783       0.22211674      -0.21825092       1.02866725
Na      24.74417973      24.20077921      12.27182750      -0.20563745      -0.31348808      -0.70532460
Na      26.74131392      26.52507960      14.42020232       0.02600035       0.28412413       0.17686215
Na      24.97912835      24.15207844      16.68688127      -0.99035872       0.04508452       0.99639983
Na      26.49347012      27.30633676      20.50830970      -1.04053047       0.31965945      -0.23327256
Na      25.27635894      24.26665679      24.27054163      -0.52071662       0.88250435       1.61275157
Na      27.84354964      26.46916655      23.93289228      -0.22286383       1.05271487      -0.46586116
Na      14.08733024       3.76161002      26.40888934      -0.35657446      -0.64535885       0.56603761
Na       4.33987199      15.08163566      33.44605529      -0.62048358      -1.08036625       1.80929276
Na       1.37136517       1.14695087      30.40596508       1.11318229       0.25940614       0.00296866
Na      -1.13018341       3.89839784      31.38903329      -1.47120135       0.92726497      -0.60912624
Na      12.19401927      13.76937636      27.06952512      -0.72750647      -0.15754377      -0.96472028
Na       5.27044991       7.33444095      28.52372320      -0.30074343       1.53341937       1.37140202
Na       2.20825147       3.78383928      33.99231812      -0.43229479       0.83936480      -0.55138866
Na       3.06940073      -0.18265137      40.03796187       0.36036643      -0.29581523       1.18120279
Na       3.01528521       0.08742477      36.63745164      -0.17681351       1.24911434      -0.26672797
Na      -0.35412372       3.68171755      36.50865234       1.40532350       0.03403439       0.54465908
Na      -1.01199394      -0.21533262      37.42778036      -0.67417440      -0.25665306       0.43192838
Na       6.16831937       4.34481947      32.02297531       1.40492053      -0.27769265       1.75297343
Na      14.99708097      10.28602194      27.45423806      -0.04350034      -0.29514939       0.17801701
Na       3.10090973       7.32802270      34.24437549       1.15070778      -0.82642135      -0.27471500
Na       3.62379201       6.59934643      31.32860012      -0.30342334       0.31447667       0.64209649
Na      14.00609349      10.44301796      31.34853055       1.05682113       1.84725480      -0.33018512
Na      15.62607225       7.03547300      29.95953310      -0.09167219      -0.00627876       0.11296229
Na       3.28083648      12.30854663      26.67096078       0.99938102       1.15997977       0.44737167
Na      13.84151054      10.65016752      34.70278751      -0.74159509      -0.51407802       0.52278197
Na       3.33522203       7.11693253      42.11688333       0.61907354       0.10049819       1.27672463
Na       3.40271028       7.13551319      38.09022702      -0.51496430      -0.33082787      -0.84336111
Na      13.83303771      10.22723793      38.54796712       0.57689110       0.15680504       0.32342159
Na      13.29489609       6.73045269      37.35384809      -0.84350123       0.45610355       0.32672217
Na       3.83658066      11.04454161      33.20435049       0.81596282       0.64914109      -0.71567268
Na       8.56065064       0.13792033      26.93238106      -0.24669565      -0.67298234      -0.96922209
Na      11.26703848      15.12400089      34.38911178      -0.73720504       0.49496196      -0.68093931
Na      11.11514938       1.20239417      28.79776179      -0.17821021      -0.77147281       0.75441914
Na       8.61864652       3.16021180      29.92580037      -0.52374246      -1.51491850      -0.68326123
Na       9.68598626      17.09986490      31.28546283       1.08974895       0.72219824      -0.39194633
Na      10.94748891       3.51849011      41.80019653       0.37906482      -0.16065559       1.24417335
Na       7.08843645       2.86999385      35.10544598      -0.72173251       1.18722656      -0.34225775
Na      10.47919031       0.12061872      40.42984882      -0.77338534      -1.60366443      -0.05662607
Na      10.46558727      14.09799286      37.76857491      -0.20806299       0.92096542       0.19174973
Na       6.96401623       3.56714853      39.10060539       0.70389955       0.74057248       0.74250467
Na       7.22449135      13.81156247      37.65228165      -0.57127048      -0.72668311      -1.75922367
Na      10.32516687       4.03963546      33.88036507      -0.72866129      -0.01716869       0.39624733
Na       6.59441281      16.08568572      25.80651498       1.65857978      -0.75043972      -0.32503924
Na      10.58290211       7.89379056      34.40645631       1.21058405       0.98442769      -0.09569665
Na      11.09861984       8.06094817      31.06512024       0.84756646       1.07470119       0.21988092
Na       7.11339905      10.79955478      31.86817242       1.38434621       0.65886033      -0.35079311
Na       8.72957769       6.41098049      29.45616266      -0.13015153      -1.00026797      -0.19333211
Na      12.72392496      11.35145171      25.44256509       0.51685232       0.71106994      -0.26488554
Na       6.65360225      11.00623719      36.18560388      -0.53175604       0.47358802      -0.78945079
Na      10.43580498       6.92786657      42.19931424       0.08189597       0.16917961       0.93127912
Na       9.94427471       6.89089776      38.20668009      -2.90330572      -1.02339098       0.69981879
Na       6.85138810      10.88596554      40.17719288      -0.64341385      -0.06116206       0.33780266
Na       6.61257771       7.51733232      37.08838840       0.09532409      -0.52484263      -0.36099817
Na      10.63946619      11.54258025      33.86939808      -0.87194768       0.63818892       0.67244611
S        2.25870883       2.04813289      23.25971697       0.08095291       0.03611326       1.44032485
S        1.09742250       5.58804382      32.08975594      -0.87084168      -0.31393132       0.52646801
S        5.49485069       4.61979686      24.39408240       1.28643387       0.80986193       0.28953562
S        6.43975116       1.46687246      31.77659293      -0.83042176       1.60407969       0.46823637
S        5.86114559       0.18475423      26.13918091      -0.35794445       1.14275318      -0.13046134
S        6.41199972       4.80922192      29.19411194       0.48341939      -0.46745275      -1.71840932
S        2.89489126       6.00381138      28.32210383       0.20214584       1.09546523       1.40133855
S        3.36220307       3.52922565      31.21644444       1.23781401      -0.20875575       0.59123687
S        0.88696617       1.33029602      34.87430819      -0.32475734      -1.28542910       0.29652951
S        1.53587363       6.07872239      40.10399182      -0.18839107      -0.94855571      -0.25954959
S        5.61306682       5.76997548      34.50226625      -1.46483755       1.12057940      -0.13891641
S        5.38919367       1.28288805      39.83306770       0.99371420       0.24057873      -0.75639336
S        4.60201482       2.06091047      36.02589007       1.04527879       1.31936273       0.65559080
S        4.48022698       4.76539849      39.11980503       1.26845848      -0.39731548      -0.72049744
S        1.98101635       5.37437275      36.20044690       0.85927575      -2.04494179      -0.73323992
S        1.58272212       2.14088092      38.37618076      -0.06487051      -0.16952553      -0.28959850
S        0.79880874      10.15701999      24.83006598      -0.76755792      -0.76928265       0.54806664
S        0.46982509      13.20344034      31.17483517       0.35226047       0.86322740      -1.43916174
S        2.83163072      14.39842153      24.65804864       0.26674028       0.13503213      -0.92204711
S        5.80126578       8.25974579      31.71033172      -0.55425270       0.82219203      -0.21593532
S        6.04653747      13.57780421      26.86863827      -1.71041623       0.69190635      -0.27689662
S        4.83131879      11.92486578      30.43578306      -0.96571890       0.56232781      -1.07392590
S        1.52893684      11.92395942      28.58057904       0.04017089      -1.82452429      -0.91182026
S        2.35673702       9.24213134      31.28130654      -1.34385456      -1.60516201      -0.40010985
S        0.63023308       8.45857378      34.57610284      -0.19952857       0.56503908       0.54675476
S        1.24107997      12.93865954      39.69423054       0.42296727       1.02282592      -0.35736966
S        6.15265050      12.70502891      34.14714156      -1.22356130      -0.68500645       0.74813592
S        5.47732944       8.33598930      39.77983535       0.01066615       1.37770276       0.22919947
S        4.56103824       9.10563112      35.86874820      -0.52718234       0.68646577       1.03994198
S        4.73737209      11.92130136      38.40712970      -0.56037937       0.43627611      -0.23816579
S        1.92083898      12.23854526      35.70641622      -0.70943916       0.03128179       0.67419079
S        1.95450316       9.41501977      38.59158272       1.15061201       0.28278674      -1.13247233
S        9.08134378       2.35014965      22.54051895      -1.48380880      -0.18497391      -0.70199113
S        8.97448463       6.17384875      32.18544596       2.69863674       1.17424842       1.07247538
S       12.30212132       4.14832881      24.06501623       0.33955229       0.67647397      -0.09781703
S       12.94071108       1.16544616      31.12498551      -0.10719408       0.15974353      -1.00908169
S       13.13495372       1.03417621      26.63930105       0.98891648      -0.19314572      -0.16103768
S       10.83981051       4.73860415      29.81864749      -0.50859661       0.24338302      -0.48842539
S        9.65736085       6.51285688      26.54653244       0.10887729       0.12693009      -0.54538355
S        9.10680681       2.94345063      26.96809582       0.22777651      -0.13312473       1.60253495
S        9.12750918       1.22875773      34.22249328      -1.96982847       0.25385888       1.92961982
S        8.48252719       5.51471654      40.37550175      -1.24934900      -0.20438711      -0.09635094
S       12.55640531       5.85718708      34.49882839       0.06225574      -0.69890057       0.30329146
S       13.01206207       1.64223056      39.94358418       0.34625810      -0.09843025       0.20757161
S       12.14195606       2.33938817      36.38564448       1.56515379      -0.65256827       0.55625185
S       11.75500527       4.90168653      38.93830334       0.22084889      -0.46194668       0.32115414
S        8.85542646       4.77104217      36.37446771      -1.73879622      -0.52024558      -0.36373859
S        9.11564321       1.88928653      38.72998613      -1.43338459       0.22900974       2.34910776
S        6.11932231       8.59820560      26.29552931       1.20178088       0.02161794       0.49415835
S        9.70803802      13.27727348      32.01315607      -1.75475840       0.03043347      -0.64703867
S       12.34259392      12.80197136      23.26003782       0.47637646       0.36545886      -0.89862162
S       12.00818253       9.56938266      32.80682201      -0.28976183       0.39630173       0.95192179
S       12.68450246       9.55313150      28.78198657       1.94839155      -0.09644743       0.32463087
S       14.77662948      13.09877654      27.11153977       1.77406813      -0.26204628       0.82174525
S       10.27811189      11.34069362      26.37321974       1.16492840      -0.05426444       0.14807188
S        9.11824961       9.55612096      29.57989351       0.07527114       1.92053284       0.25660578
S        8.00737398       8.96855014      34.69924588      -1.28051446      -0.75310031       1.63599948
S        8.41489113      12.98819522      39.99748747      -0.86534001      -0.43566416       0.60230581
S       13.07080302      13.18171504      35.04209336       0.64571371      -0.34514566       0.13023952
S       12.70953100       8.69046669      40.46771583      -0.74765085      -0.26723669       1.48411013
S       11.95273090       9.08029116      36.66762873       0.29574780      -2.07442650       1.26679699
S       11.76101587      11.88729336      39.08190996       0.88405723      -0.04892309       0.33491510
S        9.39054348      12.34127646      36.16477184      -0.05100993       1.10254720      -0.23956752
S        8.55628558       9.42033316      38.47160566      -0.26697245      -0.85352296       2.12218257
Sb       0.04548781      -0.17262671      41.42233497      -2.69288205      -1.42150667       0.49359698
Sb       4.07672733       3.80232852      28.94682026       1.03268848      -0.44988012       1.32865679
Sb      -0.69219522      14.28844027      33.01672153      -1.96498461       2.32489223       2.17812047
Sb       3.21056586       3.64003249      37.38225906       3.20193252      -1.64631301       2.34892126
Sb       1.32871292       8.28220704      26.30725922       1.16103487      -0.10585162      -1.20559955
Sb       3.36159429      10.27165827      29.32443199       3.19397924      -1.60281350       1.88855099
Sb      -0.57238136       6.97012183      33.19907206      -0.18482507      -1.43362449      -0.69934609
Sb       3.14230863      10.67488180      37.05732968      -2.28909685       2.47833936      -0.38503789
Sb       4.08765411      16.74970022      23.94186545       0.42513669       1.17932432      -1.38543135
Sb      10.90056069       4.52404106      27.33216982       0.13227156       1.61892626      -1.13280974
Sb       7.56487910      -0.21248578      33.05249653       1.13550599       0.32374575       1.97529427
Sb      10.46024027       3.46892275      37.62396138      -2.33164213       3.83030473       1.00380032
Sb       3.75676943       9.55760686      25.51154861       1.90998756      -0.31513577       0.60080484
Sb      10.84386296      11.08555394      28.93657209       0.20706509       2.29669644      -1.21828712
Sb       7.10848035       7.26670695      33.29249650      -2.07876212      -2.15984239      -0.82759332
Sb      10.41178311      10.63982003      37.58575690       2.25856677       0.33674625      -2.54968920
Na      14.87400486       3.66676101      41.57139596       0.37781047      -0.71779809      -0.20269909
Na       3.97258315      14.06939918      48.24396917       0.00025639      -0.31734829       0.19225641
Na       2.98184375       0.11345564      44.04266611       0.53674827      -0.73069974       0.09699412
Na      -0.14019798       3.23505551      44.41819893      -0.51090320      -0.12933716      -1.11185979
Na      14.80223437      14.20903376      45.10683828       0.07508697      -0.73175797      -0.21909505
Na       3.67938334       3.45298813      41.44199483       0.12151725       1.33127565       0.61840883
Na      -0.16688807       3.11552833      48.38822694      -0.69528697      -0.70668228      -0.65534016
Na       3.41650275       0.49859610      56.69042255       0.52654848       0.32150108      -0.72457728
Na       3.16343644      -0.06339535      52.53486461      -0.07691688       0.78295584       0.06286796
Na      -0.22286262       3.68110813      52.39623567       0.72662838       0.18295516      -0.89570829
Na      -0.71193006       0.16529340      53.90682830       0.25838249       0.00946640       0.81038683
Na       3.71271617       3.29618849      49.62312762       0.16245172       0.77435803      -0.62130854
Na      13.94485346      10.64001099      42.25205995      -1.04416963       0.04925467       1.47061246
Na       3.60130794       6.81680222      49.00074945       1.20660951       0.89577528      -0.87351487
Na       2.76335784       7.11295309      45.49433869      -0.02928754       0.25309845      -0.22984255
Na      14.13667961      10.54945879      45.48291958       1.28489163      -0.05580245      -1.35079679
Na      15.03323226       6.93725010      45.34942670       0.59814162       0.51464290       1.64952542
Na       3.47952031      10.56864711      41.19788027      -0.29931320      -1.13426374      -0.21284354
Na      14.11188510      10.71336011      48.79359043      -0.97548367      -0.29506129      -0.59990158
Na       3.96792534       7.32357852      55.92073465      -0.52048519      -0.54460328      -0.03440667
Na       3.38336973       7.33810527      52.35554234       0.69487625       0.60130527       0.21851498
Na      13.94617720      10.84347811      52.85414746      -0.30957230       0.63004156       0.48061606
Na      14.11247449       6.70571030      52.93221689      -1.17500242      -0.15510346       0.88764722
Na       3.27513802      10.45437095      49.88517765       0.47912890      -0.66442428      -0.04291049
Na       7.12027746       3.94742771      42.58251375      -1.26684778      -0.81749400      -0.63786398
Na      10.91508985      14.57965901      48.51897473       1.58832858       1.24256874       0.48435695
Na      10.14787426      -0.07969800      44.59902713       1.30640188      -1.17133306      -0.18957658
Na       6.99376571       3.25315260      46.25180649       0.38278057       0.50679714       0.12315723
Na       8.02585849      13.95380174      45.81658582       1.07385435      -0.33410423       0.23225732
Na      10.94539272       2.90355286      58.03438390      -0.53481320       1.39439921       1.77657508
Na       7.08710864       3.52187200      49.89230636      -0.20612689      -0.49939492      -0.49303191
Na      10.47072902      -0.21586432      55.84373952      -1.58458532      -0.46196981       0.70091820
Na      11.03168205      14.28049025      52.34175275      -0.00020282      -0.33048636      -0.28894587
Na       7.16713262       3.71380977      54.97746255      -0.08675865       0.08077815       0.30020325
Na       7.72727088      14.54523015      53.92069447      -0.06196273      -1.05667663      -0.81279463
Na      10.85752812       3.48246549      49.04727737       0.30831816      -0.95767269       0.67885976
Na       7.16175527      10.59880637      44.17732625      -0.21040165       0.58435467      -0.53320995
Na      10.25163858       7.66199748      48.63718187       0.54338622       0.21590923       0.12406952
Na      11.34806175       6.84675737      45.14043721       0.35888707       0.74509981      -0.95220730
Na       6.89461627      10.59376284      47.76612407      -0.30823223      -1.11851912      -0.86427590
Na       6.83937930       6.96432163      45.46131899       0.55269367      -1.93698579       0.19341927
Na      10.45482835      10.51223122      41.41673479       0.94107166      -0.99628946      -0.65126883
Na       7.00669322      10.88287345      51.50745490      -1.29149150       0.21832417      -0.89455183
Na      11.16958103       6.87140319      56.06612777      -0.25321607      -0.38520379      -0.20360374
Na      10.78909560       6.88237388      52.25878998      -0.84852560      -0.43020627      -0.39456067
Na       7.07441210      10.70976225      54.89461811       0.24872838       0.34357112      -0.25380980
Na       7.12478370       6.68479700      52.95792900      -0.89182447      -0.30266128       0.01031137
Na      10.08626623      11.11329410      49.88740182       0.20255533      -1.66828019      -0.65694237
S        1.55983235       1.51817039      42.13420142       0.18316739      -0.60637614       1.29522005
S        1.39922508       5.69082652      47.85563406       1.78895748      -0.35284311       0.10495649
S        5.63129840       6.10259201      42.96691837       0.63004822      -1.55194455      -0.31078676
S        5.63992509       1.82389205      48.21596175      -0.67734243      -0.75952129       0.52631473
S        5.12940506       2.29615606      44.14519910      -0.86441033      -0.85241054       0.19982779
S        4.66521073       4.63665371      47.06282421      -0.48180310       0.30861336       0.25821016
S        2.31125397       4.77593468      43.90226066      -0.54969391      -0.47011789       0.45639064
S        1.91606811       1.79083271      46.42610539       1.26408106       1.14624241       1.42332252
S        1.42667662       1.44179935      50.41303581       1.13487501      -1.08046152       0.61010082
S        1.53269436       5.99876609      56.32569981       0.21818750      -0.78673115      -1.30337886
S        5.45881454       5.82624547      50.84445469       0.22786400      -0.13151957       0.40843991
S        5.88628450       1.43378411      56.11704973       1.02264935       0.13178471      -1.06004656
S        4.96310586       2.40285017      52.22081360       0.38515916       0.04552800      -0.36161952
S        4.65256983       4.70005892      55.18566374      -1.78143296      -0.98749061      -1.10279433
S        2.14200233       4.95596001      52.23419359       0.92967797       0.12294416       0.79884511
S        1.85897504       1.88190244      54.59975251      -0.37173809       0.42981245       1.58724209
S        0.73955066       8.23733304      43.21721068      -1.59884185       0.00439964       0.28262573
S        1.38615475      12.42858542      48.27260694       1.02503346      -1.38146285       0.19627482
S        5.65372062      12.64750143      42.36378936      -0.77714873       0.89958798      -1.92240516
S        5.75066806       8.33437164      47.85663404      -0.45309169      -0.94177027       2.81274743
S        4.37517232       9.11531198      43.94745869      -0.12709059       0.94774346      -0.74976467
S        5.12127299      12.36016038      46.40706752       0.12740081       0.02329575       0.11314535
S        1.96356540      12.16643891      44.46761328       1.58694021       0.07617948       0.04935112
S        2.45885411       9.31777651      47.04765677      -0.53975599       0.76517944       0.24132907
S        1.51017699       8.52691266      50.63792527      -0.84991016      -0.52077884      -1.04766965
S        1.27680140      12.52917626      56.33175715      -0.23014221       0.03716059      -0.96999702
S        5.48000467      12.89495527      50.41916420      -0.37745135      -1.90638761      -0.23643313
S        5.83938773       9.07192392      56.97842898       0.00443526       0.00008151      -0.42891739
S        4.93256415       9.51891898      52.37069314       0.39629570      -0.16865007      -0.28605391
S        4.73931134      12.05313652      55.25900912       1.89540091       1.37675262       0.81613295
S        2.25840899      12.24463242      52.22043855       0.28894319       0.76061370       0.29669646
S        1.98890576       9.29426776      54.79019379      -1.02888950       1.52828387       0.84029552
S        8.24557479       1.34701888      42.59551058       0.38305619       0.74772445       0.61087872
S        8.36601031       5.67334481      47.94647753       0.10960208       0.20575915       0.28754823
S       12.98532707       5.65517695      42.98346059       0.90215994       0.29768183      -0.05770735
S       12.99038171       1.58630937      47.98038183      -1.29139126      -0.54495087       0.57152219
S       11.90369834       2.05553943      43.98164857       0.32460726      -0.35350697       0.65859744
S       12.11022445       4.50909638      46.83078108       0.89515208       0.31857775      -0.68471582
S        9.37492953       4.78528275      44.18242468       0.56351713      -0.08170904       1.03355483
S        9.10592551       1.72408141      46.69511740       1.40368244       1.02195672       0.15393267
S        8.12264799       1.25674313      51.06666396       0.61250770       0.62007507      -0.02769218
S        8.53413232       5.97740811      56.25075163      -0.40869604       1.34141237      -1.98030720
S       12.67452851       5.66249303      50.60259108       0.07537345       2.10494659      -0.61463562
S       12.55503277       1.48746177      56.31422274       0.04187744       0.64272121      -1.19488364
S       12.02068904       2.21811088      51.65640519       0.63236178       1.44941893       1.51968933
S       12.26241159       4.91049239      54.34124646       0.33526374       1.22811502      -1.27107156
S        9.10412934       4.84380465      52.27171231      -1.16329059      -0.25905800      -1.56374078
S        9.54830649       2.01813479      54.58365192      -0.58860652       0.06247089       0.29640426
S        8.21624066       8.84161466      42.45047562      -0.31337018      -0.01111273       0.75313544
S        8.65171168      12.81864959      48.29552142       2.16156496       1.29180495      -2.01533197
S       12.70848992      12.90660092      42.66279989      -0.42187514      -2.30610694       0.13238845
S       12.87206536       8.13266367      47.56321356       0.09873287      -0.06119303      -2.26370225
S       11.77910839       9.15011069      43.83156686      -1.20106435       0.29288477      -0.05139974
S       12.17168626      11.85468521      46.51355779      -1.39648692      -0.60163094      -0.47648254
S        9.35146430      12.22364158      44.07050627       0.48602772       0.18396706       1.35191278
S        9.04697265       9.47162966      46.47961956      -0.55759263       0.29719082      -1.49211333
S        8.53071038       8.39242396      50.55088095       2.14047496      -1.31974214      -0.59357741
S        8.49315309      12.63744228      56.46095020      -1.11338522      -0.50465200      -1.34397229
S       12.56964250      12.84865665      50.56672312       1.71566693       0.43855790       0.68843969
S       13.37177970       8.18880846      55.39208511      -0.84026455       1.30085270       0.22474485
S       11.65110863       9.54902312      51.91826566       0.30692427       0.33753120      -0.60252973
S       11.89499586      12.18891256      54.77699439       0.99378327       1.61589174      -0.88681370
S        9.17207948      12.24818130      52.36659226      -0.24579649       0.74824361       0.92009836
S        9.34646864       9.16958287      54.89695451       0.11948008      -0.15460103      -1.37441061
Sb      -0.15089026       0.15419690      57.79033180      -2.66554395      -1.05400826      -1.31089128
Sb       3.46238583       3.37260884      45.45160923       0.39529500      -2.80603584       0.22788378
Sb       0.19856425      14.16276151      49.41287642       0.86643698      -3.98019393       2.88045303
Sb       3.43521968       3.53139848      53.67467208       1.95901652      -0.59962936       3.35831678
Sb      -0.20693072       6.82543221      41.44383363      -1.79925696       2.85422427       1.89617107
Sb       3.61952854      10.75612998      45.50610609       0.64306950       0.47007339      -1.45117225
Sb       0.01166708       6.94472066      49.35816505      -0.46405011      -1.91335018       3.24835182
Sb       3.41043907      10.87652969      53.73864872      -1.40597995       4.76855774      -0.69392808
Sb       7.05055798      14.26851425      41.47910861      -0.57046230       0.24285546      -0.33873950
Sb      10.53409210       3.26449672      45.49240548       3.30167784       2.96675081       2.92785220
Sb       6.83766253      -0.01395486      49.38534227       0.99391170       0.73632981       1.52822718
Sb      10.78741939       3.49646398      53.15111099      -4.75953840      -1.14552497       0.77103620
Sb       6.93337160       7.21710061      41.36669134      -0.23697392       4.30414722      -2.19803510
Sb      10.61093849      10.63766512      45.17974703       4.08521638      -0.42064603       3.11148033
Sb       6.98212944       7.01112189      49.28563971       1.54164869       0.99348913      -0.33189679
Sb      10.57103248      10.71047153      53.58599742      -0.99489928      -1.26705279       2.56957336
Na      14.30093015       3.88736355      56.26853270      -0.54732356      -0.07956356      -1.48875581
Na       3.31204541      14.59716674      63.97653053      -1.16152416      -1.12312902      -0.43574059
Na       3.37648791       0.15027709      60.45811147      -0.14897689      -0.71303482      -0.10720913
Na       0.02602647       3.72143218      59.64714697       1.31081193      -2.01432423       0.28758821
Na      14.01954766      15.52866646      62.38645709       0.44302804       0.75003179       0.16236693
Na       3.21551310       4.43063791      57.87988263       1.15853931      -0.59002981      -0.16867278
Na      -0.20073427       3.71252339      63.73827543      -0.07643490      -0.75036840       0.47652878
Na       1.31608284      -1.24561012      70.73759801      -0.15784391       0.40928641      -0.28845531
Na       4.24272091      -2.60728460      68.82321917      -0.46707699      -0.27605122       0.37050338
Na       0.20171249       2.61316161      67.38043372       1.27943489      -0.34744538      -1.00058025
Na       2.02677032      -0.57869777      67.52702422       0.51592870      -0.71269390       1.05132695
Na       3.67775850       4.94655112      66.09288152      -0.08575347      -0.49065191      -0.22406308
Na      14.15884052      10.71555415      56.21162066       0.06710441       0.09221255       0.25224715
Na       4.07977566       6.96425943      62.85209271      -0.18111914      -0.47035931      -0.38176470
Na       3.64590489       7.81368215      58.93284383       0.65745915       0.14923907       0.61853893
Na      14.07340356      11.05400401      59.64800448       0.48060167      -0.74740049      -0.01929371
Na      13.85632208       7.88473144      62.77859153       1.36121866      -1.56784222       0.60212809
Na       3.53047453      10.98376234      57.80342387       0.51088669      -0.87950303       0.82277775
Na      14.69702107      11.66364174      63.19165380       0.65175421       0.07155517      -0.09521531
Na       4.03058323       6.00376573      70.18696793      -0.29495197       0.03406119      -1.05239352
Na       1.70274982       7.98147145      66.26008430      -0.46961867       1.32926284      -0.30425073
Na      14.70071043      10.83746468      66.98069723       1.92050449       0.22421506      -0.82807326
Na      15.21661982       7.98205769      69.76855829       1.84503368       0.99740590       0.40014487
Na       3.88087683      10.65215427      65.83502278       0.44510057      -0.09239635       1.35603273
Na       7.13498864       3.26134965      58.15571754      -1.34276886       0.70075391      -0.25270202
Na      10.65897172      14.70503205      64.36270687      -0.34197409       0.36810299       0.08791470
Na      10.70951153      -0.06691924      60.10039003       0.92033112       0.56178529      -0.54845857
Na       7.24765608       4.17878290      61.60809641      -0.23602793       0.02246156       0.53785629
Na       6.91633552      14.32300598      61.30786031       0.75086300      -0.74610933      -0.94441813
Na       8.24208894       7.03929653      72.48589657       0.65568798      -0.88780932       0.44235687
Na       6.96673533       3.49912719      65.20547518      -0.69736565       0.66599609      -0.34327693
Na       9.60689874       1.12465490      73.47549714      -0.47487775      -0.55828693      -0.32380076
Na      10.38121113      13.96669852      67.71018145      -1.01615984       1.11745268      -0.58534086
Na       8.02613423       3.58558235      69.09158507      -1.19770422      -0.69769718      -0.04109578
Na       6.07117572      13.63583072      70.13815057      -1.62727896      -0.84735176      -1.44757152
Na      11.03158448       2.79990705      65.90098328       0.55448426      -1.06255991      -0.00212710
Na       6.64006339      10.60019030      59.65226668      -0.72021493       1.58032090      -0.95612615
Na      10.71061759       6.73476555      64.74851109       0.20207717      -0.71569762      -0.03933567
Na      10.96391914       7.03726320      59.96144917       0.20316401       0.92456322       0.23799864
Na       7.47910071      11.26920713      63.29561453       1.22749579       0.70195435       1.02660199
Na       8.34863293       7.68379144      62.06819563      -0.45117653       0.13812485      -1.05801873
Na       9.98917923      10.92160049      58.32035029      -0.54678761       0.53716355      -0.77926460
Na       7.86948454      11.62744057      67.72902838      -0.21936100       0.71953137      -1.05864694
Na      10.27501211       8.01231620      71.53328270      -0.33922930      -0.28078520       0.59971645
Na      11.45775641       8.51918901      67.65898254       0.45048578      -0.03867626       0.72889571
Na       7.01685832      10.77024193      70.65641511       0.02923158      -0.48806707      -0.84522789
Na       7.14983991       7.11340098      69.31227770       0.68653285      -0.47417626       0.79458042
Na      11.38747694      11.27856304      65.55966715       1.08956657       0.77001719      -0.08698660
S        1.47228192       1.64440580      58.73691152      -0.60198777      -0.45003266       0.07794227
S        0.72712874       5.30491167      66.87630130       1.22095131       0.68601427       0.97780289
S        5.81571107       5.75870625      58.86920086      -0.50131278       0.11463176      -0.91141325
S        6.93369897       1.18153709      64.02475420      -0.56464350      -0.66317315      -0.58527660
S        5.14918001       2.33792253      60.32410376       0.36281362      -1.28193829       0.75688411
S        4.87043344       4.38159927      63.50065584      -0.66577666      -0.55358133      -0.26928904
S        2.34276491       5.07514658      60.94885689      -0.06133030       0.29907091       1.81758392
S        2.08457381       1.60457881      62.78025026      -0.73691786       0.76457611       0.24891108
S       -0.19027886       0.24909955      68.94747003       1.19901358       0.23785188       0.52682971
S        2.82179345       4.38696644      75.97927962       2.11125948      -0.49342028      -0.74231347
S        6.26926295       5.09079163      67.55104397       1.00992273       1.31555514       0.12290945
S        4.71845178      -0.64385577      75.38084865      -0.60728363      -0.25540741       0.71950278
S        3.04356429       1.95612327      66.64252167      -0.03600737      -0.23764281      -1.10985414
S        5.90726457       5.78360601      72.15929066      -0.09426230      -0.72617667      -0.76905416
S        2.77300388       3.62363416      69.94566459       2.44547540      -0.04942309       0.18440480
S        3.67125681      -0.07381184      69.89824839       0.70788697       0.26679800       1.18275055
S        0.89568628       8.61396513      59.30631842       0.57935211      -0.81938497      -0.17041629
S        0.86015456      13.54840766      63.80268051      -0.52502605      -0.07169464       0.10358239
S        5.47301023      13.14585588      59.13151921      -0.16303099       0.64363120       0.66301911
S        4.43879992       7.57184432      65.47985834       0.44132941       0.42225869       0.46871366
S        5.05022497       9.05121476      61.30534836       0.08085938       0.31845717      -0.27821327
S        4.89551379      12.21573652      63.54225825       0.18877473      -1.47740053      -0.75762873
S        2.47312899      11.78760639      60.40135052      -0.90037630       0.03467384      -0.62969227
S        1.95451025       9.57059848      63.37916003      -0.76843466       0.74249825      -0.52795546
S       -1.22368507       7.63646838      69.54189020      -0.72668589      -1.28478380      -0.34551364
S        3.49911367      12.84363624      77.21275523      -0.64550146       0.73789300      -0.18400050
S        5.16890830      12.32818941      67.90848124       0.21613427      -0.39775050       0.36573071
S        4.80693686       9.01394701      75.13866029      -1.05707927      -0.26945417       0.72540471
S        4.76352672       9.18851542      70.09745536      -0.26452796       0.10211990      -1.18876689
S        5.52926549      12.81920283      72.80383942       0.68872373       0.32137453      -0.10096078
S        1.79406449      10.10745746      68.00615628       0.16556982      -0.77170122      -0.85337583
S        1.11735875      10.82826647      72.91238405       1.22993133       0.46851679       0.70772738
S        8.64851222       1.05356046      58.81708213       0.42043416       1.23478331      -1.16570601
S        8.10963163       5.98663254      64.33423098       1.10448797      -0.21485173      -0.58265116
S       13.02687256       5.93453918      58.13812107      -0.12004714       0.33651996      -0.01781464
S       12.87322362       1.31382489      64.36706955      -0.10507393      -0.81623540      -0.67119779
S       12.28710481       2.28430879      60.30770296       0.11998360       1.84285677      -0.14058887
S       12.21151296       5.65906490      62.42560184       1.54239197       0.00885349       0.90100489
S        9.50142409       4.71354265      60.03389123       0.67781411       0.45480651      -1.26131881
S        9.39773129       2.72520159      63.10580897       0.08636554      -0.75689836      -0.37851350
S        9.11119737       1.59843258      67.46905757      -0.43120738       0.16873849       0.53822718
S        9.63442392       7.87828545      77.29769849      -0.85462216       0.16629755       0.49604305
S       12.59199569       4.90612721      66.63238386       0.47045535      -1.84020018       0.04677749
S        7.43258722       2.79228681      76.07089193      -1.23233438      -0.63355988       2.02960548
S       13.44742506       3.82629872      71.13404666      -0.05530394       1.00319047       0.65373976
S       10.45427955       6.06977481      73.48325590      -0.09362192      -0.55994604      -1.83746585
S        9.65827990       5.44949795      70.09606431      -0.64891932       1.62453909       1.44372724
S        7.34128657       0.77941576      72.15673521      -1.25761787       1.13629245       1.02380521
S        8.55035602       8.64407757      59.32545702       0.82086923      -0.50877252      -0.70459809
S        9.00312399      12.90291555      65.41778230      -0.38954247      -0.91167774      -0.48856339
S       12.46384635      12.98337812      58.83293680       0.13553903       0.18219403      -0.81378348
S       13.08198193       8.58998778      65.63476157       0.12187097       0.26796232       0.15359700
S       12.23806915       9.35652765      60.75391158       0.55218103       1.61107008      -0.79867107
S       12.12398743      12.63935726      63.06426532       0.16928328      -0.07971147       1.14389370
S        9.03262445      11.96545671      60.87957610      -0.46719957       0.54354214       1.75742196
S        9.68785074       9.41846665      63.75110047      -1.29009927      -1.73875820       0.64179267
S        9.10474506       9.45620470      68.75173477      -0.51973409      -0.30243112      -1.36425190
S        8.25485956      12.34144525      76.54343794      -1.70621116      -0.02266903      -0.30052041
S       12.01739773      11.80023088      68.15539389       0.12366363      -0.52657701       0.92978604
S       12.48293617       9.99947968      75.63764435      -0.06906271       0.22309920       0.77992329
S       12.83487996       8.66646883      71.12862624      -0.62633181      -0.37294575       0.71664293
S       12.39934199      13.12452962      72.04843010      -0.40753990      -0.16896142       0.19537692
S        8.76297552      13.12002424      69.92283627      -0.68583687       1.01992126       0.12933166
S        8.53139944       9.88704603      72.93143742      -0.55576750       1.41231809       1.23329614
Sb       0.10033802       0.51756809      77.94055297      -1.62157298       1.43417443       0.65597349
Sb       3.59966843       3.24038089      61.93914041      -0.88473409      -4.04200610       1.24358902
Sb       0.28926399      14.60983819      65.85610314       1.73773615      -2.71804631      -1.59255170
Sb       4.27243353       1.94324687      68.78531026       1.30728804      -0.59685798      -2.52586282
Sb      -0.06939656       7.37486382      57.49491619      -2.61430869      -1.07143612      -1.37507953
Sb       3.65060628      10.80440305      62.19206003       1.64585835       0.93691211       0.42454374
Sb      -1.29160005       6.54284784      67.19315409      -2.38812890       0.63758708      -1.55062985
Sb       3.53748794      11.25156491      69.41611207      -1.86272351      -0.80489730      -2.20695364
Sb       7.08847310      14.09771765      57.66564766      -1.12487100       0.99826386      -0.54563384
Sb      10.90400158       3.75078207      61.67041744      -0.10409241       0.80985530       0.30404939
Sb       7.47849168       0.19920617      66.33473702       0.61723067       0.02103674       0.67126225
Sb       9.60712081       4.02084872      72.17846545      -1.46064081       3.19405561      -0.80729163
Sb       7.20259800       7.32272078      57.79195453      -0.42261930      -1.09339264       1.70675023
Sb      10.79150054      10.81173318      62.10382659      -2.06138437       2.13433411      -1.12642488
Sb       6.82060000       7.05136017      66.14126352       2.02245166       2.24141128       0.37111515
Sb      10.40252696      11.14907213      70.13718166      -4.28361259       0.49504910       4.06942932
Na      15.30599741      15.81687087      27.41499663      -0.27851261       1.26176002      -0.63997891
Na       4.47877710      28.50331616      32.44754453      -1.09304397      -0.25031111      -0.58539081
Na       2.81986042      13.63233579      30.03298504      -1.06820768      -1.35552417      -0.42776073
Na      -1.99152116      18.17862574      30.95658236       0.96026579       0.42236982       0.96352633
Na      14.31939702      28.15350241      28.90678586       0.77750581       0.55298571       0.88514578
Na       3.85911989      15.75073688      26.97447874       0.92794288      -0.45185013      -0.04483552
Na       0.30720935      18.06045789      34.14490136       0.62822345      -0.36232259      -0.24692114
Na       3.19156198      14.31092049      40.68572812       0.03121598       1.66504744      -0.45200043
Na       3.31313865      14.18673889      37.46400948       0.46390969       0.42897666       0.13391411
Na      -0.31077143      18.08657514      38.11478305       0.68992831       0.26792510      -0.11355923
Na      -0.08504958      14.64737543      37.14069455      -0.60954013       0.21351553      -0.21576001
Na       3.00095792      19.60680128      32.73617746      -2.28002176      -0.02305636       0.72341246
Na      14.23150063      22.62950698      28.15531631      -0.22432268       1.08173828       0.78293229
Na       4.59589928      22.34512629      32.56526929      -0.67409516      -0.88272991      -0.91852287
Na       3.44995977      22.16296751      29.04141293      -0.25934263      -0.93765490      -0.54619352
Na      14.27787061      24.98693063      30.81649806      -0.58251417      -0.48911705       0.95757997
Na      17.31199807      21.73176115      30.55843622       1.22546505       0.40356400      -0.32397881
Na       4.77693826      22.86446883      26.27622738      -0.12922785      -0.02768233       1.00669361
Na      14.03915650      24.67565892      34.34639633       0.08605297       0.81040630      -0.98654653
Na       3.42322941      21.20814484      39.86183457       1.13608262      -0.23010135      -1.02527094
Na       4.41076227      21.15214213      36.26353709      -0.91921355      -0.74983264      -0.57724143
Na      14.11484307      25.08839683      38.19220866       0.50939224      -0.62243142      -0.92045149
Na      14.50626455      21.20655993      37.94993200      -1.33064982       0.01530988      -1.21948107
Na       2.98084659      25.32138112      33.54185829      -0.54853713       1.34010296      -0.38816856
Na       7.87806681      18.37288676      28.22099652       0.33994016      -0.12829030      -0.24710788
Na      10.71279245      28.42475165      32.25606491       0.35794126       0.36343911       1.53897848
Na      12.00914807      15.02451678      30.77380477      -0.49472890       0.91038502      -0.57526864
Na       6.53288412      18.47264941      31.50338950       0.00455756      -0.19328201      -2.02323931
Na       6.47082468      28.87619715      29.37539564      -1.63831202       1.78737858      -0.75101790
Na      10.37534944      18.36638006      41.68261456      -0.55576044       0.95246380       0.28455985
Na       6.99277964      17.54293403      34.89403821      -0.08838933      -0.38137858       0.77684235
Na      10.75817769      14.76290185      41.37920595       0.30282485       0.34250090       0.38359435
Na      10.04874915      28.75611167      36.74514414       0.84244459       0.61153390       1.87524773
Na       6.85789115      17.54125168      38.84342713      -1.47813742      -0.32859309      -1.61654457
Na       6.70775908      28.50674814      37.47831029       0.74645590       0.67566362      -0.15798896
Na      11.15879373      19.57756678      33.40070126      -0.06968617       0.48410497       1.91764809
Na       7.65643848      24.47266573      26.96542273       0.30924530      -0.70321830       0.57825089
Na      10.33640995      24.62662545      34.31875379      -0.31788717       0.28703646      -0.59597815
Na      11.88718121      18.96835205      30.54374323      -1.22583758      -0.10083485      -0.36289986
Na       7.65991204      25.74499727      30.39850491       0.23009218      -0.12223947      -0.98773545
Na       7.29260507      21.73128679      30.09570314      -0.43893413      -0.19413170      -0.42626446
Na      12.64061664      27.06824512      25.77432034      -0.45756873      -0.09479788      -1.36503928
Na       6.93991059      25.10679453      34.52606627      -0.47803915       0.26374176       0.77939406
Na      10.46157221      21.63223437      40.17153280      -1.28742751      -0.71603907       0.41945884
Na      10.90671540      21.56764613      36.22953927      -0.15464604      -0.12135071      -0.55092875
Na       6.75995061      24.87763715      38.20727782      -0.01946543      -0.31271190       0.66337260
Na       8.08858792      21.12032707      37.73754455       0.76355464       2.51998134       0.70926656
Na      10.91309618      26.13250495      29.71568561       0.47551063       1.13624113      -1.19065581
S        1.56126458      16.25769460      28.22192029       0.30393101      -0.51107861       1.34899902
S        0.57474238      18.95830562      31.47088163       0.30286629       1.18451648      -2.44964077
S        5.67154573      18.69641053      23.23876449      -0.20049570       0.35865351       0.18978334
S        6.83700791      15.92976204      32.25592238       0.79445013      -0.96943272       0.81020268
S        5.44574961      17.42640413      28.10772308      -0.10116772      -0.08448289       0.83671501
S        4.80410686      20.46279839      30.43020265      -0.05122978       1.05332384      -0.79628508
S        2.93324013      20.73422417      26.64189400      -0.76444719       0.49287778      -0.33818576
S        4.19106990      17.09178865      31.32137519      -0.37131785       0.28895957      -0.33894448
S        0.87955399      15.40147587      34.33206887       0.93986456       1.17631635      -0.98928903
S        0.97564465      19.80313419      40.04400992       0.22029286      -1.17851424       0.56523971
S        6.05155262      20.14027834      34.00970093      -1.11594199      -0.10813443      -1.30090916
S        5.51153499      15.85430844      40.44676101      -0.87423292      -1.33858859       0.40638463
S        5.02295753      16.29228494      36.19727224       0.60025974      -0.49747643       0.21890259
S        4.85348653      19.12485064      38.68428370      -0.50901591       0.18769592       0.28100458
S        2.42005340      19.13702153      35.72403483       0.64262381       0.19346677       0.35587598
S        1.97675932      16.29798382      38.38731890       0.88914984      -0.51878246       0.44620642
S        0.72362558      27.12901727      20.48687456       0.15129992      -0.90805528      -0.41788286
S        1.83896717      27.47270025      32.17163688       0.33927158      -0.94705099       1.11871617
S        4.79430683      27.90291609      21.21985925       0.75355729       0.21181648      -0.82175976
S        7.69295763      23.26367866      32.28943092       1.05982879      -1.85709362       0.40809580
S        5.15541372      24.74112330      27.99493668       1.00844228      -0.80919906      -0.26671338
S        4.76114553      26.05010085      31.32532031      -0.52008154      -0.77808181       0.33826022
S        2.06870071      27.04538697      25.18243563       0.64343665      -0.40421004       0.59558069
S        1.71793852      24.43284328      28.93724885       1.42091571      -0.06669502      -0.77274141
S        1.74983106      22.31225510      33.70736917      -1.21017700      -1.70734688       1.22247586
S        0.98100866      26.83491627      40.02591778      -1.73236078       0.02981462       1.18369573
S        5.93039267      27.99408790      34.82258682       1.68723966       0.81969036      -0.86193889
S        5.45222718      22.93497890      40.08181305      -0.77535657       0.24806077      -0.87917732
S        4.82447457      23.98712724      35.75574045       0.79237831      -0.19919258      -0.26318796
S        4.46809372      26.60986258      38.51728938       0.35836602       0.09051023      -0.05534897
S        1.39812432      26.22491608      35.86616981       0.28471188       0.25223275      -2.10301673
S        2.15832235      23.47202408      38.38520367       0.05829547      -0.74732336      -0.30978419
S        8.33373440      15.21748459      23.99323028       0.74356370      -0.03326810       1.36210702
S        9.01387957      19.50685118      30.44481799       1.29914871      -0.82616173       0.34563921
S       14.91825958      19.56917115      26.79047403      -1.00353761       0.00162078       0.56110584
S       12.15777495      17.21988565      32.71755673       0.50564448       0.02062079       0.24875597
S       12.97266393      16.33148256      25.42304668      -0.73687614       0.98789154      -0.66250408
S       13.77519732      16.95881613      29.29539960      -1.04355143       0.17752920       0.96013022
S        8.43460458      20.16186330      26.09379548       0.20980880      -2.34296045       0.42797568
S       10.60327149      15.70423158      28.26031443      -1.21897734       0.94898036      -0.85752608
S        8.41171001      15.24518053      35.42430521      -1.19023163       0.96808805      -0.84031363
S        7.81553510      19.75404588      40.39332140       0.41248665       2.07636768       0.04241251
S       12.27400836      22.12516621      33.68965993      -1.50692465       0.54276320       1.82736629
S       12.99826018      15.32158597      39.86259054      -0.32280685      -0.15071650      -1.82751948
S       12.31426413      16.53181372      36.55516107      -0.37032333      -0.47674945       0.26288623
S       11.76802789      19.83190379      38.47384294      -0.26690253      -0.92146062      -1.18450538
S        9.20987392      18.91166500      36.03166812       2.06946072      -1.24889433      -1.00226363
S        9.57146450      16.64627460      39.26607630       0.36978019       1.09520177      -0.87894081
S        6.73213999      24.72527114      23.95391678      -1.05340152      -1.17879566      -1.07097903
S        8.97632042      28.35877676      29.72341629       1.23820028       0.83646005      -0.54947519
S       14.25763951      30.45454440      21.14883794      -1.13507349      -0.64101768       0.43693755
S       13.24435028      21.39567177      30.41712848      -0.71057900       0.05760958       0.92100618
S       12.28768508      21.97088651      26.46442884       0.79852651       0.92503211      -0.72623017
S       12.79463779      25.43935606      27.86867906      -0.66599712      -0.44312875       0.17224293
S        9.98066835      27.54558562      24.67173874       0.62835149       0.70484950      -0.40847468
S        9.62923947      23.76929246      28.75640847      -0.00576341       1.00188616       1.01696498
S        8.32479504      22.55990484      35.73154494      -1.11250327      -1.00902987       0.44664077
S        8.18360497      27.15447553      39.95787135       0.68757742      -0.34665674       0.06957254
S       11.97505712      25.68181690      32.28250064      -0.61617381      -0.19360413      -0.75640555
S       13.23014934      22.71278174      39.84956102      -0.21937894      -0.90662770      -1.63297551
S       12.16533429      23.94975362      36.58575521      -1.89586279      -0.79181576      -0.20409966
S       11.50715083      27.18914195      38.52231654      -0.12030527       1.58508379       1.57210152
S        9.04680939      26.28341839      36.10779642       1.22309448       0.56162701      -0.15419539
S        9.29896620      23.80709391      39.06561586       1.12803089       0.97679325      -0.00619876
Sb      -0.15366814      14.14578679      41.15586252      -2.79208793       3.02618817      -0.31500349
Sb       3.49942677      18.44832131      29.46071127       2.77944043       3.54680253       2.46812887
Sb       0.00887014      28.62052560      33.33789913      -0.04193152      -1.31027060      -1.46022190
Sb       3.57663253      17.69144502      37.29728796      -0.85882950       1.14962799       2.64373811
Sb       4.36610531      23.60435913      23.06394906       1.42719526      -0.62724907      -4.41989932
Sb       3.53380919      26.05602458      29.21617581       0.03652642       0.70500510      -2.36427923
Sb      -0.38199178      21.26413274      32.68344724       0.91744080       1.15290904       2.18693834
Sb       3.16599564      25.17695224      37.01572541       0.82466239      -0.13275475       0.18344881
Sb       6.83352241      29.42454502      21.78119989      -1.53958793      -2.76262619       1.29051595
Sb      12.15018154      17.40999647      27.62270007       2.40627185      -0.06889117      -1.80970540
Sb       7.93241784      14.17640498      33.40870901       0.22989513      -1.01184848       3.32119639
Sb      10.65322966      17.86147042      37.57378829      -1.26394732       2.25443255      -0.01613283
Sb       7.43925246      22.39223025      24.96300708       1.58519797      -1.24979886      -2.18672744
Sb      11.10928335      24.03206185      26.86804815       1.82139384       1.00907861       0.48902568
Sb       8.14354209      21.28463011      33.59600585      -1.74223732       1.50868831       0.57423761
Sb      10.49164849      25.27378458      37.66173949      -1.44921640       0.55948790       1.69610374
Na      14.44017972      17.72677171      42.36630481      -0.11772130      -0.33171181      -1.10378319
Na       3.45507340      28.66438602      48.13855487      -0.38672426       1.48213965      -1.02781707
Na       4.01050556      14.16741418      44.56687566      -1.03306871       0.47417512      -0.88321927
Na       0.03284063      17.54245219      46.00567281      -1.20601938       0.46804265      -1.12930196
Na      13.63317693      28.50581904      45.28645511      -0.50259813       0.32868778      -0.34434173
Na       3.14349257      17.27221958      41.56097826      -0.61605098       0.58392135       1.34653196
Na       0.29773943      18.34981331      50.30352759      -1.29770086       0.62218721       0.57437234
Na       3.53548944      14.44891413      56.01297835       0.68437301      -0.91467238      -0.09751340
Na       3.66559405      14.58810977      51.75260583      -0.00801526      -0.01077852      -0.69103462
Na      -0.21384764      17.91263745      53.37100473       0.16417064      -0.73562665      -0.13428892
Na      -0.23568097      14.53443689      53.11130598       0.72745132      -0.63380374      -0.18670804
Na       4.29441476      18.13133671      49.93757052       0.40894840       1.15372684       0.53217746
Na      14.11512885      24.72323393      41.99521643      -1.02876348       0.50506539      -0.21601096
Na       3.63665766      21.29735152      47.97050024       0.24811104       0.80730349       0.21488240
Na       3.12409081      21.68175364      44.06436632       0.70939330      -0.13681738       1.09223384
Na      14.20349798      24.93477637      46.25688733       0.88786028      -1.77312744       1.32563965
Na      13.84763896      21.33078984      45.13752310      -1.14945699      -0.54194558      -1.02772530
Na       3.39008192      24.92537836      40.80496928       0.08552132       0.42300200      -0.95794735
Na      13.58247307      24.90590283      49.90723878       2.01694939      -1.25394868      -2.09771053
Na       3.91288462      21.91399973      55.36708791      -0.78689483       0.36753386       1.40334923
Na       3.46212248      21.42385503      51.64910328       0.00618445       1.25114381       0.36364551
Na      14.11096052      25.32951155      56.52319476       0.67348417       0.28693287      -1.02623247
Na      14.21489677      22.46208371      53.47657382       0.05117344       1.43817364       0.32956750
Na       3.20262113      25.31565242      49.42281543      -1.91703357       0.36014504       0.00414988
Na       6.86503600      18.04301605      42.34654477      -0.25283137       0.27284697       1.17977050
Na      10.75952158      28.73177201      48.40353301       0.22055387      -0.53641341       0.38317608
Na      11.17910626      13.98630673      44.70524461       0.60034227      -0.22248656      -0.58575030
Na       7.23663847      17.63161013      46.09822814       1.06731211      -0.41289113      -0.60010793
Na       6.69831685      28.51364508      45.41342490      -0.74032788      -0.75964046       1.23589506
Na       9.28785616      18.07673054      57.62613923      -1.20074642      -0.62318616       0.61267361
Na       7.45834337      17.87256184      50.13465957       0.82347409       0.04892741      -0.73887191
Na      10.59426662      14.83069874      56.46814105      -0.12053454       0.84215715       0.45652167
Na      10.38984215      28.72303286      52.00863996       0.68476627      -0.70117743      -0.36293985
Na       7.19324749      18.11577722      53.85649056       0.61535581      -1.10347485      -0.68042912
Na       6.90254302      29.26957956      53.36291355       0.60712663      -0.71336114       0.56345754
Na      11.07349064      18.24363548      50.08966507       0.17479403      -0.19416211       0.14967980
Na       6.88774462      25.01622852      42.15336188      -1.08355682       1.29767651       0.50090653
Na      10.81381211      21.16371728      48.50019918      -0.83405532      -1.10386746      -0.88607371
Na      10.43039850      21.65307670      44.50062986      -0.99454637      -0.46273320       0.43159710
Na       7.16486001      24.97225362      45.94175933      -0.94162262       0.55768649      -0.76746044
Na       6.76689908      21.46105982      45.35639775       2.36962662       0.20670533      -0.61018726
Na      10.32223564      25.73315033      41.57537355       0.13558706       0.85398283      -0.22098921
Na       6.74323001      24.78873949      50.98690285      -0.95097527      -0.19379627      -1.21787988
Na      10.78690502      21.36278357      57.08547618       0.81021042       1.26118632       1.20968561
Na      10.84965925      21.49461413      52.70528510      -0.75225436      -1.47803220      -1.80098445
Na       6.93023875      24.83394444      54.56942321       0.21082548       0.15569466       1.77400089
Na       7.52669664      21.42967717      53.44645622      -0.04995402       0.26655030       1.82885271
Na       9.97235236      24.91848246      49.41713830      -1.14486340      -1.10514302      -0.56926142
S        1.39698154      15.23421476      42.61120879      -0.02766299       1.12845683      -0.50193194
S        1.17420609      20.13298003      48.05269910      -1.13502247      -0.21532553      -0.83642903
S        5.24353866      20.41790668      43.11970911      -0.93413063      -0.59446806       1.25110131
S        6.22910149      15.52849856      47.94651849      -2.45145624      -0.98074679       0.02684459
S        5.13613391      16.62935048      43.90628649       1.07576116      -0.40493884      -0.45308011
S        4.67736691      18.89967021      46.98643183       0.65181928      -0.37513811       1.33754698
S        2.02597976      18.71543178      43.95192424       0.36943806       0.95654288       0.38086813
S        2.46805062      15.85585323      46.48586272       0.47948398      -0.10741533       0.12024441
S        1.35705720      15.80854285      50.74792359       0.40661322       0.94131375       0.69917450
S        1.59336935      20.59195447      56.23969824       0.77723688       0.33394581      -1.50131238
S        5.99326650      20.19183786      51.01798618      -0.10992142       0.13682569      -0.57707270
S        6.02601524      15.61767680      56.13144168       0.71402415      -0.72426250      -0.11749372
S        5.34281357      16.89592327      52.05954951       0.09550957      -0.26879379      -0.20600454
S        4.50000546      19.19966100      55.09776786       1.27734083      -0.49857143       0.99102751
S        2.00330170      19.11317656      52.17633054       0.93718401       0.28773683      -0.34373346
S        2.34498517      16.04964411      54.22750420      -0.05012000      -0.11136851       0.68182247
S        1.14619730      22.55589466      42.39088448       0.21074505      -0.94871173      -0.32916568
S        1.17107062      26.96463621      48.26096409       0.08176527       0.61566540       0.98645934
S        5.36764127      27.24750760      42.49622251       0.61883855       1.15025803       0.74452999
S        5.78876621      22.98678256      48.36540545      -0.03767157      -1.45594508       1.50599040
S        5.18201783      23.68929317      44.27501625       1.06808062      -0.94215023       1.31071075
S        4.73766667      26.29320492      46.90300975       0.58794094       0.21058237      -0.78442360
S        1.85222593      26.28305449      44.27582567      -0.91907851       0.36586556       0.40993923
S        2.28494744      23.14869987      46.40332069      -0.12615686      -1.24833106       0.33286566
S        1.08181216      22.70903460      50.94751217      -0.61740017      -0.51775932       1.63288984
S        1.16876767      27.37633017      56.31816404       1.13520642       1.38958446      -0.29044794
S        5.34301738      27.16893711      50.46418137      -0.16023742      -1.36716017       0.17621401
S        5.51546028      23.15111743      57.07400535       1.99090959      -1.21346377      -0.17147051
S        4.87110487      23.42278145      53.04237649      -0.37443284      -0.57550304       0.80084382
S        4.64277412      27.09797101      54.69292621      -0.14893835      -0.53559320       0.42909358
S        2.07140155      25.99637521      52.00843424      -0.44622903       0.13179671      -0.76660269
S        2.15006934      24.25966710      55.27229599      -0.48295426      -1.03255450       0.67876000
S        8.27137750      15.47624231      42.93237817       0.76933301       2.53431635       0.30586497
S        8.34211311      19.85456471      47.98004780       0.40182460      -0.56706319      -0.08352261
S       12.58544069      20.07645103      42.70574493       1.62473218      -1.15205013      -0.08828903
S       13.04514039      16.37430122      48.61160860       0.81881511      -0.97782995       1.23613871
S       12.33253959      16.51297258      43.75349652       1.11939443      -1.19027461       0.53638459
S       11.89047568      19.19973481      46.62848728       0.26533936       0.12020880       0.46506953
S        9.11169941      18.94235151      44.09734700       0.59129196      -1.74271349       0.82239663
S        9.67787904      16.07372105      46.63601073      -0.48044206      -0.50857644       0.14494151
S        8.63725326      15.49114243      51.07971464       0.23911530      -0.43006487       1.37270310
S        7.92858084      20.33814283      56.05501311       0.55825686      -0.73313263      -1.12186723
S       12.75063873      20.06859150      50.66079557       0.82579770      -0.37552136      -0.61346828
S       12.98199628      16.07778781      56.67437902      -0.39509497      -1.19591454      -0.77866204
S       12.41349804      16.70788225      52.59777516      -0.63774985      -1.11585289       1.85026704
S       11.95931129      19.52214761      54.97967327       0.14341168       0.37189992      -1.13237708
S        9.14652036      19.14440210      52.34345943      -0.26649548      -0.74548693       0.21154301
S        9.36498041      16.63780076      55.12099084       0.81465280      -0.38770236      -1.50810005
S        8.55093879      22.75862074      42.57119984       0.89157271       1.19925131      -1.56848954
S        8.31879556      27.34751681      48.13297489       0.12995881      -0.85250221      -0.67655363
S       12.33966477      27.32724325      42.44723886      -1.92189760       1.07073492       0.72014507
S       12.99123133      22.69380101      47.75258436      -0.28575208      -0.43253909       1.26181426
S       12.58510586      23.78490093      44.14824633      -1.05133846       0.19571248       1.32536799
S       11.75021291      26.77674811      46.38914100       0.87409174      -0.63299981      -0.10263501
S        8.97993105      26.18782563      44.02739195      -0.94843437       1.43774540      -0.04740895
S        9.50090284      23.40630295      46.71602958       0.77528215      -1.50246055       0.27111901
S        8.74231254      22.71180879      50.62523052      -0.32080594      -0.19784116      -1.09949091
S        8.36587317      27.00235580      56.00795691       0.99489153       0.97367208       0.29442958
S       12.58192165      27.34606728      50.44542569      -0.30057668      -0.05751310       0.46373315
S       12.83939152      22.97063015      56.36730769       0.63720533      -0.96071016       1.19186731
S       12.14984354      23.92833415      52.06427999       0.03862967       1.07990853      -0.12756974
S       11.93938743      26.14642499      54.91962049      -1.14536957       0.11653759       0.71859557
S        9.09749988      26.18379182      52.25249016      -1.00470004       0.47201942       1.20641976
S        9.39362121      23.22185447      54.78202964       0.38571633       1.10402379      -0.11657774
Sb       0.06056332      14.29429589      57.41221469      -1.11338735       0.57616561      -1.15212467
Sb       3.54422566      17.64157612      45.33860567      -0.72019569       0.62398392       1.19269447
Sb      -0.03290397      28.39566441      49.65186619       1.59091520       0.34156946      -0.87344750
Sb       3.54162308      17.83614030      53.32543000       0.38974030       0.32458714       1.67387107
Sb      -0.38271276      21.32751269      41.18900655       0.26784132       0.73238552       0.01011595
Sb       3.54425469      24.93306743      45.33015563       2.24795689       1.93612762       1.58326453
Sb      -0.29604259      21.48824772      49.46733453      -1.66041173       3.06766938       0.71333220
Sb       3.53181303      25.22466854      53.72299926      -3.37789699       1.45497595       1.47542162
Sb       6.77839020      28.63819484      41.20878839      -0.81941550       1.28430081      -1.11701492
Sb      10.82454635      17.66361434      45.23183978      -1.27057453      -0.80970152      -2.77714304
Sb       7.31683640      14.19412974      49.55671247       0.13568225      -0.81584615       0.95912893
Sb      10.70105870      17.94395783      53.80330415       1.04195164       1.12511386      -0.44852591
Sb       6.68037981      21.55937891      41.55892268       1.84022595       3.64916021      -2.81227959
Sb      10.59321003      24.98378672      45.25473793       0.70125077       0.69055743      -0.46743348
Sb       7.17115797      21.42122955      49.39203266       1.89999801      -0.24726532       1.40520858
Sb      10.58390105      24.84192574      53.55574965       0.63848134      -2.64183761       0.94758096
Na      13.87641109      18.16177765      58.44237244       0.12729331       0.53077038       1.35491882
Na       4.31300226      29.21332262      64.65130078      -0.91112136      -1.09126550       1.00332767
Na       3.19195829      14.49149629      60.20927543      -1.98195446       0.19640587      -0.72339896
Na      -0.09565907      17.90844112      60.37910579      -0.41439659       0.45338682      -1.44376403
Na      14.34208416      29.55079226      61.91453257       0.10692594      -0.06717736       0.32256312
Na       2.82432354      18.40388974      57.21870177      -0.13578634       0.17959553       1.14178519
Na       0.08569954      18.32866231      64.45874680      -0.52316867      -0.25657208      -0.41205789
Na       2.92403220      13.30159852      72.79339342       1.01415276       0.21797794      -0.43721548
Na       3.66925645      14.71562438      67.94778394       0.65000949       1.74816082       0.18032395
Na       0.52220435      17.54307364      68.25109479      -0.52730805      -0.68692368       0.75790230
Na      -0.23011960      12.13208158      68.31561773      -0.68313392       0.84961851       0.50974428
Na       3.47580244      18.10694008      64.88631079       1.15485766      -1.94324517       0.83238437
Na      14.60529108      25.82908304      60.22244036       0.12844280       1.01659864       0.25017940
Na       4.13837157      21.35208156      64.37098221       0.13697036       0.18350013      -0.15043650
Na       3.98777724      21.81744373      59.27391704      -1.73189922       0.58462900       0.60014096
Na      14.92226569      26.16974142      63.72598208       0.50426425      -1.91498265       0.49639608
Na      15.42121175      22.47503185      63.01738178       0.02158824       0.27919551      -0.04386732
Na       3.96073758      25.78165241      57.29754580      -0.54519497      -0.80710726      -1.54269228
Na      11.41005874      24.73555413      65.75360244      -0.51254693      -0.84881575       0.37002517
Na       1.10515336      20.39557257      73.02162140       0.03473685       0.80471194       0.00491157
Na       1.88536040      23.32397312      68.60836965      -1.04910874      -0.56114509      -0.16220980
Na      13.47743092      27.70289585      70.05462734       0.01277425       1.22689433       0.09346141
Na      18.22781431      26.51480766      67.91572990      -0.83488170      -0.67019246      -0.52442097
Na       0.50392944      25.14935892      64.70779072       0.45141418      -0.20248842       0.08499702
Na       6.26219294      18.10798665      57.41826086       0.32256767      -0.59018112      -0.06999650
Na       9.51443583      28.31878612      63.37392862      -0.08875493      -0.40709958       0.93480139
Na      11.05985305      14.53374433      60.60208485       0.84200821       0.99859254       0.44303903
Na       7.13138527      17.60289665      61.31924394      -0.13703296      -0.54861042      -0.04050916
Na       6.61801801      28.32040250      61.55268699      -0.16697015      -0.75030058      -0.37120807
Na      14.34394819      14.27300749      69.80551471       0.18049941      -0.68791322      -0.79212719
Na       6.89826158      17.88000423      64.75670177      -0.03328277      -1.61792317      -0.70825955
Na       8.79680339      12.76913552      72.89823236       0.35077139       0.12131981      -0.38232742
Na      11.38787068      31.10490894      69.97676833      -0.57202792      -1.15285018       0.66532816
Na       6.46746592      17.41168951      67.90450079      -1.00298658      -0.19423552       0.85829105
Na      11.63885652      28.14839030      65.90145123      -1.43766966       0.74159335      -0.09784942
Na      10.71241022      18.10568215      65.33855642      -0.13496605       0.69334074      -0.34968805
Na       7.18774231      24.97491934      59.10482618      -0.45762551       0.49479745      -0.46484411
Na      11.41454901      21.65162672      64.90358883      -0.35921285       1.22984072      -0.68126516
Na      10.85127609      21.66469287      61.06545036      -0.01253319      -0.30309559       0.15375311
Na       7.01340916      24.62363163      63.09343006       1.03089822      -0.04216373      -0.94768342
Na       7.32943496      21.12910777      61.98871941       0.84954524       0.77000330       0.17885627
Na      10.69231644      24.59420639      57.40355426      -0.35256226       0.08583650       1.19386732
Na       3.95785936      24.79472547      65.32573971      -0.62014320      -1.11381400      -1.27536384
Na      15.99285160      22.97955389      69.66759751       0.21093048       0.47036666       1.46222579
Na      11.60927805      20.97718894      68.96584388      -0.20504169      -0.45479817       0.84441305
Na       8.69814043      24.01354328      69.52025217       0.11861159       0.04402254      -0.67224384
Na       3.94608008      20.01322852      68.97932759      -0.49569632      -0.50867408      -1.08534205
Na       7.02391088      25.11481233      66.79674422      -0.49960107      -0.66331662      -0.19714058
S        1.60608188      15.88909095      58.21589589       0.37074342      -1.17809009       0.65282094
S        1.79962598      20.34896602      64.30766271       1.92732741       0.96499690      -2.03291458
S        6.25504841      20.05309198      59.32506747       1.12557875      -0.61377182      -0.03128595
S        6.30123867      15.31479463      63.69472318       1.65900655      -0.69555678       0.22562161
S        4.89030552      16.57371953      59.94002509       0.99853431      -0.53569258       0.31549470
S        4.96114736      19.30324800      62.66665375       0.31731351      -1.37644135      -0.81002458
S        2.22992260      19.46631049      59.92092186      -0.27089396       1.06469674      -0.31345155
S        1.80246661      16.58538790      62.34823330       0.87569606       0.71225281      -0.56622592
S        2.17321813      16.20442272      66.43071276      -0.09865890       0.13062175      -0.27921008
S        2.49598145      19.28399959      74.87007497      -0.93248782       0.17753591       0.82875309
S        5.44671561      19.47487347      66.46861359       1.57661554       1.02700362      -1.68842809
S        5.81599321      16.32198575      75.77982984      -0.37824470       0.16179137       1.02943924
S        5.65113488      16.22325077      70.19788674       0.80753023       0.51876059       0.14505232
S        6.88447051      19.27067943      72.39167652       0.57163055      -0.49979267      -0.72121222
S        2.28458230      18.58829880      70.60723718      -0.03371807      -0.03912845      -0.12810045
S        2.31055384      14.70071565      70.35733816      -0.53393305      -0.16768561       0.07848685
S        1.15729523      22.81742914      59.45860037       0.33167428       2.10552768       3.28239492
S        2.11959478      25.49589149      67.04710728      -0.41852757      -0.94702040       1.20420765
S        5.65933168      27.47005579      59.00824478       0.09524959      -0.27477842       0.10924433
S        6.04499323      23.05760201      65.13595158      -1.33583079      -0.54378476       1.00855511
S        5.39875299      23.59217384      61.14249392      -0.20159025       0.25677709      -2.25584728
S        4.72850240      26.59924492      63.44751169      -0.84235121       1.42751254       0.59784641
S        2.28015911      26.26180533      60.18063103       1.36686194       1.09722363       1.19023535
S        1.98966394      23.84676953      62.91946233      -0.50466761       0.15187741       0.24965714
S        1.10645737      22.44673828      71.38105893       1.57881391       0.11067058      -0.18624137
S        1.04470387      26.92287084      77.24099889       0.09583771       0.32495778       0.43606240
S        7.01910428      25.97901630      69.34363981      -0.48752151      -0.84893351       0.09722277
S        5.95769734      23.12505805      76.16125680       0.31386394      -0.22397452      -0.59203717
S        4.45915969      22.65906163      69.87855116      -2.34976384      -0.17925065      -1.38904219
S        8.46313677      23.34421302      72.19415213       0.54968654       0.20626863       0.65261431
S        3.47483639      25.37218235      72.37154954      -0.72133674      -0.66620300      -0.27434062
S        1.07265812      23.00655329      75.54402241      -0.25951115       0.32220772       0.44143501
S        8.55187599      15.56470681      58.99179749      -1.90924929      -0.21287546       0.70757747
S        8.58164056      20.17974244      64.34758728       0.29361226      -0.51406563      -0.10090885
S       12.90081986      20.74939926      59.31610416      -0.73403939       0.71921192      -0.91666074
S       12.95896220      16.06994085      65.34828681       0.44983706      -0.43834810       0.99461640
S       12.70103491      16.90358604      60.64963932      -0.39386926       1.22818422      -1.22045408
S       12.07778752      19.37420308      63.34795746      -0.96665208       0.14957234      -1.77156398
S        9.42364832      19.14213202      60.25750880      -0.28036771      -1.31337722       0.31446280
S        9.36210711      16.48809312      62.73579371      -0.26348868       0.88729750       0.48768018
S        8.65754209      16.33374893      66.52888706      -0.41703553       1.41226474      -0.77361957
S        9.29696953      16.16429701      78.65120691       0.91300292       0.80498272      -0.91094970
S       12.73508980      19.92621865      66.83505020      -0.52108496      -0.65203465       0.82081899
S       13.18048464      16.42205575      75.42358832       2.26715059      -0.26165936       0.79593413
S       14.03737203      17.46096811      70.39070845      -0.28369511      -1.62909350       0.18005245
S       12.19628756      20.62709442      71.61439298      -0.20237599       0.54949179       0.54639805
S       10.42573915      17.79439815      69.37552847      -0.79938989       0.63597652      -1.22593313
S        9.16555050      15.82646064      73.49989485      -1.26978676      -1.47562292      -0.94366162
S        8.94933607      23.00952965      59.01521839      -1.70921019       0.22434155      -0.30918995
S        9.01550050      26.95581408      65.73102492      -0.69071258       0.70479047      -0.11602308
S       12.64286817      27.20909386      58.67623623       0.55814469       1.08355128       0.45907265
S       13.76330057      23.22073864      65.13366921      -0.23290541      -1.99943863       1.15034907
S       11.93144417      24.11043845      60.30181896       0.51052374       0.54391427      -0.50224607
S       11.99772291      26.26721176      63.74794780      -0.00429538      -0.77558878       1.39379400
S        8.89062438      26.43285277      61.30283087       0.40456615       1.05145108      -0.09103684
S        9.62895291      23.37743798      63.48459434       1.39386200       1.36682170       0.80793319
S       10.96555011      23.61015089      68.13057664      -1.61681428      -0.07057516      -0.58119871
S        9.79187915      27.26356378      74.58130803      -0.04024079       2.28387988       0.04040471
S       12.96888680      29.31849477      67.97183918      -0.85406319      -1.73506402       1.06924244
S       12.93594965      23.96916011      74.70499872       0.25759970       1.22022742       0.08691991
S       14.17293894      25.02545509      69.65249837       1.88319107       1.16631929       0.11419532
S       13.79398367      28.02835746      72.92450776      -1.18601658       0.51201626       0.41976125
S       10.90025031      26.45703407      70.38251312       1.54721307      -0.44689270       0.21895354
S       10.03182167      20.39756494      75.43639696      -1.72423445      -2.51710883      -0.18949739
Sb       1.73132043      14.11358014      75.52469924       0.64935364      -2.54927030       0.10507868
Sb       3.46221121      17.99783895      61.26221566      -0.05917257      -0.60993240       2.43978222
Sb      -0.63902122      28.41796355      65.28447518       1.24866605       1.35758992       0.39010970
Sb       3.39958841      16.51222747      71.28720262      -0.85548709       2.95016772      -3.40022092
Sb       0.07378570      21.70482376      57.67115304      -0.65290573      -0.34100454      -0.61548666
Sb       3.68409858      25.07165910      61.84931032       1.60356748       1.73363917       3.83980306
Sb       0.55657596      21.54952190      66.14387447      -0.84056068       0.02281711       1.60240791
Sb       3.32132138      22.94863116      72.15111052       0.42807170      -0.43044119       1.62686281
Sb       7.18529601      28.42746494      57.45478260       3.15508743       0.46483258       0.10770327
Sb      10.95274444      18.08148120      61.78952683      -1.60308271      -0.29711315      -0.86300755
Sb       7.18590649      14.60252342      65.93394327       0.33711721       2.44092805      -0.21368025
Sb      11.92667889      18.13072736      71.36775106      -1.06105639       1.07044240      -0.18597759
Sb       7.22022966      21.70238665      57.90416832      -3.80909569       1.58599123      -1.01354748
Sb      10.65267262      25.03189443      62.09351848       5.80225289      -5.38679844       3.34069338
Sb       7.29704678      21.13435765      66.13645301      -1.35407467      -1.08502937       1.66721573
Sb      11.98803593      24.22991265      70.16238436      -0.10069840       3.26487229       1.58174993
Na      29.44176836       4.28241482      27.65650295       2.11050663      -0.10043812       0.05808142
Na      17.61933942      14.69746114      32.71083915       0.12743038       0.42599178      -0.87541598
Na      16.12637125       1.90830206      31.35294052      -0.27815739      -0.31987559       0.46250700
Na      13.65752034       3.77885471      30.40722369      -0.28418804       0.12744681       0.22839947
Na      27.97898730      14.52813940      29.08901106       1.35785624      -0.01367138       0.26234082
Na      16.68028603       5.04372627      24.62072482      -0.03461764       1.31645288      -0.79795047
Na      13.89230984       3.52090779      34.22489095       0.21482364       0.00940201      -0.77217639
Na      17.94259852      -0.47311485      40.24380874      -0.97622658       0.10502963      -0.09304139
Na      17.08351028      -0.03668542      36.92618717       0.20926313       0.41144977      -0.12201651
Na      14.14922320       3.60333962      38.25669873      -0.85612591       0.40274417       0.84953844
Na      13.74399943       0.14496449      37.73963604       0.89417861       0.58460775      -0.14451275
Na      17.22602068       3.15167675      34.28265884      -0.38704653      -1.75848912      -0.27943196
Na      28.15202254      11.21293155      27.14386065       0.44013046       0.03157119       0.81477967
Na      17.76359468       7.85713094      32.77331648       1.31195746       2.14978604      -0.20729407
Na      16.63237231       7.84311088      25.69775154       0.13041792      -0.16433777      -0.09605894
Na      28.61153741      10.42287074      32.05873996       1.15608172       0.47274506      -0.39563878
Na      29.16935080       7.31739761      29.72768591      -0.61292143      -0.28083824       1.31889246
Na      18.25710837       9.03885786      23.46282560      -0.38933608      -0.10393557       0.49255405
Na      28.36260233      10.67808928      35.94912790      -1.85466775      -1.47148592      -0.62001394
Na      17.62809075       6.91434950      40.41833409      -0.18361810      -0.72573584       0.98922691
Na      17.32797513       7.50725080      36.80313077      -0.03391396      -1.11328843      -0.15013632
Na      28.12237774      10.72199989      39.63418004      -0.62400882      -0.38675585      -0.84910169
Na      28.61024306       7.27156988      37.07246852      -0.58128795       0.15178384       0.58246468
Na      17.30685310      11.14362642      34.30252394       0.00069464      -0.55898555       0.14912038
Na      21.48605938       3.09670261      30.72336012      -0.52167595       1.19971419      -0.97194313
Na      24.62931791      13.49911637      32.51719481      -1.72868889       0.03623404       0.44566738
Na      25.03377801       0.27742194      30.24166914      -1.39061168       0.37004212      -0.09770414
Na      18.13745781       4.74083607      31.39001914      -0.84760622      -0.39643507       0.72678963
Na      20.35296236      14.85779402      29.44641351       1.00764095       0.84845884      -0.29925712
Na      25.08410005       3.16403448      41.81916003       1.39867882      -0.14118768      -0.59786248
Na      20.75473331       3.46899060      34.19654107      -0.23287713      -3.12527289      -1.04448983
Na      25.05521461      -0.34022412      42.30864743      -0.31068943      -0.45647065      -1.79741367
Na      25.21348648      14.28112089      36.02465687       0.68788227      -0.91765020       1.96681059
Na      21.65996987       3.46557395      39.04995498      -0.96642033      -0.15047037      -0.10201200
Na      21.83490992      14.13504128      36.47887170      -1.04855889      -0.34658768      -0.45416492
Na      24.37084892       3.43674754      33.99844858       0.87894976       1.46354752      -0.46744209
Na      23.71338857       6.91244476      27.03657180       0.07951983      -1.47026370       0.30042470
Na      24.59490885       6.29162678      30.39225569      -0.52270270      -0.14485914       0.29123404
Na      26.77335539       6.30747266      25.94364546      -0.02296450       0.48177767      -0.54496746
Na      21.72312552      10.02901862      30.97332401      -0.44195049      -1.12481567       1.38459695
Na      20.81045664       5.59889294      28.30184944       0.31098108      -0.40109167      -0.75650161
Na      25.13018093      11.04704827      25.69084323       0.89905233      -0.51255464      -0.04111708
Na      21.17589009      10.73961916      34.31338076       0.45387076      -0.74392362      -0.20130697
Na      24.80646314       6.73353778      38.60285347       1.14570129       1.10876678      -1.00570631
Na      24.39298964       6.65472317      35.01611092       0.01333696      -0.25426658      -0.69222347
Na      21.52893682      10.83241634      38.38003459       0.17151871       0.25452098      -0.55772524
Na      20.73624144       6.58923374      36.28334288       0.18914018      -1.36534491       0.71275972
Na      24.73758837      10.27144704      33.71634617       0.70886510       0.00104237      -0.25428429
S       16.76257173       2.35922453      24.22353014       0.34481250       0.56443488       0.15837673
S       15.43109656       5.18316164      32.02749776      -0.04169143      -1.02283561      -0.21403531
S       17.62283978       5.84004307      21.86785390       1.21901855      -0.33510678      -1.40394523
S       18.64759828       2.26839839      32.17509156      -0.17355568      -2.20166325       0.88731689
S       20.67943035       2.91228637      27.79634952      -0.28887065       0.54906022      -0.04770654
S       18.36226684       6.30620889      29.23215538       0.56009933      -0.34321425       0.26074692
S       15.30941543       6.34568006      27.09810108       1.35763127      -1.56718141      -1.48955355
S       15.99111749       3.08325421      28.78460978       1.27043244      -0.33504958       0.54066008
S       15.32827135       1.12227519      34.31056207      -1.99247088       0.08962354       0.63865961
S       15.00509583       5.93559259      39.64178108      -0.03258155       0.08160389       3.05744692
S       19.15997127       5.72030877      33.69726767       0.46342404      -1.46237766       1.13922280
S       20.43027499       1.16913738      39.88581372      -0.44322858       0.14210297      -0.96183587
S       18.83182497       2.23922405      36.08890052      -1.34518060       0.27123076       2.30418137
S       19.09104359       5.32305477      38.45918592      -1.43092813      -0.72407864       0.08853403
S       15.93930321       4.82604714      36.43890003      -1.07920008       0.05196460       0.62095269
S       16.68841641       2.28265227      39.12454205       1.40516811      -0.70057954       1.33793601
S       14.06970118       8.87477391      24.51262614      -1.21439467       0.79243635      -0.03697139
S       15.83463539      12.67996344      32.39920937       0.06026852      -0.99405841      -2.05512409
S       19.39647876      10.29134594      21.58247552       0.97099950       0.29663182      -0.41595065
S       19.01207235      10.15658535      32.15014426      -0.36987656      -0.58851280       1.72291774
S       21.29880922       6.95739962      25.60061678      -0.44186740       1.16620586      -0.34617551
S       18.84573208      12.70210608      29.47135801      -0.12138568       0.23572496      -1.06952621
S       18.03018497      10.37458016      26.00431635      -2.23974403       0.68398881      -1.63877133
S       16.15411792       9.73167343      29.70061174       2.17558338      -0.92047969       1.48586082
S       15.52575362       8.33753297      34.55686536       0.30098948      -0.10228990      -0.44570805
S       15.48262827      12.20326016      40.32549763       1.69435458       1.83795651       0.37016894
S       19.67968205      13.26599634      34.67573862      -1.76157147       1.82244638       0.49161412
S       20.26221968       8.65404246      40.06967184       0.37352978      -0.97344337      -0.46089537
S       19.17522456       9.54526770      36.29052165       1.07272548       0.67340158      -0.36105868
S       19.11292061      12.40114304      38.69732096      -0.41739004      -0.36344180       0.46776462
S       15.96656175      11.98111717      36.41976330      -0.42640810       0.70115523       1.52398612
S       16.57544152       9.28531044      39.21332403       0.54985096      -0.63725660       0.06281942
S       22.19905479       2.47476689      23.16392224       0.91829181      -0.32942581       1.66310444
S       22.61760442       4.89655425      32.37177946       1.19079263       0.34770704       0.02489536
S       29.44432579       6.15331010      24.98989170       1.20895016       1.18224298      -0.51129355
S       27.61461762       1.19738793      31.47770702      -0.77604657       0.66601851       0.16746393
S       30.14519056       1.88781452      27.76261149       1.48739039      -1.13138055       0.40980877
S       27.06883657       5.68169135      28.77695783       0.93031557       0.46757067      -1.27066126
S       24.70631495       4.47325767      26.05096898       0.45536970      -3.20605392       1.86490258
S       24.49053032       3.43847158      30.05925011       0.73833780       1.10777092      -0.57313738
S       22.43993332       1.24747793      34.16861643      -0.90743258      -0.20951460      -0.04324713
S       22.93180011       5.56572083      40.34739713       0.99292046      -1.15231148       0.39408527
S       26.97216875       5.24157701      34.38833383      -0.78797111       0.63940288      -2.29740388
S       26.81247924       0.81763837      40.33467639       1.22893947      -0.40817245       0.64975324
S       25.68939065       1.58617928      36.21532046       0.44651303      -0.79838332      -0.00873866
S       26.50218930       4.65137005      38.46684013      -0.41156360      -0.99129101       0.98518749
S       23.06748751       4.37484091      36.41157193       0.76081831      -1.06493658       0.99851624
S       23.82588443       2.02910941      39.59504129       0.78388392      -0.05173039      -1.58622007
S       22.63054846       7.28311436      21.06221623      -0.02538602      -0.98903879       0.49482757
S       23.14236032      15.81599869      28.89748272      -0.16460691      -0.94007826       0.75492133
S       26.53590824      13.34417441      26.95825651      -0.62893215      -0.98858671       0.64157722
S       26.80542959       8.34646171      31.78940513      -1.11076780       0.53811429       0.64691836
S       25.39643572       8.37270498      25.14532826       0.70962678       0.93851959       0.47681606
S       24.20120529      11.27506618      30.85161751       0.40200569       1.85160329      -0.33214981
S       22.91684212      11.14337449      27.25515726       0.05748751      -0.63251923       1.36397888
S       22.93661560       8.18333076      29.32002163      -0.39815834      -1.03176741      -1.48897496
S       22.27936640       8.15193396      34.34394898       1.15217801       0.41400676       1.11394325
S       22.63920310      12.92307577      39.92035339      -0.30591356      -0.25539628       0.12153468
S       26.79263033      12.67476015      34.33745164       1.03138267       1.73291463      -0.01114327
S       26.70262477       8.08789726      40.22639649       0.13644852      -0.24815232       0.16660295
S       26.19594957       8.99573285      36.01458475      -1.01954009       0.54223815      -0.66242459
S       26.35708714      12.29191966      38.07718381      -0.97117233      -0.07627411      -0.54704176
S       23.47867978      11.61144890      35.90652816      -1.23128175       0.21903485       0.29905877
S       23.88471592       9.41385072      39.00277416       0.17730179       0.63174977       0.83620810
Sb      14.05218375      -0.08466479      41.28571408      -1.78872637       1.30236735       1.05803631
Sb      17.16037044       4.94019369      27.71067585      -2.53656261       0.57799583      -3.17168839
Sb      14.13343659      14.32238333      33.21594777      -3.99525410       3.43810124       0.11348612
Sb      17.70917324       3.71519818      37.52960339       0.66922602      -0.51325533       0.12419870
Sb      15.82202938       7.47025233      22.84982100       1.04025685      -0.14380001      -1.25138042
Sb      18.67082007      10.26894609      29.78079877       1.10795386       1.25959977      -1.36782990
Sb      13.98628285       7.11554554      33.05533617       0.23921500       0.53175973       0.22307528
Sb      17.74376059      10.80200270      37.63742403       2.57340863      -0.54700075       0.26140439
Sb      21.76437900      11.47861462      22.42907004       0.10240242       0.43592884      -2.59892032
Sb      25.89524329       3.49705904      28.15955838      -1.44876046       3.17561041      -0.17201122
Sb      21.52271256       0.00152798      32.30077352      -0.13364545       0.06346472      -2.20293081
Sb      24.72736641       3.15172616      37.76733917      -0.93075334      -0.58715596       0.13835334
Sb      19.46115736       6.24236000      23.89480479       1.19592620      -1.38053575       3.53995676
Sb      24.52817230       9.91675612      28.87246051      -2.33599612       5.44854385      -1.70281269
Sb      21.09601834       6.77677326      32.56660071      -0.51061735      -0.32294211       3.33371097
Sb      25.01417420      10.59329531      37.39008278       1.82037525      -0.28197994       0.08693299
Na      28.46261543       3.30728008      40.31896422      -0.66187769      -0.13146098      -0.36797140
Na      17.87150914      14.04021843      48.57460582      -0.29188881       0.30864445       0.67421380
Na      17.65396828      -0.00966159      44.37115107       0.20849321      -0.59399811       0.59781790
Na      14.20207054       3.30355364      45.90125921       0.78735351      -0.43004190      -0.61437237
Na      28.93212935      14.14868765      45.46041144      -0.54281242       0.61116307       0.67544702
Na      18.44863553       2.80861881      41.41564122      -0.69350133       0.47700825       0.88701600
Na      14.57408933       3.34762218      49.99110761      -0.44107427       0.55517088       1.51406365
Na      17.94338788       0.32093899      56.22668350       1.78678820      -0.60255479      -0.46801870
Na      17.79167630       0.29303771      52.61092692      -0.53133089       0.06820033      -0.04811433
Na      14.50418697       2.35964693      53.00544283       0.28124830      -0.45442539      -1.27433629
Na      13.97015244      -1.82341674      53.10205837       0.70651547      -0.61219069       0.71455192
Na      18.25549649       3.49663324      48.96672142      -0.45681973      -0.51150181      -0.82962510
Na      28.40919526      10.65492910      43.42192508       0.01344282      -0.56984638      -0.15937267
Na      17.90233518       6.85649128      47.74252028       1.24152005       1.14518439      -0.39791516
Na      18.03234851       7.07775227      44.25902236      -0.13561655      -0.16680713       0.43515917
Na      28.58422195      10.24950511      46.54865089      -2.49338430      -0.90408222       0.62139237
Na      27.68586238       6.77796557      45.18062626       0.15070478      -0.25562444      -2.02890621
Na      17.39841263      10.41843458      41.78314445      -1.39758879      -0.05232086      -0.05076010
Na      28.63125072      10.66846140      50.51453069       0.05075571       0.22867497      -0.81631221
Na      17.84461584       7.55444910      55.10285610      -0.84153644       0.77747074      -1.00010933
Na      17.76382223       7.25510274      51.20273201      -0.67886040       0.05568869       0.15330236
Na      28.47260660      10.82069456      54.56515441      -0.16917916       0.76732371      -0.25758853
Na      28.66917822       7.22345581      52.90146171      -0.16928440      -0.84161801       0.72111150
Na      18.09752865      10.59351884      49.32042084       0.83205937      -0.98830449      -1.29367314
Na      21.68576421       3.79389128      42.49910630      -0.67155950       0.44371747      -1.47990005
Na      25.14601230      14.41534550      48.42741743       0.49669479       0.10196155      -1.03626022
Na      24.92984906      -0.19167430      46.08167327       0.53738449       0.57687925      -0.64293100
Na      21.44111240       3.61379381      46.13774814       0.13560102       0.28712320       0.51581972
Na      21.88083710      14.16307819      45.27124303       0.16172337      -1.15879226      -0.92430117
Na      25.36986667       3.05881254      58.08125403      -0.59938062      -0.01516682      -0.42817505
Na      21.41554434       3.57122701      50.23736265      -0.56352752      -0.70543440       0.74077510
Na      24.70489262      -0.71630972      57.41704827       1.08039841       0.81774928      -0.06517784
Na      24.97287851      14.47437556      52.78841849       1.56866225       1.01877042      -0.74404685
Na      21.62067531       3.49863568      54.70226652       0.16786540       0.43044122       0.13264538
Na      21.40554979      13.93697412      53.13973432      -0.55498693       0.47519450       1.13544174
Na      24.98965741       3.32722139      49.63463556       0.77076318      -0.34931873       0.30512337
Na      21.27170691      10.26190547      41.97478078      -1.59938066      -0.72366698       1.51970104
Na      25.07945079       6.80958476      47.67812473      -0.06480709      -0.00128946      -1.23777004
Na      25.00554292       6.53932614      42.39652883      -0.88382770      -0.05071132      -0.82494162
Na      21.44083188      10.81490078      45.93139009       0.12308911       1.54379354       1.02374321
Na      22.02119197       7.41191341      45.70093928      -0.34349135       0.16362913      -1.15528684
Na      24.88648727       9.73093664      41.85838314      -0.29586173      -1.40955557       0.12793876
Na      21.36640268      10.42101238      50.58341587       0.62091924       0.02907436       0.00781207
Na      25.36245818       6.88453042      56.26027333       0.40398406       2.08393391       0.51773026
Na      24.98101217       7.19056866      52.11616415       0.20945889      -0.47333157       1.15036738
Na      21.54636732      10.55867802      54.85026123      -0.37737945       0.80524039       0.45936151
Na      21.47590125       6.89231907      53.05291117      -0.06627072       1.33564993       1.51792020
Na      24.74356755      10.27505402      49.41050850      -0.99041717      -0.54567738      -0.33945520
S       15.76935729       1.04648167      42.34582444      -0.67214666       0.03311613      -0.38531167
S       15.57253121       5.40198621      48.00051969      -0.92712714      -0.79838653       0.06310748
S       19.59224194       5.54514017      42.16030131      -0.14485810      -0.05233466       1.07367760
S       20.46002828       1.38915724      48.12557467      -0.47719895      -0.56669956       0.14400739
S       19.47118000       2.31196067      44.14460025       0.13221831      -1.31444480      -0.07817119
S       19.28804177       4.99896320      46.46935138       0.32372808       0.48381049      -0.62730201
S       16.16526117       4.78505255      44.06689458       1.02319936      -0.57867785       0.56368268
S       16.71971874       2.20518545      46.90469603       0.83541219      -0.77664247      -0.61278207
S       15.75927057       1.05868849      50.65104767      -0.37855715      -0.02713982       1.15789141
S       16.35552097       5.77616763      56.68063709       0.23769190       1.08577440      -2.02064122
S       19.71436546       5.68799301      50.32924348       0.34853349       0.60305379       0.66692054
S       20.12354429       2.17417519      56.88624042       0.22043607       0.76555841      -0.73397043
S       19.62861420       2.15057236      52.60155802       0.10210604       0.51416611      -0.41746559
S       19.22171767       5.08226414      54.82394282      -0.10252539      -0.34963058       0.89192195
S       16.47508349       4.88392110      52.28318328       0.20224369       0.27074675      -1.32389422
S       16.47952492       1.94281371      54.65191946      -1.41857750       0.31965894       2.76057094
S       15.64661717       8.36280535      42.96068647      -0.37860548       0.20192336      -1.38693810
S       15.33198858      13.42516259      48.01619118      -0.13182161      -0.16920552       1.31319345
S       20.00710951      12.89508182      42.65185477      -1.07599133      -1.15818610       0.26426375
S       20.11658768       8.65935012      48.08617985       1.66405377       0.24976371       1.06572776
S       19.17688317       9.38802365      43.97390677       0.10613001      -2.77058340       0.25347638
S       18.90846078      12.11680729      46.77363035      -0.40038988      -1.66926768       0.12185688
S       16.20477646      11.84990964      44.13621830      -0.88029171      -0.58046725      -0.17617683
S       16.27058531       9.27477155      46.75397620      -1.19969341       0.91763850       0.94401673
S       15.38465572       8.43074317      50.57380732      -1.75637066      -0.23709748      -0.20312970
S       15.47567475      13.19236623      56.69997910       0.61171134      -0.65869620       0.09651624
S       20.16760732      13.07418201      50.62202243       0.47883933       0.27439823      -0.72626544
S       20.12637154       9.03442870      56.62385932       0.16283596      -1.47673644      -0.79575005
S       19.38480935       9.17296429      52.61134342       1.46906943       0.73587969      -0.53385421
S       19.26602300      12.62019011      54.33952322      -0.59028993      -0.52039067       1.25049770
S       16.87264591      11.71537820      51.46912617       0.22436140      -1.05474392       0.96985939
S       16.47328301       9.91351420      54.82419596      -0.21023145      -1.02556248      -1.84068950
S       22.37333746       1.17227237      43.30596687       0.92424568       1.16187738      -0.50821506
S       22.59466524       5.47161359      48.05376564      -0.24990179      -0.25016774       0.14590069
S       27.28353717       5.02831599      42.41194450      -0.19361545      -1.38862952      -1.01284135
S       27.04654709       0.84323757      48.39849366      -1.68039236       0.88603118      -1.87845774
S       26.05168772       1.68097561      44.31317144       0.20672192       0.24886175      -0.14675048
S       26.70288208       4.62344862      46.55680161      -0.40673219       0.85709016      -0.14536984
S       23.63618789       4.77156226      44.28723472       0.99497357      -0.04837062      -0.00982104
S       23.80303859       2.13073892      47.13333306       0.26405628       1.04643123      -1.06437217
S       22.69142348       1.15388713      50.91816731       0.75983860      -0.46409516       0.37381869
S       22.63397401       6.01740814      56.30370087       0.15870178       0.61213938      -1.40545596
S       27.14381078       5.63872541      50.45457788      -0.03821193      -1.25355931       1.03579470
S       26.97764652       1.31050700      56.42594768       0.61830024      -0.84112222      -0.49347005
S       26.39846273       2.07092951      52.43635243       0.07292708      -0.12041575       2.38989070
S       26.65720203       5.43230725      54.24101754      -0.49921673      -0.77713232      -1.09630000
S       23.55216568       4.81595690      52.04820379      -1.42207184      -0.64999106       0.74973131
S       24.02553833       2.78308321      55.38272543       0.15564847       1.16901353      -1.06666678
S       22.57899966       8.03904692      43.01811512       1.62202325      -0.30024365      -0.54531101
S       22.54763783      13.04222058      47.74757778      -0.03571627      -0.29941063       0.95513795
S       27.01786622      12.48476348      42.02756137       1.13270743       1.30819114       0.20480947
S       27.19223876       8.60195434      48.48256312      -0.64936618       0.46348528      -0.61114737
S       26.27567811       9.09036432      44.26658986       1.54186151       0.81262586      -0.70506901
S       26.21150220      12.17392009      46.59458931       1.00714729      -0.70323512       0.69945988
S       23.31123054      11.61983321      44.02992846      -0.42832726      -0.00931031      -0.88925987
S       23.67150394       9.24551643      47.04639790      -1.43528000      -1.50152573       0.24311468
S       22.84079705       8.21486821      50.64244996      -1.00267581       0.30934483       0.16877027
S       22.91065144      12.42814660      56.54651101      -1.77087188      -1.43949536      -1.33963904
S       27.03771869      13.26578670      50.79897221      -0.73591228      -0.76970096       0.15504587
S       27.36370474       8.94554538      56.15815264      -0.03357115      -0.20067090      -0.26428587
S       26.34030923       9.60645008      51.83095095      -0.10636797       0.77407413       1.12218543
S       26.08441007      12.31507552      54.62439974       0.56258892       0.85702714      -1.20833466
S       23.22112987      11.92885374      52.14760919       0.75306169      -1.31283192      -0.01400407
S       23.81992821       8.91840546      54.71011927       0.07606019       0.52584261      -0.02304722
Sb      14.13865464       0.20891518      57.62447486       2.72676845      -1.04108256      -3.38923911
Sb      17.79596479       3.55408798      45.33124699      -0.63108353      -2.07650212      -0.21603482
Sb      14.08813655      14.52099478      49.63383885      -0.16395043      -3.64519497       0.84959092
Sb      17.96487816       3.55977197      53.61168869       2.19733004      -4.25776956      -1.26022045
Sb      14.09813007       7.15228695      41.48409083      -3.43220379      -1.95092111       2.92536496
Sb      17.74219203      10.65240135      45.40478388       2.19841336       0.15023064      -1.19203622
Sb      14.18902532       6.91117299      49.13347633      -0.43832443      -0.32220982      -0.15295657
Sb      18.00645355      10.85074320      53.33956859       1.98728598      -1.35117636       1.80261055
Sb      21.47321781      14.29915488      41.43424244       1.70114653       1.07742656      -0.70712575
Sb      25.01497825       3.34788404      45.53937239      -0.91875670       0.75507919      -0.09786943
Sb      21.46910228      -0.19800844      49.53996885      -1.48608028       2.03625396      -0.19649696
Sb      25.13510668       3.76356645      53.53567590      -0.52518759       0.55087607       1.47392157
Sb      21.28981225       6.95307968      41.40845697      -0.54318681      -3.53888690       2.34874322
Sb      24.81281862      10.51169811      45.48870663       1.31996042      -0.04181021       1.24124356
Sb      21.29758689       7.01494967      49.17613856      -0.40109206       0.03710281      -0.48532417
Sb      24.83773088      10.59910091      53.26015018      -0.17461785       0.18584416      -0.75011683
Na      28.57939408       3.75141962      56.04279965       0.73622401       0.90288790       0.35681242
Na      17.64156380      14.90801730      64.40894576       0.65806236      -0.46575684       0.56834465
Na      17.98962322       0.09124874      60.60651594      -0.45871493      -0.21409425      -2.70021847
Na      14.64382490       4.03199613      59.75304476      -0.07752850      -0.87985171       0.94414971
Na      27.76639005      15.04722980      62.28199220       0.84403733      -0.40080840       1.38999665
Na      18.33929844       4.00085214      57.97533932       0.50009964       0.83018355      -0.53377200
Na      14.15659170       3.94160581      63.96451189       0.36617631       0.19155136       0.17380651
Na      16.08968688      -1.81870144      71.48244693       0.32719153      -0.57785080      -0.42685260
Na      17.37469890       0.88399143      67.91210902       0.28745016       1.15215244      -0.30156105
Na      14.20039708       3.10993191      68.47190413      -1.63192667      -1.50875732       0.74618246
Na      18.34536945       1.98893524      70.77870179      -0.35666411       0.26917962      -0.75299474
Na      16.83859403       3.78833539      65.85567149      -0.24846379      -1.04111659      -1.45866774
Na      28.50407472      10.81700905      57.85687642      -0.76261006       0.34751011      -0.60174094
Na      18.09285962       7.23444137      62.18373232      -0.56364309       0.49255612      -0.64970870
Na      17.86391941       7.61331739      58.72180510      -0.75811343      -0.70881527       0.19964404
Na      28.71747152      11.29084973      61.51882860      -1.62059857       0.52067512       0.28130827
Na      29.12121474       7.17949150      61.74690709      -1.42751972      -0.37721763       0.66657422
Na      17.52411834      11.16500921      57.22681128      -0.65551445       1.23579305      -0.42004545
Na      28.38527321      11.19944662      64.73698092       1.61716244      -0.97989028       1.65672432
Na      17.14188637       9.46116683      71.95308917       0.81118522      -0.81390743       0.47700132
Na      18.24926480       7.08792545      66.04472325       0.79906371       0.26760035      -1.04077306
Na      26.30892021       9.81079888      68.17657115       0.87964764       0.08318306      -0.74093192
Na      25.03207241       7.65478755      70.58907920      -0.52711949       0.56048291       0.11690651
Na      17.99879484      10.56371959      65.37330457      -0.93210067       0.53388912      -0.15205913
Na      22.00784052       4.05827378      58.17900298      -0.02991640      -0.04620576      -1.33893948
Na      25.23542106      14.07695716      64.66908358      -0.43129001      -0.16480639      -1.05310489
Na      24.69805425      -0.17487434      60.72679583       1.30815111      -0.80895591      -0.17928814
Na      20.66629980       1.01281987      63.33421782       0.96463555      -0.94490769      -0.03650845
Na      21.91522217      14.02333125      62.39886209       0.11064808       0.28070056       0.34621942
Na      27.88321053       6.68638073      72.04073165      -0.64107922       0.71981286       0.18696658
Na      20.59612560       4.14439082      65.66901109       0.61485259       0.92498307      -1.82607184
Na      26.51209671       0.01491510      70.78379146       0.27726821      -0.70774410       0.54952240
Na      23.04447286      11.42722417      67.26880696       0.42321854       0.84550687      -0.88781914
Na      23.33376534       1.51307346      69.86262526      -1.55468198       1.01698535       1.40665895
Na      22.02626119      16.06415526      69.89046340      -0.83431549      -1.13368156       0.15731952
Na      24.31411742       2.01105138      64.51155073       0.11860254       0.16203905       0.54253541
Na      21.37030111      10.87689781      59.10466085       0.02047196      -0.02273750       0.06534391
Na      25.55446809       6.95916315      64.23806197      -1.20689448       0.69963882       0.10299080
Na      25.57050745       7.17459311      60.23526505      -0.41701622      -1.00562640      -0.10524748
Na      22.02071302       7.77745772      61.05740988      -0.25649675       0.61870356      -0.45242885
Na      21.67663733       4.37013739      61.84934386       0.47718176      -1.21815197      -0.99765806
Na      24.81090390      10.46027066      57.36905634       0.22562879      -1.18594238      -0.12010629
Na      21.22199432      10.81634320      64.05941178      -1.62707249      -0.24688401      -0.75860904
Na      27.41156305      10.06087465      71.46181915       1.39734057       0.32594521       0.20107502
Na      25.06828834       4.07393380      66.58386648      -0.02993698       0.35663156       0.15759446
Na      18.07655429       9.94582387      68.92844531      -0.69317840      -0.87827653      -0.76497575
Na      21.31470679       8.98604184      68.67725408       0.71111118       0.19792512       0.39106884
Na      25.09659411      10.25511345      65.19655528       0.62288987      -0.17649286       0.15484585
S       15.65214364       1.55012661      58.98525046      -0.38453364       2.01969724      -0.57324579
S       15.81401983       6.02189476      64.63084373      -0.07436200      -1.26641776      -0.47484114
S       20.20848204       6.31054561      59.21174967      -0.26221206       0.63327328      -0.17776354
S       19.54188940       1.45942873      65.72178893      -1.04223349      -1.42316510       0.20739200
S       19.75963172       2.32522816      60.93229132      -0.18696789      -2.04824362      -0.64019745
S       19.51184923       5.14940928      63.42791036      -0.31908729      -0.99882557       1.03978869
S       17.03015418       5.22507899      60.51963620       0.41838375       0.95294491      -0.04417906
S       16.60267193       2.37967407      63.32007163       1.34839288      -0.04553514      -0.72704732
S       16.96582583       3.56551933      68.47429055      -0.77226813       0.31452620      -0.63570578
S       14.29337544       6.23285690      74.99166777      -0.97657446      -0.53408898       1.80041346
S       20.59209599       6.25085631      67.24262951      -1.00817147       1.54715836      -0.43650723
S       25.13762948       0.55642330      74.73624297      -0.47548755       1.77400256      -0.27633808
S       20.99721594       0.78651296      74.31589434      -0.95501626       0.45221109       0.98659444
S       19.40457659       5.78582784      74.88490472      -0.56969474      -0.93971019      -1.28187115
S       17.21071410       6.87442843      71.34749844       0.84551930       0.49637970      -1.70265563
S       16.85028845       2.35482118      73.06664859       1.01671560      -0.65316559       0.44188016
S       15.59513031       9.15268099      58.58048925      -0.78842701       0.35750786       0.19953716
S       16.00628081      13.03751369      65.21231835       1.24630141      -0.51531827       0.36447684
S       19.63569869      13.17377476      58.64699629       0.85726907       0.57714960      -1.56787533
S       19.88459050      10.99938499      67.01649067       1.07744709      -0.87441513      -0.13740384
S       19.42119807       9.33750262      60.84571646       0.67204620       1.31699596       0.32159479
S       19.09541581      12.54179376      62.96183748       0.38598136       0.36638268       1.00683020
S       16.55158152      11.92538243      60.19721619      -1.44875471       0.52157803       1.57922096
S       16.46904681       9.46823088      63.19649435       0.73054333      -0.49066423       0.68749828
S       16.54809181       8.54312487      67.32941261       0.51042108      -1.00594909       1.02483134
S       16.28730913      12.57107820      77.73848593      -1.51491146      -1.01887127       1.13924736
S       19.13564878      14.19787375      70.02291313      -0.39345174       1.81571050      -1.09232136
S       19.65428513      10.13086435      71.16185662      -0.22553372      -0.13281289       0.53973690
S       16.11288143      11.86003623      70.18919248      -1.33905297      -1.37393906      -0.46774680
S       19.96075420      13.79301912      74.88358176       0.34170313      -0.31968746      -0.00738969
S       16.71135946      14.64897905      72.57828817       0.64381920       0.92520683      -0.84157773
S       16.74755772       9.66494847      74.74833896       1.09987408       0.97418049      -1.21667798
S       23.00598977       1.30452119      58.96351178      -0.98884229      -0.57981901       1.02640274
S       23.37354348       5.20535627      64.94772459      -0.29486723      -2.07893449       1.13670068
S       27.07142309       5.68990368      58.15555284      -0.11641233       0.61943990       0.48526807
S       26.92448814       2.01954700      65.33724245      -0.51106467      -2.35325207      -1.15423521
S       26.48329763       2.29018840      60.40449168      -0.70006237       1.14329049      -0.16507078
S       26.91845527       5.64334521      62.25775881      -2.32468922       0.91988577       0.28430344
S       23.60764017       5.09065041      60.41124859      -0.47036174      -1.00966452       0.52147295
S       23.15513093       0.30314739      62.95607949       1.23979512       1.37572498      -0.22992240
S       23.06701808       0.93118844      67.06318116      -1.45187995       2.47376393       0.83972672
S       23.76325100       7.86138997      78.36008974      -0.53625708       0.27169309      -0.58491174
S       25.10370725       3.45628641      69.19458620       1.66988893       1.77663276       0.93685502
S       27.74581865       2.87435655      78.37599396      -1.02148756      -0.82186978      -2.31445645
S       28.09383550       3.96018702      73.71752662       0.34015113       1.17392606       0.12254285
S       30.74072843       6.68033893      72.18054638      -1.31657295      -0.18309309       0.05375614
S       22.46881812       6.74738768      71.21403591       1.66429543       1.36933552      -1.02732289
S       23.76299520       5.16534405      75.33514385       1.80464055      -1.48909121      -0.27505340
S       23.18409190       8.66157338      58.88874438       0.53926877       0.48478356       1.52347761
S       22.70738438      13.23055771      64.97896142       0.19736081      -0.56243833       1.79933443
S       27.31596294      13.30688862      59.02545399      -1.23279985       0.13678332       0.60396525
S       27.63134833       8.34675485      65.72886041       0.10943735      -0.12394714      -0.22013011
S       26.24815538       9.72564977      60.09028160      -1.27704594       0.94528364       0.43634004
S       26.29310914      12.12382882      62.88604608       0.27820011      -1.88988836      -1.34190399
S       23.20912643      12.11792272      60.64327384       0.46613802      -0.77891880      -0.35482239
S       23.72560414       9.25039373      62.94997203      -0.36027017      -0.18665153      -0.55292033
S       23.43924337       8.43645044      66.70997093      -0.51824998       0.41711038       0.00875547
S       24.33005328      13.47901121      74.28319016      -0.51323373      -1.16565663      -1.33087259
S       26.04541599      12.07638279      66.85358759       0.74436475       0.05668770       1.04632669
S       26.89327997      10.75675016      76.72709214      -0.76215568      -0.06457706      -0.84574316
S       26.05812220       8.37257411      73.32088464       0.65089581       0.31579411       2.82244835
S       26.70510377      12.65013103      70.59538812      -1.06500271       0.60880495      -0.39713833
S       24.02536625      10.02632310      69.80036779       0.23929215       0.02580945      -1.17899312
S       22.15087793       9.84549209      74.60118682       0.86042217       0.02518289       1.42646047
Sb      10.21865654       2.73417663      76.40956724      -1.48557314       0.30531675       1.77908149
Sb      18.11594164       3.77222587      62.04191038       0.57790283      -2.52352697      -0.86390158
Sb      14.39992468      14.38988803      66.54577339      -0.84421845       0.61149135      -0.21551686
Sb      21.09319865       2.43245385      72.19957897       0.05290628       1.38804304       0.45335583
Sb      14.65839596       7.35471135      57.20904273       0.01874135      -1.37285681      -0.31266968
Sb      17.91872629      10.85638744      61.73824743       3.79131971       0.82097482      -1.45408536
Sb      14.60308981       6.76283751      66.55073422      -0.47756666      -1.32203800       2.56365610
Sb      17.97954897      12.76564787      71.51983762       0.42991880      -3.18158161       0.76997015
Sb      21.37501097      14.01826504      57.25398309      -1.00877588      -3.24197554      -1.47925945
Sb      25.10691789       3.82120948      61.76503032       2.05492040       1.09188051       2.80317182
Sb      20.76673726       0.58402612      67.47862019      -0.70980271       0.91396715       0.37891753
Sb      26.64891937       3.60095266      71.22909857       0.80924443       1.94108560      -0.40248821
Sb      21.52294131       7.46255278      57.72279509      -1.64240985      -3.39430239       0.79539286
Sb      24.81337232      10.83819655      61.65870962       0.11242231       2.26489697      -1.34378607
Sb      21.91190747       7.17426288      65.30738126      -0.55892361      -0.26966440       0.50984077
Sb      24.38941720      11.86970845      71.46526435      -3.15672850       0.07689262       0.34072260
Na      30.20784704      16.45767926      31.14549258       0.23424846       0.13125737       0.29518273
Na      17.41291659      28.41028080      33.39111372       0.36939794      -0.74749138       0.47395279
Na      16.08304512      12.47444714      29.65480036       0.13219950       0.92423317      -0.48318472
Na      14.72832960      17.23109849      32.07096850      -0.18424202      -0.31554991       0.37992221
Na      27.62715507      29.37035918      28.33911309       0.52114922       0.31087225      -0.25284036
Na      18.65741038      14.97111358      23.20443800      -0.79650490      -0.83921777       0.09340627
Na      14.03510414      18.04650932      34.96999673       1.31530236       0.21696063       1.73537805
Na      17.98880366      14.09828501      40.69010955       0.03489675      -0.32820890      -0.76712861
Na      17.91481898      14.38184782      36.51755307       0.17555952       0.40342126      -0.21712182
Na      14.01232550      17.73621264      38.59498147       0.29772578       0.27745579       1.65631638
Na      14.06649951      14.01797310      37.57043900       0.31012956      -0.01357964      -0.70172363
Na      18.18171630      17.77091466      33.35716157       0.09856803       1.28153263       0.65045432
Na      29.05337852      25.97022893      26.94781110       0.22596263       0.01820009       0.06104873
Na      17.56597859      21.55267375      33.84144738       1.14086362       0.26813561      -2.04305315
Na      19.91355487      23.82401998      28.20662111       0.63460742      -0.14342142       0.73314697
Na      28.43051135      25.66085577      30.90722049       1.94198710       0.16186472       0.32234599
Na      28.91688488      19.03872777      28.76136683       0.39559594       0.49543049      -0.91682045
Na      20.92517720      21.20986619      28.36539855      -0.70449630       0.67752978      -0.39410108
Na      28.26184855      24.38683587      34.51018503       0.01690976      -0.51094430      -0.42598340
Na      17.69179976      21.21374601      41.22340302      -0.60605737       0.25622181       0.73241229
Na      18.00862238      21.65721938      37.49489476      -1.35042053      -1.29168642       1.35174834
Na      28.35470461      24.82261336      38.55625768       0.47143949       0.27572576       0.20819512
Na      29.61248363      21.70223281      36.37399866       0.46495416       0.75532975      -0.32793703
Na      18.36043895      27.08190733      30.56566311       0.73510284      -0.12333936      -0.77910186
Na      23.30604518      16.58197931      31.37729652       0.38927050      -0.03978447      -1.25485962
Na      24.65496727      28.36639522      34.22694487      -0.21330515      -0.23036672      -0.31015184
Na      24.04463248      13.21838668      28.88293485      -0.69757992       0.66456402       0.58748850
Na      18.70192744      18.08057799      30.01103081      -0.59661365      -0.25486252       1.11240733
Na      18.98434173      30.38567000      29.54491347      -0.94687479       0.51072210       0.92808366
Na      25.36863484      17.41167573      41.73755478      -0.61159718       0.64367224       0.26635662
Na      21.55933627      17.52201423      34.35314950      -0.13779871      -0.54890353       0.73380222
Na      25.02737447      14.05233914      39.95982863       0.06624839      -1.56969726       0.05882535
Na      24.06663669      28.29331168      38.23061777       0.20563228       0.09232152       0.26312003
Na      21.09785029      17.75214059      37.91742999       0.20032619       0.73181550      -0.54778266
Na      20.66766312      28.51309296      35.86233857       0.20398794      -0.27006231       0.27847018
Na      25.50344490      18.22886997      33.94899812      -0.96929680      -0.23897405      -0.89358123
Na      21.75490297      25.54605107      25.07340652      -0.16183823      -0.47373976      -0.14818379
Na      25.16456481      21.91282982      33.55669377      -0.54827394      -2.09950235       0.61226077
Na      26.61380565      23.99875698      27.83134903      -1.42829323      -0.66129922       1.39439569
Na      21.25087899      24.72273107      31.48268079       1.14600225      -1.28379993       1.12776171
Na      25.26174266      21.59632922      30.51530694      -0.24077662      -0.92118803       1.99924986
Na      24.79428062      30.33290419      24.89752322       0.32165343      -1.40276158       0.70393954
Na      21.45137547      24.63605253      35.67824738      -0.55873087      -0.71537841      -0.15848150
Na      24.64929246      20.79472155      40.94584156       0.22087721      -0.48611129      -1.59376576
Na      25.25340444      21.33994463      37.62962639       0.11764301       0.34664091       0.03917339
Na      21.16944947      25.07769311      38.88477779       0.18574788      -0.06616199      -0.43371161
Na      21.78531781      21.46131540      35.49795944       1.06004775       0.33872624      -0.96893211
Na      24.73793841      25.06363456      33.04480520       0.40931537       0.16854835      -0.77267748
S       16.61053569      13.41050288      22.82314748       0.67699242       0.42655424      -1.44437743
S       16.75118708      19.08326810      31.48624017       0.40405736       1.43633774      -0.90537100
S       20.57839467      19.09339089      22.13263374      -0.22271234       1.32876359       0.09819954
S       20.00402759      16.16335014      32.15063887       1.52656218       0.20976216       0.23931111
S       20.10269044      14.62073076      25.45407191       0.43142569       0.24944274      -0.99657480
S       20.39137283      18.43681888      26.57940559       0.74742980       0.58174638      -1.88333052
S       16.75542179      22.89481753      27.62149449       0.51153828      -0.24517428      -0.75118705
S       17.83243657      15.99039117      27.97594748      -0.50000272      -0.71969694      -0.28170487
S       15.55200979      16.03403974      34.25743463       0.34383375       0.48153717      -1.10938554
S       15.65719509      19.77229264      40.32454787       0.97814750       0.45758227      -0.27838887
S       20.27550393      20.08917256      33.67474437       1.40725080       0.08956909       0.48151726
S       20.20446875      16.05730475      40.46427803       1.88243150       0.76359547       1.02403578
S       19.00526478      16.83281625      35.79552252      -1.44005319      -0.77137382      -1.06436081
S       18.80112755      19.28766825      38.67724975       0.28910568      -0.87867801       0.93458902
S       16.16190506      19.67974897      36.03894431       0.47309080      -1.05374394      -1.05088066
S       16.38412774      16.28727662      38.34736081      -0.92449662       1.62580075      -0.16960221
S       17.09839990      20.74553731      24.34173223      -0.31617120       1.62927079       0.11717933
S       15.62695290      27.43856085      31.10850555       1.76198175      -0.87301786       0.28845820
S       22.66761582      25.22345944      22.32143214       0.37394934      -0.42418406      -0.52763764
S       20.16347575      22.29125024      30.54591001      -0.38501678      -0.42779662       1.09427917
S       20.75865778      22.76393227      26.01946241      -0.31773443      -0.13671732       1.54920924
S       20.36251815      26.73650471      28.86134574       0.72084239      -1.11098946       2.96960166
S       20.16452234      27.87671739      25.12012219      -0.29042165      -0.94604463       0.08698826
S       17.38422578      28.22405733      27.84944106      -0.49158955      -1.45657829      -0.24181295
S       15.67907888      23.15423231      32.59887353      -0.57214766      -1.67737548      -0.63500882
S       15.25188778      27.38557227      39.62906255       1.04493886       1.12989568      -1.50379599
S       20.02821359      27.10673731      33.14026731       0.57689914       2.05945745       0.25575889
S       19.94234519      22.61115162      39.86720401      -0.02983050       1.29319711      -0.14980077
S       18.94038566      23.41507968      35.91701816       1.62490231      -0.66354811      -1.23547585
S       19.29636624      26.79841029      37.91242945      -0.79080714      -3.24149138       0.48720331
S       15.82337218      26.23119523      36.01809575       1.00003896      -0.96943996      -0.44033008
S       16.70567152      23.88369569      38.88913119      -0.50021971      -0.73441579       0.76939990
S       24.28723223      12.16320885      22.98502749      -1.45468463      -0.04088825       0.00526829
S       24.32408553      19.04885091      31.78566047       0.53140523      -0.36167903       0.11781441
S       30.63186442      22.61644287      22.32986011       0.12512753      -0.13389520      -0.33627848
S       26.31565935      15.72884608      31.99599901       0.51844658      -2.14719951       0.36864456
S       23.93498004      16.39464460      24.67237171      -0.36207376       0.90975464       2.00504806
S       27.38694942      21.39008022      28.72991639       0.52250739      -2.21792168       0.35500145
S       23.62457905      20.54384236      27.77443553       0.65770832       1.28938928      -0.65085951
S       26.46675590      18.18218600      27.97829855       0.56081337      -0.66547358      -0.55315632
S       22.93278035      15.21694206      34.09451267      -0.20278080       0.67721761      -1.25772542
S       22.42456955      19.73608492      40.13630522      -0.82623943       1.10487526       0.05856516
S       27.37054626      20.29767030      34.78070756      -0.28153495      -0.79811252       0.70115309
S       27.29902387      15.88745289      40.23725318       1.29346030      -0.37091580      -1.13895445
S       26.53489055      16.79342702      36.07819745       1.73101755       1.39268053      -0.51740593
S       25.97389078      18.55569658      39.10272071       1.38631403      -1.10768600      -0.31811992
S       23.58556769      19.00477360      35.96283767      -0.48421275      -0.10006231      -0.61949761
S       23.35263681      15.81184070      38.39438243      -0.59248173       0.97350166       0.32545185
S       25.26586538      21.59320626      23.16367087      -0.39768295      -0.32937815       0.65958577
S       23.68954755      27.28650098      31.83549828       0.52309380       1.26690067       0.53721480
S       26.50382491      28.97533153      23.59251504       0.94546018      -1.40112720       1.13654851
S       26.88757700      23.58601992      31.97955319      -0.99293330      -0.28872630       0.02393022
S       27.90076850      24.05309283      25.37141313      -1.05323856       0.43149316       0.38109863
S       26.92212500      26.74716822      28.63118090      -0.53035331       0.57554105       0.08986236
S       24.30461796      28.80743524      27.38716062       1.44094939      -0.15232505      -0.03175308
S       24.15169566      24.95807460      26.87932480      -0.59579447      -0.62318072      -1.12918507
S       22.56337640      22.87183032      33.27483456       1.00862405       1.78745519       0.04462662
S       22.88633526      27.05904587      40.63560501      -1.06388353      -0.28646030      -0.07054422
S       27.22984269      27.01202376      34.14997157      -1.16186157      -0.18401531      -0.34927175
S       26.89630949      22.76567641      39.78171329       0.16395047       0.62671321      -0.50664386
S       26.06452083      23.48804545      35.70627470      -1.03988169      -0.06541568      -2.65007749
S       25.87748098      26.29324277      38.63353962       1.07304782       0.55657984      -0.53013192
S       23.24651513      26.59883269      35.93973375      -1.17747505      -0.19582175      -0.94010665
S       23.08473764      23.54107617      37.78382239       0.16999713      -0.71943377      -0.75693983
Sb      14.32940616      14.02288520      41.28538734      -1.22412279      -0.44878122       0.46132135
Sb      18.81239840      16.69638879      25.98813045       0.27849281      -0.93411061       0.11318923
Sb      13.98190554      28.23054036      32.73047161      -1.49897927      -1.28480115       2.30892320
Sb      17.48625822      17.96994365      37.17666255      -1.28945251       0.02792522       2.14072148
Sb      17.21753084      20.50304934      26.86034740      -0.76967318      -1.35365206      -3.15248955
Sb      18.88344529      26.67604789      26.86263222      -1.10384180       0.61005477      -0.99611365
Sb      14.26556144      21.13905262      32.59301232      -1.58342307      -1.01075751       1.40466490
Sb      17.69423465      25.05750248      37.07227570      -1.53025677       0.16517931       1.70944254
Sb      24.63300468      27.03479684      22.83771950      -1.34542423       1.82583349       2.52394801
Sb      25.96996178      20.25121009      27.00920162       1.26823879      -1.06791562      -0.96495606
Sb      21.03738203      14.15488129      32.92644716       1.99340376      -0.51896207       2.76786251
Sb      24.69574998      17.52362238      37.42438009      -0.13563520       0.97458564       2.40710135
Sb      22.97879802      20.31064442      22.68744426       0.74011835       3.28129854       2.53920120
Sb      25.71022642      26.81610335      26.46213084       2.38239248      -0.60741053       2.41541632
Sb      21.82376692      20.95808254      31.99144185       3.28347149       1.40260207      -1.98116906
Sb      24.77673495      25.07028634      36.94347913      -3.90572090       0.96636406      -0.97763608
Na      28.39463454      17.75216088      42.13931425       0.25530355       0.77227378       0.25749975
Na      17.98519404      28.12203133      48.50028774      -0.62464901       1.26587751      -0.28279804
Na      18.10428487      14.18151131      44.69574041      -0.04104163      -0.42144901      -0.40959364
Na      14.30865027      18.07419475      46.59125029      -0.09204677      -0.19445899      -0.65111953
Na      28.31931255      28.64829961      45.88784953      -0.20539933       0.00175246       0.08448862
Na      17.94065405      17.96040827      41.21193552       0.21129441       0.00839341      -0.92772681
Na      14.88981397      17.96658033      50.24759794      -0.05709308       0.17005146      -0.80645813
Na      17.79852177      14.45857607      56.15173982      -0.14931366       0.29257372       0.07449620
Na      17.72244914      14.22251289      52.07277597       0.62935645       0.21201256       0.31697962
Na      14.30793863      18.41873080      54.34333935       2.20427831      -0.08869012      -1.67104437
Na      14.34661120      14.99832391      54.09068987      -0.27192302      -0.17166624       1.09412469
Na      18.14059157      17.82938658      49.21895356      -0.87481684       0.64991150       0.66384135
Na      28.63152974      25.03949758      42.34924768      -0.94170476       1.39688020       0.23585320
Na      18.08139015      21.45602235      47.63448194       0.92777841       0.33425851       0.50037949
Na      18.11116850      21.25617497      44.73587341      -1.09180913      -0.56764320      -0.10557260
Na      28.66892038      25.02826382      46.32685127       0.28702799      -1.44385401       1.08032836
Na      28.33157524      21.72585687      46.00241581      -1.43308769      -0.57214348       1.68527969
Na      17.77255251      24.75050380      41.70911777       0.14106557      -0.07612513       1.37114949
Na      28.18859229      24.90386556      50.20746250      -0.83587115       0.56452913      -0.66662603
Na      17.79468996      21.39476129      55.24628713       0.17703922       1.45310307       0.50195541
Na      17.56576853      21.38953127      51.04360160       1.41600494       0.70356595       0.02524711
Na      28.72675098      25.56449591      53.84414503      -0.00218316       0.94200001       0.00797224
Na      28.46870861      22.06763274      54.17575077      -1.31225338       0.96625196       2.18695433
Na      17.81446555      24.83895642      49.42501271      -0.05475801      -1.26852834       0.22486000
Na      21.57389189      17.88292549      42.23596058      -0.42960819      -0.14622222      -0.71780438
Na      24.96348735      27.99157504      49.75857601      -0.59805180       0.28003618       0.60237865
Na      25.36369423      13.71752440      44.16362081       0.58325521       0.27086808      -1.03170958
Na      21.44681728      17.85960155      46.20389984      -1.16086922      -0.20045020      -0.41104265
Na      20.72531263      28.90256893      45.52136414      -0.07186680      -0.10499250      -0.49413503
Na      24.18196169      17.84419997      57.79357292       1.32495516       0.14917977      -0.43995195
Na      21.57447159      17.77942030      50.18963848       0.12324463       0.22329135       0.61247244
Na      25.06997690      14.29819922      56.75310914       0.45447555      -0.34789035      -0.27394215
Na      24.54509577      28.93543318      54.08416177      -0.74920600      -0.59248425       0.24714681
Na      21.46180104      17.60215230      53.75182288      -0.01414688       0.09183009       0.30709435
Na      20.89161207      28.35603437      53.20887441      -0.48871869       0.62427410      -0.56353048
Na      25.60440248      17.45536047      49.10681941      -0.23822008       0.70620393      -0.40247668
Na      21.51945170      25.18537075      42.84908676       0.90737030       0.57623870      -0.17802715
Na      24.99860581      20.93953446      48.52458307      -1.05213462       0.52518837       0.19301517
Na      24.88153501      21.42326900      44.20501343       0.80501688      -1.64460856       0.17257967
Na      21.42973190      25.16018279      46.72535839       0.32788681       0.57175236       0.52499876
Na      21.74913196      21.09433376      45.05189802      -1.03047597       0.07386214      -0.14367765
Na      24.71567938      24.60963482      40.78333924      -0.78259801      -0.34215962      -0.41820048
Na      21.40840321      24.93592328      51.19600021      -0.02511769       0.43130437      -0.32433625
Na      25.15958693      21.64402629      56.43922473       0.60005546       0.23566462      -1.05620951
Na      24.86912244      21.64928551      52.42962978       0.40808584      -0.87869046      -0.19166688
Na      21.63684153      25.34172024      54.98185982      -1.22608393      -1.17008544       0.80982284
Na      21.10445940      21.47158206      53.41757261      -0.24532766      -0.23990720       0.48453857
Na      24.40690230      24.32181159      48.75362442       0.05269784      -1.39892999       0.06152954
S       16.02858734      15.41766554      42.32131670      -0.52459656       0.21461035      -0.47843931
S       15.80536648      19.89208778      48.23619293       0.74717630       0.92286388      -0.68646123
S       19.92455639      20.30245118      42.98991109      -1.31650369       0.36772187       0.21239539
S       19.97087302      15.99941003      48.44134101      -0.97370674      -1.49242429       0.45106211
S       19.46194130      16.83817159      43.76865016       0.76558645      -1.99167401       1.71008098
S       18.95182362      19.17225731      46.64892062       0.57601011       0.61021144       0.36676672
S       16.26739114      19.10785452      44.11986422       1.15335906      -0.75154943      -0.55488579
S       16.64508344      15.98421727      46.54777579       1.02333919       0.76011170      -0.73344860
S       15.30608611      15.37146525      51.54401209      -1.42276365      -0.82432174      -0.28552049
S       15.60944552      20.25804277      56.80518959      -0.07218913      -1.68573733       0.20727034
S       19.96859617      20.17015836      50.64622121      -0.09296421       0.48231140      -1.10826795
S       20.44576217      15.41584478      55.71461540       1.37935437      -0.52574016      -1.16505945
S       18.95465063      16.76150624      52.06927881       0.30662001       0.61614211      -0.81163612
S       19.37084257      19.23829729      54.99322727       0.22221838       1.17430534      -0.99619337
S       16.03567106      19.23527581      52.40069562      -0.52901467      -0.39057432       1.46885530
S       16.59411765      16.62446111      55.11793264       0.05989255       1.78403335       0.63962146
S       15.66157190      22.62602367      42.83388769       0.59305265      -0.19404978       0.20393114
S       15.49454823      27.03425765      47.95469505      -0.67507766       0.29250853       0.10188740
S       19.51181756      27.16143790      42.40260444       0.46208626      -0.43001695      -0.12068697
S       20.05153071      23.18451068      48.16955160      -1.05147942       1.61048415      -1.25716442
S       19.47940093      23.84979448      44.11870274      -0.97189257       0.32110871       0.63303456
S       19.07950266      26.73168179      46.45546718       0.80496784       0.13905556       0.90681875
S       16.40421074      26.18992697      43.71957157       1.87790019       1.06310017      -0.63552121
S       16.70681242      23.78721828      46.82899845       0.35333258       0.95623853       0.04405698
S       15.41379736      22.85877421      50.45670103       0.44414702       1.18614895       1.50811628
S       15.60848518      27.71163989      56.11365150      -0.21109998       0.30792640      -0.20437178
S       19.69519888      27.23582221      50.59253455      -0.18791827      -0.18428428       0.30053959
S       20.11206161      23.05505109      56.42896705      -1.31363577      -0.88050645       1.48821793
S       19.24260877      23.44109278      52.23632291       1.00393337      -1.60145427      -0.70173618
S       19.25662677      26.56003099      54.68880710      -0.80832464       0.42215357      -0.34074146
S       16.40714661      26.15730275      51.87905801      -0.18867762       0.39953744       0.71592324
S       16.58859836      23.75642345      55.00318272       0.29535201      -0.30464140       0.51842702
S       23.08670757      15.30458360      42.87163594      -0.18468471      -0.00709762      -1.48564505
S       22.47106254      20.08191896      47.81445476      -0.29937620       0.38449633       0.66615327
S       26.80250399      20.08255898      42.52894598      -2.20027367       1.77203894      -0.97761828
S       27.56456355      15.57306577      47.95572899       0.57150007      -0.87789222      -1.26286403
S       26.52528100      16.53255456      43.99430672       0.80919246      -0.04527552      -1.83531301
S       26.25827747      19.25010936      46.57474417      -0.86605464       0.00895071       0.28848737
S       23.32260334      18.99448297      44.07553538      -0.13404301      -0.19254291      -0.78898309
S       23.81018873      16.29664195      46.66500923       0.91529313       0.31308355      -0.52073199
S       23.23874564      15.39853059      50.56125969      -0.51702791       0.86123404      -0.29463628
S       22.74792254      19.76384304      56.09948705       0.66101517       0.12439765      -0.34475051
S       26.75040519      19.87666087      50.31481023       0.67599073       0.93621939       0.14579212
S       27.20005072      15.51631731      55.93984547       0.68518524      -0.66834314      -0.75819392
S       26.39770301      16.59130645      52.12174651       0.52058543      -0.03881757      -1.03322780
S       26.54418888      19.38979396      54.49916850       0.18978655      -1.81203588      -0.25243391
S       23.53905639      19.16240403      51.92438990       0.23430141      -1.14628806      -1.08247487
S       23.67829291      16.59838660      54.99056433       0.88586535      -0.14662829       0.34764711
S       22.95306095      22.85128488      42.41133429      -0.46404415       0.12099613       0.33028940
S       22.85723738      26.91225836      48.34951253      -1.02036309      -0.61245925       1.01843197
S       27.70795421      27.43391146      43.29491025      -0.14595547       0.76572194      -0.24459675
S       27.10943275      22.99028976      48.22319229      -0.16683224       1.45378736       1.26235680
S       26.82775287      23.55062392      44.08140280       0.57869312       2.01502764       1.33081845
S       26.07733832      25.94674935      47.17320038       0.23132501      -0.88320203      -0.28730366
S       23.94921754      26.38847302      44.02853315       0.38869496       0.34687307       0.21868258
S       23.68193070      23.14266165      46.06828831      -0.07627938      -1.54573934      -0.70995875
S       22.92506626      22.65152889      50.63199814       0.09783830       0.70597706      -0.19779295
S       22.50871570      27.99032316      55.83581308       0.13889022      -0.54991585       0.12562992
S       27.49983456      27.31398867      51.34189578       0.42546446       0.54438468      -0.18618456
S       27.36268058      23.23501494      56.59613149      -1.00627953      -1.32972858       0.28228293
S       26.71930637      23.62109850      52.59392143      -0.99200620      -0.86361916       0.64187705
S       26.17907971      26.42816828      55.03750797       0.91858865      -0.04692854      -0.62035569
S       23.51745728      26.26667258      52.17014062       0.19626917       0.87147087       1.72665346
S       23.63719920      23.34885231      54.66618497       0.74023643       2.34282189       1.39926710
Sb      14.04551244      14.56497670      58.02833042      -4.30549615      -0.96937652       2.84476352
Sb      17.79983899      17.68439522      45.32078972       3.33582852       0.94044776       1.36717066
Sb      14.26020992      28.59110184      49.17396979       1.76829708      -0.53940965      -1.56419898
Sb      17.79709434      18.11599125      53.65095618      -1.33554308      -1.52880038      -2.96365909
Sb      14.20486932      21.27448390      41.51588279      -1.85123183      -0.81655557      -0.55590314
Sb      17.90037302      25.17837927      45.19101753       0.00936319       0.57067103      -0.90225482
Sb      14.27560997      21.35438385      49.26097520       0.16785816      -0.70431782      -0.01236568
Sb      17.95135203      24.96870557      53.36893349       1.83349947       0.64934018      -2.54839600
Sb      21.33894082      28.53680026      41.57844388       1.78333673       0.17751893      -0.25553139
Sb      25.00271153      17.76026254      45.34958040       1.50295114       0.58194597       2.48705190
Sb      21.48251798      14.46684596      49.30415017      -0.31353142      -0.03464277      -1.10068651
Sb      24.95507908      17.98934076      53.37631860      -1.46631869       0.18307223       2.71198529
Sb      21.37785121      21.45487943      41.26741046      -0.91897120       0.88379560      -0.73304916
Sb      25.20048992      24.82961025      45.26012810      -1.21919397       1.38788727      -0.11954239
Sb      21.33333713      21.53770559      49.31049743      -2.22000700       0.69411958       1.80914990
Sb      25.01052923      24.95460722      53.58518386       0.95736860       1.53931203       2.07134730
Na      27.85512114      18.18158401      56.62732456       0.82434211       0.02196015       0.51667020
Na      17.57017812      28.04580892      63.93809525      -0.54877488      -0.47068325       0.05321239
Na      17.63554611      14.30503532      60.87170550      -0.09793752       0.06383465       2.08935607
Na      14.54099525      18.78351901      61.97105889       0.55489237      -0.50207285       0.95625298
Na      28.57803257      28.98113830      61.32512463      -0.33971173       0.95410810       1.03348102
Na      17.15564922      17.90587587      57.80691968      -0.13592862       1.14098570      -0.45962147
Na      15.34064047      17.76098789      65.19146074       0.15763256      -0.65618187      -0.12581724
Na      19.52471210      15.47670190      72.57718117      -0.63593304      -0.13948822       0.39099205
Na      17.85880831      13.50444413      67.62121279       0.15053165      -0.66280218       0.31692091
Na      12.94903628      17.46682948      67.85880673      -0.69510490       0.06073829      -0.06886746
Na      17.47447389      16.51675562      70.23403094       0.05984674       0.74483392      -1.56856027
Na      18.87705263      18.41139889      65.50210679      -0.50278595      -0.09684085       0.19802992
Na      29.05427592      25.28377239      57.71361129       0.64306140      -0.31236055       0.25180406
Na      18.49499073      21.80358451      62.67759376       0.84986909      -0.88788743       1.37686281
Na      18.17274848      21.80204131      58.99291762       0.22849566      -0.30367412       0.93191563
Na      28.67070075      24.82964283      61.10652812      -0.88003293      -0.97608549       0.21188666
Na      29.29717675      21.29856837      61.72063975      -0.95413693       0.61589908       1.03350327
Na      17.99305507      25.11867150      56.96350085      -0.40439279      -0.31015007      -0.13923174
Na      25.25592222      24.47683781      66.00113394       0.71479176      -0.29123482      -0.28070520
Na      18.63447642      21.17248202      72.05588206       0.73994314       0.50069129      -0.11803074
Na      18.33281183      22.02192385      66.01597962       0.27755121       0.55513179       1.88864954
Na      28.34185566      26.18264857      68.20397771       0.67436100       0.40198319       1.52113802
Na      27.50348423      21.07623806      69.99092586      -0.21341309      -0.05382360       0.05017742
Na      15.32701619      24.87345897      67.01896060       0.30441947       0.50084943       0.46993560
Na      21.01746178      17.62920192      57.59929795      -0.18808018      -0.32067819      -0.05636030
Na      25.01758614      27.45221897      64.08739961      -0.36679421      -0.80146889       0.23065421
Na      24.94516563      14.21528185      60.43535313       0.05458877      -0.16371192       0.02763953
Na      21.42204198      17.12830119      60.86626329      -0.19341114       0.57512355       0.75401058
Na      21.57711442      27.85615343      60.87608756       0.70094006      -0.36751144      -0.87885024
Na      25.75379551      18.93401871      75.11668605      -0.98275754      -0.19110361       0.22103604
Na      22.34295644      17.83992244      64.98656473       0.14029348       0.48413618       0.27092631
Na      25.15933520      14.18704819      68.36187647      -0.99746302      -0.17817464      -0.83416941
Na      25.81422924      29.58777505      67.80784440       0.26542739      -0.23677206       0.10539762
Na      22.11011394      19.04363254      68.69030171       1.25811526      -0.93306545       0.02859420
Na      20.82803318      27.99711403      70.56719369      -1.52603879      -0.17507862       0.60875616
Na      25.72175130      17.70497623      66.34041373      -1.06002914      -0.15684514       0.42630925
Na      21.39196915      24.50747784      58.96652657       0.24650656       0.68275660       0.79133566
Na      25.27381001      22.05808612      63.35278624      -0.68417382       1.14642247      -0.59185587
Na      25.10829513      20.99153452      60.02223479       0.89119619       1.24835198       0.93532248
Na      21.66426448      24.43522675      62.47165244       1.00717700      -0.00358637       0.63251810
Na      21.14103128      20.90500664      61.13837610      -2.22453852      -0.06807563      -1.36725458
Na      25.66493626      25.11835700      58.10315444      -0.22050518      -0.15845653       0.55485377
Na      19.48484051      25.20702208      65.00731422       0.86257278       2.01693355       0.62259949
Na      25.89022205      21.53338334      66.75598324       0.67829318       1.06715283      -0.07936821
Na      22.09557564      26.92200949      64.47005135       1.72357584       0.37494236       0.59570005
Na      21.00049030      24.21462363      68.40739353       0.29408056       0.07064772      -0.28446286
Na      19.26288920      21.55164195      69.11373009      -0.14587480      -0.59361199      -0.10646613
Na      23.77618108      26.88010063      67.95269348       0.25992702      -0.98888138       1.08882833
S       15.38782158      15.85470067      59.49892097      -0.72315586       0.41064485       1.85155456
S       16.07519385      20.29878290      64.91300361      -1.37293153       0.39795223      -0.74680525
S       20.21356241      20.11111569      58.78103469      -1.12525023      -0.95264265      -0.85859334
S       20.37735883      16.11170753      64.40958802       0.10304607       1.41983777       1.49590571
S       18.87500246      16.88362216      59.74655940       0.01842341      -1.32174251       0.39940478
S       19.61109865      19.31700114      62.92207582       0.42106296      -1.03276142       2.80433816
S       16.58552570      20.09181072      60.85255269      -0.09786725       1.34417142      -0.44164917
S       16.37484019      16.82051298      62.85925053      -1.24606758      -0.62270724       0.70388501
S       15.97808525      15.95628292      67.42040100      -0.04858180      -0.33912259       0.80032253
S       15.05337154      20.79231724      76.51937169      -0.52517491      -0.28456081       0.02176709
S       20.45531270      20.31227918      66.93408989      -0.44153884       0.04086647       0.69768763
S       22.43128494      12.54182665      78.30697176       0.75730197      -0.60235175       1.58010653
S       22.00044772      17.04565672      73.13184452       1.70077240       0.88969626      -2.38008389
S       20.03634165      21.09048778      75.08734734      -1.92127329       0.25212752       2.32455635
S       18.13136913      19.20618234      69.95885787      -0.36964407       0.20473746       1.30077801
S       18.09977058      17.51759259      76.45808482       0.88587289      -0.83961062       2.27639071
S       15.83280395      23.60394150      58.92487348       0.35674290      -0.31858066      -1.08225277
S       15.96168409      27.66702826      66.20550617       0.21071746       0.91323487       1.27044787
S       19.87662829      27.43763309      58.91864940      -0.05365960      -0.63984543      -0.72305297
S       20.61886687      22.60799152      64.19631773       0.06032178      -1.30889493       0.26155658
S       19.62525274      23.51894671      60.86481267      -0.29167440      -2.63896763       0.50264631
S       19.82294388      26.69485000      62.80648024       0.64787301      -0.17737391       1.28256999
S       15.92779552      27.46361117      61.84676723      -0.88040068      -2.05399496      -1.28619298
S       17.28272074      24.24999989      63.68641399      -0.65049575      -0.21968717      -0.89704213
S       17.98035665      24.09849467      68.12129417      -0.72923989       0.69745995      -1.00635519
S       12.85555751      31.14046331      76.46228675      -0.28314489      -0.01475674       0.26955370
S       18.10940344      27.86865513      70.18539851       0.35519267      -0.41389157       0.22789158
S       24.63373670      21.44326898      75.62988372       1.50322323       1.06111004      -0.39037119
S       20.93146633      23.15052510      70.99714015      -0.70209415       1.11285909      -0.10177438
S       21.89806316      24.95334723      74.86874833      -0.36614547       0.18280769       1.48092033
S       17.83278077      26.81012969      74.94814778      -1.60168042      -1.45852678      -0.70778368
S       16.30218787      22.14031055      72.43651077      -0.57287387       0.78589155       0.05601869
S       22.70576314      15.42934019      58.69094750       1.03834916       1.86753207      -0.64908780
S       23.81390738      20.20109749      65.36520522       0.58431759       0.70477558      -0.39674670
S       27.24794153      20.07972294      58.51149657       0.20685215      -1.55682044      -0.05019339
S       27.26115698      16.04661762      64.93514457       1.79829729       0.15618936      -0.16308821
S       26.22394329      16.76258858      60.07663156       0.58218603      -2.55919495      -0.01018958
S       26.38714437      19.36644135      62.93163830      -0.58384342       0.34159269      -0.11915821
S       23.39070279      19.09747087      60.49280819      -0.10390511       2.72389953       0.52862483
S       23.87297272      16.19658207      62.95324408       0.09424443      -1.39086088       0.91120263
S       22.97710542      16.14965275      67.37657331       1.78812470      -0.08434536       1.04491895
S       22.47610499      17.67167211      77.20365458      -0.14491504      -0.69687156      -1.33278742
S       27.88299897      19.72152881      67.17382967      -1.18162878       1.81072924       0.24840225
S       28.73200607      15.34619730      73.93216551      -0.63926438      -1.07387986      -0.67491695
S       26.37566224      16.67920660      69.78823076       0.42590882       1.09383552      -1.61076780
S       27.22505455      19.42415326      72.64069688       1.20417279       1.52743886       0.33039335
S       24.54103752      20.01132856      70.01289262       0.38985130       1.24028626      -1.18882887
S       23.02241537      13.39641145      70.07772199      -0.56148959       1.43780843       0.23617946
S       23.42314786      22.65251001      58.56606145       0.14120606       1.09064121      -2.38560201
S       20.86147906      26.69282073      67.00721576       0.35863512      -0.19903026      -0.99242850
S       27.37599790      27.35528042      59.30599818      -0.89025261      -1.07801402       1.51093504
S       27.43059740      22.87351193      65.10034150      -0.45624029      -0.82415452      -1.06856789
S       26.40331625      23.52066681      61.12256402      -0.33361162       1.68332524       1.10666080
S       27.76542519      27.27767999      63.18028526      -1.06488592       0.42393987      -1.18217072
S       23.59433527      26.04422014      59.77631453      -1.81295628       1.09014192      -1.07098823
S       23.98587174      24.81381614      63.76938965       1.08524428       0.35890674       0.01150433
S       24.00132195      24.31046357      68.55661504       1.44688523      -0.19821618       0.90721555
S       25.24425212      26.20147206      76.86807747       1.12270707      -1.67781894       0.49971467
S       26.18314695      27.22054658      66.38126073       1.11728985       0.53155545       0.88331129
S       27.62018583      18.54249378      77.38480270      -0.00759460      -0.86252567       0.44113493
S       27.57498621      23.79017798      69.37231121       0.71688495      -0.24716554      -0.18727456
S       28.33117791      27.55884883      72.95626580       1.95364914      -0.39943153      -1.50237688
S       23.74513960      27.50516777      70.79004092      -1.17536877      -0.21739281      -1.13789428
S       25.32526006      24.25707112      72.24996747       0.51691101       1.48201558      -1.48265234
Sb      14.76145431      14.54850237      76.63862146      -2.19919349       1.50994882      -2.01191537
Sb      17.96754907      18.32548127      61.59442648      -0.41882106      -1.02612732      -1.17691895
Sb      14.62092540      29.72937284      66.09769307      -0.63272282       2.20220713      -4.21479380
Sb      20.16813067      18.21455543      71.44752205       2.25713431       1.56021012       2.73628150
Sb      14.43471120      21.97590650      57.93742407      -2.75477001       0.90609415       0.91794688
Sb      18.10035368      25.35804124      61.54928076       2.14329927      -1.83067774      -1.38234691
Sb      14.73189133      21.45129582      66.44211650      -2.04278611       1.88133767       1.15552639
Sb      17.08368901      24.53395792      73.57005934      -1.22921360       0.89464894       3.04029349
Sb      21.35533264      28.98115310      57.69346472       1.25843056       2.11160948       0.86568042
Sb      25.02452741      17.75815065      61.76868516       0.85446626       0.56242347      -0.51934360
Sb      21.27630744      14.82903226      66.27136975      -0.25201518      -1.36236896      -2.26814059
Sb      25.32307247      18.24114899      71.44351406       2.65265312      -0.37560436       2.35148333
Sb      21.71638395      21.38926245      57.47310481      -2.54014560      -1.05724095       1.63037467
Sb      25.26461873      25.48249853      61.62989099       2.33256777       0.65539276       0.75785697
Sb      22.07939142      21.90545762      66.01965196       1.42843666       0.69602310       3.07778537
Sb      25.66454395      25.40952168      70.00420410       0.19606138       2.52988913      -1.93563189
Na       4.53104998      -3.48072419      74.82505748      -0.57456598      -0.22746592       0.59933755
Na       2.16001187       3.02054822      78.17205010       0.66914336       0.41021291       1.10248450
Na      -1.39325183      -2.04816053      78.92552056      -1.31599509      -0.34843235       0.35455413
Na       1.93482433       0.10512131      80.48331539      -1.81934340      -0.23202083      -0.52360434
Na      -5.21374769      -0.37370790      81.95071459       0.52688856       0.18936950       0.36719298
Na       2.19228245       2.64396361      83.46126648      -0.38835162      -0.17887544      -0.16918635
Na       0.32457069      -0.38629335      84.82512662      -0.49549828       0.15946749       0.85948790
Na       1.21686783       2.65480229      87.05879000       0.36198763      -0.06475836      -0.41753239
Na      -0.70556224       0.64640895      90.16443622       0.35128944       0.76767389      -1.26661414
Na       1.42381011       2.45509360      92.54835211      -0.01863717       0.37856581       0.49250780
Na      -0.02323790      -0.09204857      94.23067665       1.09718497      -0.28845083      -0.65232618
Na       1.92713225       1.72663947      96.65047907       0.46701083      -1.91884257       0.91678886
Na       0.64241108       2.08939159      70.49505169       0.25162725       1.72538749       0.18553125
Na       0.50509061       2.59722104      75.77662312      -0.44655968      -0.08823871       0.15648474
Na       0.74112400       5.66402267      74.88759182      -0.06922055       1.19657702      -0.03724224
Na       0.41544528       5.53196043      77.72398972       1.66716659      -0.25280125      -1.27488427
Na      -0.09083397       3.78131396      80.79003385       0.70225475      -0.54582776       1.85865184
Na       2.08314022       6.52474001      83.12144665       0.26907728      -0.20460039       0.25558955
Na      -1.05081093       3.97446430      84.32498123       0.81095569      -1.14723710      -0.50013000
Na       1.27020224       5.92468454      87.14064898       0.49897487       1.01952989       0.01966313
Na      -0.31693250       4.13090993      89.93281904       1.76454517       0.38566780      -0.74013830
Na       1.73761999       6.13668231      92.49606203       0.32589364      -0.19821602      -0.69145624
Na      -0.13489707       4.48535203      94.73831651       0.26658697       0.48638893      -0.54258364
Na       2.21470714       6.26797999      97.09591096       0.50302747      -0.68243527      -1.71396068
Na       0.63065604       5.12512984      69.92683433       0.96183998      -0.00465346      -0.36232795
Na       2.68238989      10.96834766      75.33774252      -0.29110971      -1.96368031       0.90428380
Na      -2.50108392       5.63401419      73.51902918       0.45436854      -0.22639281      -0.36441340
Na       0.23453265      12.50618922      77.97880992       0.09069711       0.41161925      -0.45944460
Na      -0.62722472       7.17610271      80.89997679       0.00897772       0.97766894      -1.11731378
Na       2.52493675       9.62802657      84.10439629      -0.27136701       1.11091804      -0.87867352
Na      -0.72064168       8.54365789      84.75065752      -0.89127597      -0.12379301       0.36066452
Na       2.15633247       9.97502885      87.83872713      -1.04043623      -0.49847453      -1.11913928
Na      -0.52815180       7.84992398      89.94960952      -0.76847247      -0.14832052      -0.76194314
Na       1.62463902       9.84739491      91.90256096       0.19564562       0.00583071      -0.02928981
Na      -0.27542840       8.03427540      94.63326223       0.65864289       0.74528255       1.15630069
Na       2.24690265       9.90959283      97.04955535      -0.22641753      -0.18772278       1.30998630
Na       0.25281703      13.23241716      71.81196270       0.71928822       0.61113562       0.36710725
Na       3.54770606      15.58283193      77.50752772      -0.64410840       0.78622113      -0.65672131
Na      -0.38876654      12.29273470      74.71520246       0.03149252      -0.09108788       0.02121000
Na       4.50464923      15.16545262      80.90762907      -0.62919515       0.19917640      -0.19764464
Na       0.29451577      11.08106733      81.88359586       0.05403613      -1.66531764       0.32681070
Na       2.88278777      15.01347614      84.55492572      -0.98814184      -0.49958638      -0.33920668
Na       1.02447502      12.21727971      85.46774908       0.54353850      -0.21709277       1.88116453
Na       2.13511881      13.78049488      88.53936096      -0.40744835       1.03290750       0.97022711
Na      -0.48527505      12.53959769      90.71487583       1.94444727      -1.03615270      -1.50785978
Na       1.77560145      14.48114434      92.45560910      -0.45609603       0.41100431       0.10013660
Na      -0.06958981      11.64598629      94.59616491      -0.50257196       0.48940129      -0.31937507
Na       1.99676337      14.09142857      96.96261176       1.28982435       0.50320748      -0.71561451
Na       0.12666769      16.90491372      71.57048432      -0.23929351      -0.52917894      -0.77868403
Na       3.36791371      16.69015542      74.60926307      -0.05252983       0.07300162       0.89982792
Na      -0.47896772      15.82080713      77.26616840       1.88951862       0.87558048       0.44625092
Na       1.30675748      17.80234613      78.86895506       0.01430165       0.09793510      -0.91103495
Na       0.78894259      15.03469828      82.10517182      -0.69190772       1.24362930      -0.25499021
Na       1.99183666      18.18158640      83.16007238      -1.14975917      -1.14078545      -0.11737088
Na      -0.24363498      15.79346768      85.66554259      -0.34407570       0.68068068      -1.08267304
Na       1.96673564      17.45385257      88.01078421      -0.67666136       0.34656997       0.98157077
Na      -0.84548188      15.69574609      90.05206790      -0.60057944       1.34945369      -1.80680560
Na       1.72542300      18.14671081      92.95583691      -1.14071650       1.25236448      -0.38443004
Na      -0.12739094      16.66270748      95.47578501      -0.09547382       0.71955491      -0.32839680
Na       2.02181018      18.82034910      97.56401966      -0.46454732       1.92785328      -1.04961152
Na      -1.49089104      21.71670598      75.65363940       0.18390196      -0.33426534       0.34502945
Na       3.45656652      21.84862868      75.13398880       0.04093509       0.68394795       0.08285467
Na       1.79159066      22.01496033      80.87357613      -0.08632080      -0.29336399      -0.19911654
Na      -1.35546043      23.92027254      80.45252350       1.07576819       0.75089346      -0.58243891
Na      -0.58152943      20.38706553      82.67968967       0.50630436       0.37690374      -0.56973646
Na       2.08467937      21.80404551      84.36323367      -0.05477155      -0.85493468      -0.27290092
Na      -0.07757023      19.96509646      86.67113788       0.74725305       0.16713484      -0.07255245
Na       1.99971529      22.40250721      87.61983572       0.13681535      -0.21157927      -0.72819836
Na       0.18602044      19.71897882      90.08245352       1.81860257      -1.07060357      -1.15589510
Na       1.50900071      22.50847089      91.94193275       0.60188081      -1.38828884       0.28437383
Na      -0.72646298      20.61714001      94.52654708      -0.61260097      -0.76771905      -0.33785360
Na       1.94182540      22.42982939      96.98792504       1.48657857      -0.19232115      -0.16278459
Na      -2.97032401      26.92741409      73.17390007       0.47543923       0.99591227      -0.76796806
Na       6.08657735      24.41744847      71.39937057       0.30009253       0.92034346      -0.20407525
Na      -1.25541146      27.54375931      75.66872146       0.46684951       0.71215457       0.02893318
Na      -0.94581484      29.00014029      80.70599893      -0.19325692      -0.87041207       0.46091441
Na       0.85941303      24.78804079      82.73332452       0.87401488       0.05983423       0.54492353
Na       3.42068819      25.29288012      86.11488881       0.55876337       0.68369123       0.01711332
Na      -0.20226823      24.69696812      85.79361307       1.47706276       0.15459969       0.51781494
Na       1.70613310      27.52641153      87.57358810       0.95626911       0.48011206      -0.73058986
Na       0.06475866      25.35135332      89.87879187       1.25748548      -0.32409934      -0.58762776
Na       1.68915612      26.32252933      92.45102135      -0.93196846       0.44886908       1.27554482
Na      -0.48241082      24.33618523      94.74260865       0.97315539      -0.23745460      -0.33203198
Na       2.05881662      26.06519539      97.40831301      -0.63298691      -1.60789718       1.57803599
Na       1.99801892      -0.35308809      74.92401211       0.92425152      -0.52567746      -0.12634080
Na       4.96113550      -0.57678373      72.59750024      -0.88107824      -0.96938452       0.24194191
Na       6.37604694       0.65982977      77.70135290      -0.21861566       0.77308833       1.07248879
Na       5.38141692       2.71570152      79.89227160      -0.45262851      -0.13631733       0.07763051
Na       3.45119044      -1.46069581      83.33202485      -0.21385628      -1.35702995       0.53918950
Na       5.63213264       1.81172991      83.37814456       0.19939904       0.71105492       0.88992937
Na       4.03905490       0.67298601      86.25936752      -0.20047004      -1.69392523      -0.10854351
Na       6.46461490       1.93979675      88.50669202       0.48635364       1.14885323      -0.00432363
Na       2.82034095       0.33060402      90.02611160      -0.78676125       0.59109875       1.05805728
Na       6.06091951       1.79712536      92.12705029       0.67815711       2.03781538      -0.65012835
Na       3.71877680       0.18080076      94.55527765       0.54750045      -0.25604721       1.26524493
Na       5.66690454       1.91991030      97.30847515      -0.68623800       0.59219299       0.66747428
Na       6.54314911      -0.04852009      69.84799707       1.74933567      -0.41102080      -0.20431860
Na       7.12941324       7.95960954      76.27215810       0.44602237      -0.64341171      -1.34948481
Na       4.21398501       2.00103003      75.24359256       0.57276512       0.39873774       0.73278967
Na       3.39338989       6.84684663      77.08443609       0.98061403       0.26343184       2.03281843
Na       3.55142886       5.34736585      80.38127359      -0.20310011       0.36232063      -0.17919622
Na       5.41083435       6.36890457      83.22194377       0.15073319      -0.02516057      -0.82029450
Na       4.29757700       4.25655163      86.31090523       0.69327442      -0.07072297      -0.16040419
Na       6.89340508       5.78371723      88.32211758      -0.01571033      -0.72384653       0.08357588
Na       4.13060832       3.81018107      90.35029395       0.76742685      -0.46078204      -1.48146792
Na       5.96719833       5.80776037      92.15642817      -0.43474500       0.68064325      -0.25209855
Na       3.75447252       4.07659264      94.67671859      -0.53754691       1.83475521       0.49729706
Na       6.31255742       5.54567560      97.46401497      -0.66143547      -0.50375646      -1.14510800
Na       1.48732966       8.60099883      70.60598709      -0.32415303       0.97650454       0.08728627
Na       4.92177244      10.45952759      77.35966946       0.39010934      -0.16372567      -0.80027106
Na       2.30358240       8.38106136      74.24317093       0.62586449       0.17246010       0.43913306
Na       6.71426063       6.92287609      79.90131498      -0.09536200      -0.47417999      -1.46358746
Na       3.88023207       8.66481543      80.87433783       0.90357192      -0.21791755      -0.63000603
Na       6.14616393       9.68998353      83.53469072      -0.28602911      -1.16007200      -0.68379651
Na       4.54556981       7.80263055      86.52667982      -0.69133217       0.36946851      -0.49255772
Na       7.17173850       9.46160471      87.86266929       0.86221783      -0.86680774       0.52258693
Na       3.92456092       7.44739113      90.03268449      -1.04742089      -0.02265014      -1.46030157
Na       5.82008745       9.73242085      92.12888324      -0.05634864       1.47054417      -0.37785465
Na       3.60822685       7.97424596      94.41105402      -0.29408932      -0.50948576       0.07752651
Na       5.78847385       9.87635516      96.69818114      -0.42347036       0.07532057      -0.44432214
Na       4.12899677      10.47009665      72.54117475       0.35806143       0.58707364       1.35014563
Na       6.42963780      15.44080768      72.78452230      -0.98827854      -0.64516851       0.11499640
Na       3.22568963      12.50690953      79.86354474      -0.49098659      -1.25513296       0.02548266
Na       6.13434364      13.26503487      78.06781023       1.53770689       1.14400720       0.19944531
Na       3.66026538      12.47129252      83.02562549       0.06074408       1.12848504       0.34862208
Na       6.27802924      14.17428038      84.07456041      -1.32480311       0.20020763      -0.06626397
Na       4.72590744      11.59087752      86.36396735       0.98522061       0.33205837       0.16280719
Na       7.27844050      13.22604342      88.34793616       0.28106237       1.16150201      -0.16638454
Na       4.15286590      11.79747756      89.83032859       0.26809123      -0.52669876       0.42390855
Na       5.44532400      13.81888614      92.43617571       1.08707325       1.19440892      -0.70271466
Na       3.45174627      11.85739773      93.84319678      -0.10583601      -0.34555673       1.26869928
Na       5.62163324      14.30374777      96.92233228      -0.14134284       0.36290808      -1.61417683
Na       4.15321251      19.28084591      72.73015337       0.07301729      -0.26348580       1.03696811
Na       8.32832174      14.82452874      75.72873840      -1.03232505       0.70900872       0.17721362
Na       6.69884609      16.70557213      78.26315779      -1.85131832      -0.58354761      -0.65867085
Na       8.36387909      20.20845272      81.21353180      -1.45344295       0.64093275       0.43160287
Na       4.23485625      18.89889106      80.38993776      -0.72048142       1.14593839       0.30543331
Na       5.90481446      17.67412419      83.93476912      -0.56512859       0.57256663       1.65340514
Na       4.97827888      15.33311575      87.03308847      -1.50219944       0.19061872      -0.30866819
Na       7.29282484      18.32070809      87.20549583      -0.22034633       1.28558249       0.45781884
Na       4.14976594      16.46418910      90.64880921      -0.89396610       1.07628816       0.10486891
Na       5.61200837      18.55136345      93.02457809      -0.08131012      -0.88642967      -1.21008399
Na       3.77378444      16.35903624      95.20633710      -0.35072929       0.47193534      -0.16241494
Na       6.14127594      18.75984070      96.83363179      -0.33390787       0.34432947       0.20635504
Na       6.57563042      21.58582828      71.33416059      -0.86236908       0.40776343       0.52208179
Na       7.42093566      21.42008700      74.37849356      -1.24241909       0.54807087      -0.02082061
Na       4.55873727      18.66043525      76.51872228       0.27638114      -0.45662375      -1.41611883
Na       4.72527207      22.16439751      78.48781524      -0.05380826      -0.68177577      -1.48474367
Na       5.06109627      21.18135592      82.37912939      -1.29233275      -0.06091024       0.03296506
Na       4.46528206      24.54226518      80.89473133      -0.49462546      -0.89962009      -1.75975207
Na       3.98896221      19.71366021      86.41489181       0.73663362      -0.67372959       0.58524646
Na       5.48630282      22.77631350      87.84375692      -0.08401159       1.84885749      -0.02508842
Na       3.69722416      20.46387188      90.32628827       0.59278184       0.53716803      -0.97395572
Na       5.82644542      23.02530346      91.92647287      -0.82096088      -1.43606977       0.68573212
Na       3.43369572      20.83820000      94.52398975       0.60975066      -1.01216147      -1.45086121
Na       5.84257559      22.43218790      97.23415222       0.68438360       0.84781856      -0.22105533
Na       1.19344977      25.60113101      74.32339638      -0.17531528       0.25502553      -0.65437817
Na       8.54215499      26.80796401      71.72254455      -1.24877718       0.23316055      -0.60823469
Na       2.43758601      24.40085961      77.32821226       0.27871210       0.38108587       1.32490301
Na       3.44860435      28.01065279      77.58488750      -0.68387130      -0.51483672      -0.40145412
Na       1.45384719      26.08250335      79.79326593       1.57671582       0.12125268      -1.20880112
Na       6.83491355      26.33736234      83.76286646       0.33280546      -0.23373500      -1.19143304
Na       5.08777893      23.60167228      84.23213942      -0.28143662       0.26600948      -0.61654917
Na       5.85863468      26.76632085      88.22773944       0.59067808       1.19534712      -1.51933158
Na       3.16699975      24.50183619      90.15402673      -0.97624667       0.63225335       0.06040228
Na       5.40558585      26.90275252      91.73532834       0.53780783      -0.77631533      -0.63610967
Na       3.84210855      24.57439892      94.94594824       0.60794577      -0.09448049      -0.84462975
Na       5.30831069      26.36605062      97.45896469       0.95727848      -0.65154988      -0.51516331
Na       9.29517924      -1.26987365      68.40862647       0.97956617       0.12425556      -0.13726392
Na       7.39349622       0.30053705      74.86834636      -1.48945109      -1.13664905       0.92895951
Na       5.60838943      -0.71105226      80.65985824      -1.05666551      -1.26193253       0.46672163
Na       9.01216115       2.08108892      79.33807707      -0.16364412       0.65932668      -0.61735547
Na       8.79482412       0.18447292      82.08224118      -0.10898436      -0.15748978       3.14507842
Na      10.76122316       2.51081421      82.40908827       0.97416561      -0.76216535      -0.37816128
Na       7.85403277      -0.53888382      85.61559178      -0.53003461      -1.11199993      -0.04292833
Na      10.02898684       2.31139505      88.53798780      -0.32489034      -0.65772665       0.56693922
Na       8.37037804      -0.29149956      90.97557032       0.38366420       0.72307375       1.07702946
Na       9.92178854       2.15168569      92.97454112       1.26363240       1.57485544       0.57761781
Na       7.44231662      -0.47306711      94.49957163      -0.75120346       0.70795130      -0.40768769
Na       9.77886822       2.27348897      96.65827304       0.33260772       0.30085388       1.61506094
Na       6.56602878       3.29636791      72.62313073      -0.23219564       0.36740141       0.10804217
Na       2.00425728       4.24415500      72.73404907      -0.60574699       0.88441196      -0.75002233
Na       8.35453271       5.10236595      74.73339726      -0.71095457      -0.15467051      -0.61283811
Na      13.76366936       4.92300161      77.32034896       0.23467294       0.03136554       0.91524995
Na       8.14502611       4.55498843      81.78576296       1.04481620       0.13529741       0.31907698
Na      11.10730557       5.52648777      83.64755708       0.25220319      -0.31994469       0.54706104
Na       7.72252167       3.49293308      85.28253172       0.99289242      -0.17035298       0.42263805
Na      10.40945084       6.78225021      87.68170981       0.29389388      -0.47614728      -1.22292734
Na       8.08137884       3.93625102      90.65424328      -0.32546822       0.38668495       0.84023135
Na      10.36487657       5.44475764      92.83829038      -0.32134746       1.35164710       0.10539042
Na       7.15703783       3.60280054      94.60769964       0.62319426       0.99938424       0.14965660
Na       9.58260623       6.01812798      96.83815377      -1.23927735       0.03131265       0.06856909
Na       6.15120309       8.41862718      72.64166451       0.15531167       0.11010708       0.68491284
Na      11.69347370      10.59061630      73.01541458       0.49597415      -0.14771863      -0.44223891
Na       4.16447642       5.99526201      74.09857529      -0.05646423       2.31661330       1.08649447
Na       9.70143946       5.41085945      78.24286318       0.26817143      -1.80337161      -0.16823691
Na       5.78311571       4.54074394      77.22361358      -0.70033050       0.29845672       0.57481009
Na       9.78228200       8.57142379      81.58093640       1.25257536      -0.10759151       0.83982173
Na       8.38595865       7.49098733      84.84018188       0.53315560       0.30579168      -1.08326297
Na      10.38452248      10.50160585      87.94167416      -0.99425435      -0.91086066       0.50750964
Na       8.27622971       8.13267290      90.83242996       0.69276520      -1.27983346       1.46055144
Na      10.32192158      10.43211735      93.01161437      -0.55117368      -0.74599397      -0.40850138
Na       8.03741595       7.91441059      94.54890231       1.56052378       0.27341854       1.11649067
Na      10.23279799       9.93741684      97.21289659      -0.77188366       0.17231281       1.06647353
Na       6.71941311      10.90672005      74.65583183       0.10047150      -1.08199936      -0.24091882
Na      11.59845291      14.69044115      74.12768149       1.46756348       0.02342749       0.30665317
Na       4.80830845      13.87751714      75.18564612       0.71095554       0.94088487       0.59547658
Na      11.77162200       9.25377999      78.36876616      -1.61924931      -0.15861624       0.34354726
Na       7.46549348      11.70505304      81.21266345       0.25282985       0.56524041      -0.60613185
Na      10.94660041      14.24713564      83.44308919      -0.56234595      -0.12997580      -0.14668824
Na       9.27800087      11.30009725      84.55418463       1.52355717      -0.55544352      -0.08895085
Na      11.30486486      14.06841023      88.59201076      -0.30649368      -1.20552170       0.05154423
Na       8.05603288      11.57348786      90.85840206      -0.89682766       0.21840646       1.09431488
Na       9.97929653      14.14785911      92.54045306       0.73498024      -0.39137111      -0.56161897
Na       7.75123400      11.59847148      94.25005265       0.55272141       0.00108341       0.08412531
Na       9.37773181      14.40002629      96.90107648      -0.10490148       0.00725691      -0.39323491
Na       8.12674623      17.38805555      70.89569790      -0.52913895      -0.98474205      -0.49684976
Na       9.38750457      18.81038960      78.01663116      -0.55927349      -0.13861893      -0.64742553
Na       8.12572510      10.00380474      78.35625622      -0.45476580      -0.13027462      -0.29983491
Na      11.94510430      19.84822928      80.02670468       1.09673287       0.10534628       0.63898919
Na       7.83787475      15.31182737      81.25354405      -0.57140917      -0.64611566       0.47565418
Na      10.17871902      17.91623989      84.47053518      -1.55329093       0.78306851       0.11061925
Na       9.14514862      14.99902893      86.08260509      -0.80995805      -0.27464082      -0.59324744
Na      10.62320968      17.60329797      88.45810498      -0.16494365      -0.69915267       1.28486687
Na       7.76424431      15.70577094      90.80208227      -0.54539728      -0.59329352      -1.20062622
Na       9.72486646      18.87426717      92.65101500      -0.36530873       0.26607035      -0.02079162
Na       8.00719995      15.83043689      94.19037467      -0.66415512      -1.59758335      -0.45926862
Na       9.36402011      17.98726806      97.18348854      -1.08670527       0.45727775      -0.52493050
Na       7.68286772      17.86397244      74.54457509       1.03502494       1.00407984      -0.31280195
Na       9.57025388      20.39510310      72.46080580       1.16730751      -0.01359435       0.07696997
Na       8.03401515      22.11110967      77.64601063      -1.32048657       0.33862102      -0.53986083
Na      10.87659529      23.07791233      79.61543844       1.89936861       0.81847456      -0.03277502
Na       6.19685034      25.83541205      77.30247246      -0.00324014      -0.12773853      -1.17976116
Na      10.92265862      21.06693192      83.40596887       0.55389734       0.57383312       0.17509640
Na       8.04132523      20.65380180      84.91133964      -0.29524812       0.39178456      -2.21815786
Na       9.64955438      21.75363073      88.45344098       0.02318943      -0.95012657       0.91830048
Na       7.47545900      20.27503034      90.41580158       2.36360501      -0.50309327       0.53495275
Na      10.31672637      22.70631089      92.51069960      -0.78648358       0.01740365      -0.65018734
Na       7.72706271      21.08254355      94.62142110      -0.53909980      -0.07610503       0.14160209
Na      10.16296929      21.83935953      96.76543396      -0.02506328      -0.79427595      -0.25994270
Na      11.80734972      26.10043417      73.19967577       0.30665786       0.86530876       1.49630999
Na       9.67607882      28.51233116      77.01695538      -0.87785998      -0.12310008       0.06023449
Na       8.21190229      24.81727078      74.39184200       0.28869447       0.04987968      -0.80969829
Na       9.04571559      26.42398682      79.50469755      -0.29154966       0.11070796       0.55426209
Na       7.75063983      24.05182852      81.41935435       0.86201579       0.95368794       0.24266307
Na      10.75185310      25.08340117      82.84419671      -0.36228206      -2.28477549      -0.76491751
Na       8.69001749      24.29347692      86.32973982      -0.80624252       0.41939594      -0.90350699
Na      10.32124530      26.85762462      88.14479872      -0.61833299      -1.42847565       0.82423422
Na       8.18118546      24.53491469      90.07532292      -0.28574418       0.80286730       0.14084272
Na      10.19865604      26.70531317      92.96050805      -0.33172724      -0.09128768       0.14839752
Na       8.08785153      24.51088254      95.11328436       0.28397116       0.50037027      -0.76448258
Na       9.91703818      26.80051752      96.84410958       0.64177505      -0.74883244       0.94175539
Na      12.20078516       0.27873083      74.97530989      -0.30888285      -0.65786209      -0.92449763
Na      15.57590177       3.46365580      75.40764362       0.49702069      -0.87689372       0.05086403
Na      14.11887127       0.30234100      77.57459827       1.13092692      -0.13641719       0.21375018
Na      12.27512564       2.53060469      79.21978898       0.72793773      -0.83366534      -0.54719540
Na      11.92931705      -0.37276573      80.87150208       0.27206142       0.35644520      -0.48886895
Na      13.92865090       1.82236182      83.38507831       0.40112776       1.57369712       0.04787735
Na      11.42918790       0.46057823      85.38569294       1.50245421      -1.54818476      -0.10767298
Na      14.01968147       1.91470747      88.18431097      -0.53371083      -0.85390106      -1.05734343
Na      11.73481407       0.14882883      90.71394323      -0.64525084      -0.83470067      -0.15774008
Na      14.38383751       2.35322090      92.70416535      -0.98459512       1.02343193       0.82588217
Na      12.14708810       0.10087106      94.92696431       0.61500878      -0.45984937       0.90762089
Na      14.33966208       1.93136006      96.95824421       0.01909152      -1.10908635       1.03212079
Na      15.82081384       4.70036418      70.60958479      -0.03121591      -0.50821228      -0.49946817
Na      13.19379794       6.00597731      72.50904330      -0.11195836       0.89233802       0.83041277
Na      12.25720247       3.96456139      74.16365880      -0.70081380      -0.04048615       1.24336497
Na      14.89699883       8.34232836      76.39910177      -0.29447273      -0.87034215       0.06341525
Na      15.32088389       4.22418945      81.59538505       0.18603207       0.57627810       0.20283701
Na      14.94069359       6.76783651      83.60337306       0.27891177       0.56828309       0.52617179
Na      12.21387715       3.97883909      86.25704156      -1.21462169      -0.74963077      -0.10824411
Na      14.54551216       6.91074265      87.43381943      -0.60299677      -0.99057636       0.20844535
Na      12.58978054       3.77289845      90.38565697      -1.21844832       0.42401791       0.60160036
Na      13.89619048       6.24805233      92.39307950       1.06435610       1.35269668       0.04562927
Na      12.44275274       4.01758306      95.05862524       0.24893737       0.05853360      -0.35234674
Na      14.18659504       6.11180116      97.66935327       0.83101363      -0.33473338      -0.29873590
Na       9.81672165       9.97805758      75.44246977       0.49244250       0.31631646       0.71674333
Na      14.03242099       8.80347090      73.55243090       1.19485347      -0.69505053      -1.78335447
Na      11.74992027       7.22925361      75.57076958      -1.42891488      -1.19680121       0.87883621
Na      14.77591761      11.07164259      75.72531191       0.26983384       0.38330883      -1.85433348
Na      13.19923193       7.66185743      81.16988189       0.75695835      -0.48077935      -1.34728059
Na      14.72609910      10.55343858      83.00381609       1.14622248       0.36032579      -1.41670525
Na      12.32762933       8.96678560      84.87711978      -0.06599237      -0.59320169      -0.22462040
Na      14.81326715      10.75986947      88.49180679       0.22867700      -0.26302283       0.70162884
Na      12.19587700       8.43812532      90.53238288       0.52192457       0.13914186      -1.55242130
Na      13.98331832      10.29449386      93.28313141      -1.14480447       0.32620356       0.40352002
Na      12.25053263       7.90981694      94.95031102       0.10223963      -1.17521369      -1.71036315
Na      14.32091821      10.29444145      96.99387968      -0.13664213       0.74811130      -0.29674986
Na      14.60242013      13.14707319      73.32651822       0.39002245      -0.71337564      -0.52873739
Na      15.63049034      18.11487289      75.63039603       0.14546527       0.15495128       0.72398181
Na      12.11451893      12.31595204      76.99320192      -0.67198262       0.29910679       0.22174933
Na      11.54300341      15.34442431      77.48453066      -0.45573951       1.84205459       0.19338454
Na      11.82976921      11.43373298      81.30172263      -0.51723597       0.90722462       0.56834937
Na      13.86560248      14.19965286      82.54465452       1.34766491       0.32081480       0.96759879
Na      13.29171317      12.40083904      85.95305112       2.39864885      -0.14616660      -0.29291263
Na      14.55717224      14.77804705      89.05515198       0.76416177       0.79862974       0.98520908
Na      12.50151668      12.27427934      90.87010553       0.86901441       0.24941602      -1.13305961
Na      14.61582203      14.57283331      93.36429551       0.82034060       0.30284512       0.23579172
Na      11.92949721      13.01198676      95.14200931      -0.73908242       0.25430374      -0.92014648
Na      14.84941891      14.48537009      97.18552025       1.52845333      -0.11686266       0.19908750
Na      10.38132499      15.12433693      70.93045032      -0.75093259      -0.53055876      -0.90068573
Na      10.68735565      17.76266471      74.55889101      -0.02645959      -0.07464107      -0.36390742
Na       9.71647313      13.00770874      78.80288169       0.12972132      -0.84385056       0.56329946
Na      12.58646544      18.92764835      76.66295515       0.56907368      -1.82869251       0.75794638
Na      11.15608571      16.54234849      80.59126954      -0.26053054       0.20542017       0.08208778
Na      14.41152355      16.87824834      78.83243247       1.01018791       0.99691573      -0.38128587
Na      12.60660586      15.95589243      85.88950141       1.00942204      -0.48391000      -1.77401900
Na      14.11646936      18.25280831      88.54907104      -0.43116572      -0.05468631      -0.81192895
Na      12.03516944      16.34569548      90.91384596      -0.29544103       1.06085914       1.00507085
Na      14.55209731      18.37299140      92.85801059      -0.89589101      -0.11828068      -0.89798476
Na      12.11116040      16.80869078      94.61800288      -0.88571514      -0.69726000      -0.94755876
Na      13.56155340      18.80027000      97.10815828       0.93519911      -0.83130519       0.01719832
Na      15.43268257      19.75315080      71.22043965       0.47155627      -0.94018675       1.55235676
Na      14.10979509      21.36429957      73.99507033       0.26943090       1.16179019       1.04289261
Na      12.30210300      22.02055402      76.60411959      -0.40278667       0.79633931      -0.56140549
Na      15.11362871      22.51266766      78.94016357       0.24917825       1.56262878      -0.46426992
Na      13.81976165      18.27484235      83.24468000      -0.59150919       0.89243987       1.27507698
Na      13.77417182      22.96342605      82.58613213       1.00617915       0.23965168      -2.06428102
Na      11.73216561      19.86059271      86.52811375       0.88968617      -0.90562272      -0.37554497
Na      13.98271035      22.51594679      88.47700847      -0.71264849      -0.11846287      -0.03299095
Na      12.09035106      20.33925244      90.79222338       0.38732165      -0.43340565      -0.48279130
Na      14.29261861      22.40973766      92.57069752      -0.70900754      -0.39322521       1.06791942
Na      12.37516700      20.12622991      94.36449253      -1.47514584      -0.04811218       1.24285398
Na      13.91182621      22.16295940      96.64300485       0.33661879      -1.62737867       0.69308141
Na      10.74882933      22.67234668      73.67906408      -0.65395500      -0.77377317       0.83200064
Na      14.57103866      26.20708875      74.84909258       0.30736460      -0.04594129      -1.40154073
Na      10.92976003      25.69786893      76.26713275       0.84362353      -0.19865830      -0.42905831
Na      17.12188315      26.71545564      77.81203823      -1.31100785      -0.11850044       0.93848227
Na      13.55737164      26.01415186      78.97660909      -0.21913260       1.08066815       0.40987070
Na      13.54791603      26.76222352      83.69730861       0.63446495       1.33030447      -0.59427476
Na      12.37028238      24.68897448      86.38354256      -0.09014389      -0.68854635       0.61841227
Na      14.15446375      26.49683744      88.34625405       0.58943260       0.27034077      -0.98182706
Na      11.70356589      24.63748263      90.02721336       0.57530593       0.40147719       0.64117571
Na      14.16485113      26.29063539      93.05824510       0.37429098       0.17059964      -0.40634856
Na      11.94376132      24.12910012      94.71866109       0.21938564       0.26229105      -0.14201697
Na      13.92374402      26.52846294      96.89861446       0.62286236      -0.51111842      -0.03058050
Na      18.30511030       6.03445079      68.83957511      -1.04020129       0.53510740       0.47725392
Na      18.48278758       0.18966589      72.85235767       0.01288986      -0.10062902       0.41255002
Na      15.88114335       0.21431925      74.71808314       1.64673349      -1.40200112      -0.63473843
Na      20.09866477       3.89693957      80.31176695      -0.02972338      -0.88448596       0.65926220
Na      15.53839121       0.10317747      80.81951267      -0.71929127      -0.43753165       1.76135531
Na      17.73477455       1.96184734      83.11770951      -0.35611259       0.06487865      -0.18050033
Na      15.71925839      -0.01344536      86.11248867       0.45045039      -0.09404732      -0.63834383
Na      17.57164733       2.41637466      88.12065604       2.15503757      -0.85456564      -0.86534346
Na      16.13634488       0.13161636      90.52753591       2.10481857       0.01409164      -0.67427330
Na      18.34023000       2.47223301      92.61738531       0.47828257       1.35211079      -0.83249928
Na      16.36379968       0.18183764      94.99864255      -0.18707763      -0.38560745       0.92248681
Na      18.19660504       2.64302651      96.72937635      -0.01054789       0.12135324      -0.39191303
Na      14.74339351       1.62175134      71.61995101      -0.94410422       0.09284727       0.64583073
Na      19.83935603       7.46503084      71.55713222       0.62929599       0.18200322       0.24639365
Na      18.20350962       4.82749257      72.79333079      -0.66331848       0.27125540       0.22941358
Na      18.12161888       5.80231634      77.09788020       0.01977854      -0.61066269      -1.50235844
Na      17.23942919       2.22705103      78.65795852       0.91818768       0.48433473      -0.07299884
Na      18.40718984       6.16717425      82.54619876      -0.04337750       0.37212184      -0.83455656
Na      15.83081638       4.41224801      85.58263620       0.49995044      -1.66970511       0.02088558
Na      17.74164689       6.55478053      87.87802176      -0.44643121       0.33066472      -0.82691876
Na      16.27098909       4.93035878      89.99474425       0.15555253       0.75385746      -0.38763236
Na      18.38755095       6.22016996      92.51360675       0.09555620      -0.84968510       0.23615421
Na      15.68232945       4.62707420      94.60040115      -0.02933434       1.60880962       0.52524645
Na      18.23415259       6.03944210      97.07526743       0.18314812       0.06691952      -0.50639263
Na      12.08468510       5.72994742      69.48271349       0.16477402      -1.51467973      -0.12583087
Na      17.66632903      12.28739464      75.19285360      -0.27696009       0.61272366      -0.32151034
Na      16.87743142       6.95524636      74.13280066       0.56040268       1.30810343      -0.31280383
Na      17.52573687       9.86504276      77.40788913      -0.46074673       0.10992740       0.06228047
Na      16.21535944       6.78493082      79.39219096       1.14756430      -0.14634993       0.32940112
Na      17.96688996      10.05783757      82.18292294      -0.59835504      -0.43475903      -0.56626983
Na      16.52434611       9.70782113      85.65111021      -0.59178406       1.71219738       0.19683186
Na      18.68491662      10.43552874      88.31990285       0.51509836       0.98925687       0.10614274
Na      15.94206363       8.36685738      90.53132037       0.62477697      -0.42152292      -0.82757623
Na      18.61180989       9.60558031      92.31375763       0.40292215       0.84260944       0.37962611
Na      16.36932042       8.06809963      94.84307549       0.04720216       1.33206409      -0.62496239
Na      18.36740891      10.71188485      97.06321174      -0.59327904       0.05821340      -0.00570684
Na      13.46671689      11.04152190      70.36304862      -1.64569518       0.37843208      -0.26275445
Na      17.42934605      15.38947331      74.96040143       0.25352623      -0.31939490       0.88213967
Na      17.23948625      12.93668559      80.44265327       0.33217666      -0.79894310       0.14439190
Na      22.35402538      15.20318241      78.76374734       0.35171697       0.58897748      -0.48915873
Na      14.78113972      10.67877560      79.35902258      -0.20679249      -0.31726547       0.58238484
Na      16.60029319      16.65188143      81.60782384      -0.57128207      -0.38992952       0.14655548
Na      16.84234378      13.51531815      84.13772299      -0.98289930       0.38358924       1.04167290
Na      17.88365844      14.06882464      88.07960587      -0.20888159      -1.20858097       0.75693864
Na      16.69970527      12.33131956      91.16786114       1.39989201      -0.08494065       0.41312527
Na      18.22778693      14.88815340      93.54140964      -0.39306458      -0.51774738       0.28801104
Na      16.38736707      11.97982720      94.71269976       0.53898801       0.47937727       0.39080861
Na      18.28495999      14.60830956      97.33135791      -0.52836548       0.27887806      -0.35820024
Na      14.60746138      16.71298776      72.85572367      -0.61127592      -1.41529982       0.29921575
Na      22.30951369      19.12599125      74.94345173      -1.38120043      -0.30124096      -0.16933708
Na      17.42657580      15.72213150      78.21931904       0.32158612       0.71372434      -1.02519718
Na      17.36155303      21.38879327      75.07343246      -0.66261425       1.18743606       0.19323261
Na      13.73459293      14.19341296      79.45805537      -0.14900074       0.01685397       0.37094092
Na      17.91715912      18.34381080      84.10175795       0.07495427       0.66412572      -0.60822216
Na      15.94099996      16.55451302      85.83154529      -1.37066370      -0.11841553      -0.56676443
Na      18.27275357      17.54767975      88.40713966      -0.55735799       0.79261949       0.49498583
Na      16.52675295      16.38540840      91.15267480      -0.41158579      -0.88307977      -1.02882542
Na      18.91219317      18.38857435      93.10809745      -0.22390153       0.26164204      -0.48227301
Na      15.99236708      17.22365129      95.29171458       0.95179416      -0.18317161       1.49601004
Na      18.91694889      18.40431821      97.04058573       0.11305872       0.20310230       0.66064477
Na      15.38358164      23.35113610      75.96575886      -0.01410634       0.69393444       0.69106596
Na      21.94537245      20.57854379      72.14643749       0.91653510      -0.37478374      -0.89538265
Na      16.61151800      19.26009095      78.32528019       1.35846962      -1.34973536       1.27069758
Na      19.12267657      24.12094788      75.84153742      -0.97358153      -0.13567600       2.07044385
Na      16.01259579      20.34615729      81.83960019       0.41803316      -0.59592665      -0.87824927
Na      17.92837725      22.37939794      83.44191397      -0.21135006      -0.99582468      -0.02742081
Na      15.06471480      20.52049597      85.50950068      -0.03964133      -0.07596338       0.37919423
Na      17.48305058      21.90285994      87.95763437      -1.14634683      -0.02760629      -0.59048660
Na      16.03362574      20.03625474      90.69046144       0.01513368       0.39125747      -0.36229652
Na      18.00351572      22.46731812      92.38351192      -1.21612412       1.24110181      -0.90058147
Na      16.74809980      20.86805663      95.16895997       0.67790465      -0.42817376       1.00068221
Na      18.67948505      22.77479305      97.24515603      -0.11651515      -0.53352856      -0.20439807
Na      14.15943101      23.95183581      72.24745481       1.10140607       0.19781401      -0.54759582
Na      18.73391144      24.88448033      70.64355819       0.61490521      -0.51355726      -0.86786663
Na      20.35798841      23.17100342      73.56191578      -0.72798566       0.25571786       0.91963529
Na      19.63285920      28.26690609      76.19494839       0.06395909      -0.40483716      -1.05191301
Na      16.38782231      25.08508363      81.04459538      -0.65589635      -0.39465260       0.35763409
Na      18.01099240      26.54221876      83.45857319      -0.18664830       0.81326810      -0.51865726
Na      16.02033358      24.20827356      85.52214426      -1.01564676       0.20421240       1.65123095
Na      17.69046869      26.06977590      88.28089156      -1.07202134      -0.28655847      -0.56604622
Na      16.09100108      24.11876743      90.39298043       0.02594060       1.05805680      -1.29355792
Na      17.80574033      26.46609360      92.66817707       0.18225064      -0.47297926       0.28064805
Na      16.13704450      24.12583218      95.20851250       1.05450862      -0.64134808      -0.24751282
Na      18.26845481      26.37166832      96.98272078      -2.11841820       0.13053899       0.34510631
Na      22.62113176      -3.57245230      72.18659061       1.11693609      -0.24557953       1.19704909
Na      22.86114876       5.76359133      68.50187102       0.21198863      -0.23184363      -0.11314974
Na      23.14809476       0.40674705      72.83324662      -0.39862768      -0.57147083       0.30030469
Na      19.28435144       2.78495482      74.48565611      -0.22966678       0.52279333      -1.46256280
Na      19.36775673      -0.66673240      80.56807767       0.13686654       0.21751086       1.01585851
Na      20.93606820       1.81378225      82.95027259       0.24686094      -0.74139257       0.36467770
Na      19.47819968       0.29543765      85.82947157       1.59871545      -2.05069399       0.35708640
Na      21.75197292       1.81192191      87.81832711       0.54477488      -0.61302283       1.28070943
Na      19.84320772      -0.33972371      90.66495524       0.10684669       1.31742738       0.38891057
Na      22.35797234       1.94039249      92.41916072      -0.54527602       0.20489053      -1.60591042
Na      19.96074091      -0.25380542      94.46453671       1.05816357       0.05264883      -0.05610146
Na      22.30554998       1.69295791      96.49935548      -0.80694405      -1.89070903       0.66595175
Na      22.21168922       9.29530497      72.01831872      -0.56148956       0.36297336       0.54432790
Na      23.29977447       2.29204084      76.05092983       0.09416093      -0.50003966      -0.61140601
Na      21.70088983       5.05078643      73.68264811      -0.72875641      -1.09784338      -0.07240829
Na      23.37787138       7.72889357      80.89750958      -0.70414772      -0.18758618      -0.18749702
Na      23.36469169       4.94421227      78.08356649      -1.30925168      -0.22390140       0.55135160
Na      21.77946777       6.59908967      83.79044513       0.26513147       0.72223378       0.77794267
Na      19.98436242       4.19991661      85.42662521       0.68898012      -0.19127219      -0.41640110
Na      21.97604124       5.83717114      87.91670838      -1.11212493       0.05422272       1.30437701
Na      20.08653051       3.60242464      90.25004616      -0.11687612      -1.31121612       0.29863483
Na      22.18705402       6.09438033      92.17626922       1.43175002      -0.54744293       0.39591056
Na      20.20525102       4.10924536      94.62049475       0.19398000      -0.17863387       0.86188107
Na      22.37348458       5.95774234      96.65759699       0.70545734      -0.05503751      -1.08885697
Na      20.91709583      11.98736113      69.42706806       0.29779974       1.29257219      -0.25198036
Na      21.84348840       6.90308227      76.00890895      -0.55213582       0.45020919      -0.41665346
Na      19.43437902       8.78103140      74.97979533      -0.44226954       0.69260039       0.81647320
Na      20.53195808      11.19264126      79.66224004      -1.60111881      -0.80600972      -0.33501930
Na      19.53581954       7.58305197      79.53685076      -0.27181996      -0.67685574       0.96333696
Na      21.47019925       9.75711103      82.70927781      -0.51280867      -1.21812196      -0.03633113
Na      19.91532318       8.15658659      85.79933827       0.42544177       0.93154387      -0.18832383
Na      22.75691198      10.48958830      88.42550440      -0.32442620      -0.55686951      -1.09623753
Na      20.35550763       7.87543589      89.91877549      -0.37697601      -1.45052224       0.21300539
Na      22.14495615       9.77724931      92.22903626       0.32613641      -0.90979440      -1.65931826
Na      20.23132027       7.91551294      94.82797576      -2.32313346       0.15913172      -1.75790465
Na      23.08728047       9.62435813      97.04239650      -1.23554624       0.04531722       0.30452034
Na      20.54624739      11.49594304      73.45285661      -0.11105481      -0.33311815       0.08051490
Na      22.23494053      12.53994210      75.81542466       0.86111208       0.17404656      -0.76451576
Na      19.57389410      13.36567404      77.39500264       0.39745275       0.75071859      -0.69792958
Na      25.15481340      17.01102395      77.91568817       0.55013010      -0.07053398      -0.96692343
Na      20.35216884      13.40963876      82.91184438      -0.37427989      -0.26944083       0.10910497
Na      24.08056732      15.92133137      81.98728245       0.52347578       0.05482406       0.05741873
Na      19.92140906      11.72232092      85.37105153       0.43684158       0.23633168      -0.43045060
Na      21.63267215      13.93038938      87.85639052      -0.35134970      -0.61667282       1.11481528
Na      20.49213435      12.35811394      90.86089848       0.36845908       0.02831635       0.70660281
Na      23.01410064      14.30020550      93.40820273       0.89610274      -0.21197415      -0.25757582
Na      20.61658367      11.99201788      94.72203607      -0.11435191       0.16202855       0.40992942
Na      22.32705311      13.84730967      97.57996455       1.17579526       0.40410344       0.37407151
Na      22.16333585      14.41847221      72.73680094       0.07163556       1.38186673       0.19435154
Na      20.50392766      16.26511455      75.61120916      -0.21513981      -2.35430098      -0.33554602
Na      19.15027210      18.77987501      74.18145388      -0.70415957       1.14841259      -1.77852702
Na      20.18695842      19.32040664      77.35528892       0.79218971       0.34911677      -0.30721579
Na      20.03850064      16.18465509      81.22276556      -0.22617396      -0.51957553       0.57980921
Na      21.92951014      18.41134454      83.64530804      -0.72672640       0.14837855       1.60932669
Na      19.20213482      15.32940254      85.17850137       0.09873118      -0.12421054      -0.32764717
Na      22.08935667      18.25973816      87.46835396      -0.78444106      -0.70773412       0.75027048
Na      20.42768236      15.61486546      91.34235899       1.21969288      -1.08787163      -1.84538636
Na      22.59680350      18.01481954      92.58373016      -0.45367864      -1.88973323      -0.43359837
Na      20.99289670      16.16419328      95.16420166       0.10808551      -1.01536399      -0.13809296
Na      22.44566394      18.64688820      97.56810794       0.28628305       0.85403191       0.26538141
Na      23.93524717      16.08885911      74.78218886       0.88825574       0.67981707       0.22518907
Na      24.24262994      24.26927898      74.82898716       0.26659822       0.59443893       0.67872470
Na      22.02272755      22.44799835      76.23540010       0.14559441       0.36755846       0.93504089
Na      21.78181411      21.98095641      79.65126829       1.16261896       0.50355041      -1.15274235
Na      19.92063796      20.11313790      81.32200745       0.74566161       0.21693387      -0.03944033
Na      21.63615709      22.18985514      83.69425333      -0.38453128       0.29958581       0.90552754
Na      20.08357993      20.54574323      86.34322249      -1.28092324      -0.55244031       0.41901148
Na      22.14206243      22.81116441      88.02441789       0.69548677      -1.64749307      -0.37528228
Na      20.20327781      20.67006123      90.30063966       0.23671147       0.63398619       0.29536251
Na      22.53018093      22.39012290      92.33505064      -0.64330099       0.26266721       0.80472939
Na      20.25791369      20.97566368      95.05298492       1.25150750      -1.03773749       0.16908117
Na      22.09537864      22.63584579      97.20041211       0.00726579      -1.72249858      -0.11534449
Na      23.45667874      22.38791263      70.24387643       0.48182004      -0.29571972      -1.16313848
Na      23.14687256      27.63252796      75.65629057      -0.61049929       0.90384237       1.48396039
Na      20.20269653      26.71639203      73.77973696      -0.23294617       0.09954756      -1.27684765
Na      21.44642661      25.52059126      78.10419387      -1.28814546      -0.85417221      -0.04891799
Na      18.63611806      22.80621209      79.05081457      -0.98726355      -0.39160242      -0.71714459
Na      20.46663924      24.89696814      81.27695748      -0.14587265       0.44739428       0.42123158
Na      19.75403543      24.15972989      85.75479007       0.01666803       0.09975373      -0.78012955
Na      21.61565600      26.49407341      88.01333762      -1.67116288      -0.33617957      -1.11661389
Na      19.88988741      24.85018986      90.57228655      -1.02572176      -0.11270047      -0.78080875
Na      22.16039125      26.77561102      92.58736978      -0.71405502      -0.90025962       0.26049816
Na      20.25170218      24.63722598      94.65926900      -1.35054215      -0.30946770      -1.07429258
Na      22.41124679      26.31363916      97.01307292      -0.23680797      -0.80674602      -1.49063876
Na      27.48932273       1.22218715      73.63462181       0.56088454      -0.72738449      -0.65362465
Na      25.45303783       2.61843165      79.81014923      -1.11689316      -0.05082440      -0.76077773
Na      25.74369151       0.45802670      77.27912156       0.10036804      -0.71881789       0.28677629
Na      21.94100753       1.26691908      79.13959503      -0.52322613       0.67896376      -0.22633462
Na      21.70219557      -2.52936990      84.03712034       1.17714114       0.58052404       0.93719173
Na      25.99448500       1.59748101      82.82356126      -0.37885941       0.37683122       0.99387986
Na      23.68019503      -0.40036729      85.51958193       0.37897461       0.39573023       0.67178072
Na      26.15812324       2.31017688      87.37309133      -0.14749519       0.20458768      -0.34975855
Na      24.01321262      -0.12284000      89.84775347       0.57813652       0.01262201      -1.34870590
Na      26.14625627       1.80175811      92.76758438       1.00491922      -0.08893440      -0.46858358
Na      23.98731395       0.04461434      94.74826530      -0.76136783       0.88137174      -0.11763645
Na      26.47992704       2.05547056      96.43248805      -1.10821965       0.34144749       0.54073471
Na      23.56283462       4.41865214      71.17753397      -1.83961231       0.48811229       0.58005784
Na      24.71433668       2.97295558      73.46176961       1.21255804      -1.37562694      -1.00939844
Na      26.15349988       3.52363185      76.09896749       0.53291628      -0.32794549      -0.32776754
Na      26.06816908       5.94149786      78.64123357       0.38498581      -0.49042529       0.90009076
Na      23.18626951       4.13844528      81.59002558      -1.23930910       0.61857093      -0.65187056
Na      25.69914643       6.35068994      83.29480120       0.99656376       1.61574465      -0.83039949
Na      23.70989236       3.94195237      85.28452047       1.79232602      -0.82837734      -0.38039872
Na      26.23609194       5.84547685      87.10513991       0.77138688       1.28630574      -0.19446631
Na      24.52322484       3.79156453      90.18643405      -0.09950093       0.99328235       0.23231214
Na      26.50618494       5.69462697      92.42721081      -0.15035595       0.35652055      -0.52740156
Na      23.86637643       3.91682553      94.66871060       1.05501201      -0.22823779      -0.17483181
Na      26.35488414       5.72097867      97.20779251       1.11503655       1.09677026      -0.23510245
Na      23.62321632       7.37611740      73.69215790       0.17923370       0.58181453      -1.30939463
Na      28.09975377       8.99353683      74.90000201       0.07671092       0.88405693      -1.45169787
Na      22.09064251       9.82951308      77.26143051       0.70469315       0.36154058      -1.79383574
Na      28.65751229       9.20972572      78.14195357      -0.49772138       0.61866031      -0.39948253
Na      24.96501257      10.24722213      78.87416596      -0.86440363      -0.31083134      -0.56185307
Na      25.48395522      10.48658454      82.89163693       1.64992427       1.10393509       0.51829944
Na      23.95654770       8.28907133      85.65043928      -1.00254214      -0.32579359      -0.77092860
Na      26.22969478      10.21157774      87.51108921      -0.20903094       1.32021551      -0.48413217
Na      24.55156669       7.55514090      89.85626011       0.16190980       0.31671491       0.33389646
Na      26.41851527       9.74656645      92.06680392       0.62262095       0.24101238      -0.97022709
Na      24.42570578       8.10838653      94.57057024       0.93124432       0.31899341      -0.41596730
Na      26.77668869      10.12136457      97.34987436       0.58696372      -1.55964490       0.07224329
Na      24.80270831      10.57318656      74.44276201       0.83210920       0.17688337      -1.09733344
Na      25.49414880       7.80926087      76.20832849      -1.44496749      -0.45720220       0.31397881
Na      25.10697473      13.11937601      77.06124093      -0.05126587       1.03214143       0.66998874
Na      26.51330716      13.59820636      80.08664322      -1.29800490       0.48828039      -0.04137065
Na      23.40682219      12.33685703      80.98912846      -0.44890037       0.84060117      -1.30082999
Na      26.32492027      13.51120373      84.13776110       0.38498566      -0.08909741      -0.50878644
Na      23.05278854      12.57345345      84.65949768       0.02967760       0.22653024       1.34465567
Na      26.22551078      13.39746103      87.72644056       0.52068273      -1.26972238       0.63098798
Na      24.47334951      12.48674738      90.65756776       0.26753324      -1.16621975       0.25481185
Na      26.67069840      14.67614622      93.09119923       0.97696119       1.33939687      -0.04898624
Na      24.82340419      11.71630748      94.60544615      -0.18227591      -0.59738587      -0.56151749
Na      26.64454515      13.86443186      97.09344390      -1.10912303       0.29435085      -0.62363980
Na      25.81887775      14.90781686      71.95753791      -1.18021819      -0.05233312       0.32557851
Na      28.70991905      18.00668814      74.86310576       0.53669843       0.51469679       0.91149927
Na      26.60724313      14.82552624      75.23968712       0.52802332       0.67231318      -1.60273323
Na      27.02745728      20.82352451      78.94968389      -0.28997036       0.51150240       0.01035994
Na      27.17081407      17.93097891      80.70363441      -0.31582092       1.06417339      -0.81179294
Na      26.03500092      17.51233651      83.99490124       0.39957171       0.50239165      -0.15960828
Na      23.22184286      15.74203777      85.11538886       0.38866825      -0.31613264       0.48286329
Na      25.96461964      17.13951962      87.74094724       1.29681052       0.32633537       0.30960298
Na      24.32355703      15.97041485      90.25093375      -0.44623726      -0.43638219       0.58410148
Na      26.93617601      18.13778567      92.59456133      -0.90982301      -0.93907371       0.73505321
Na      24.83553944      16.84660755      95.05965227       0.35071895      -1.72473649      -0.23854523
Na      25.74817709      18.60256983      97.57588534       1.75167083      -0.21134652      -0.62556001
Na      23.73006508      19.95264689      77.59432144      -0.21030019       0.11244765       0.92189281
Na      29.91048291      20.40634098      77.01182192       0.88961832      -0.13526120       0.55276675
Na      28.00564784      24.77621458      76.54117618       0.90099540      -0.91935565       1.65351014
Na      24.26413575      20.98845682      82.07228216       0.35218535       0.08460409      -0.67134164
Na      22.49060674      18.19312177      80.00256074       0.43408495      -0.35440492      -0.88975951
Na      26.35908281      22.58994635      84.36641367       0.38873100       0.40082981       0.36842043
Na      24.31163992      20.35204444      86.16427507       1.25134051      -1.32504398       0.31640495
Na      26.60361950      22.29305179      88.11022205      -0.09184708      -1.16632309      -0.18082615
Na      24.15602860      19.59447805      89.96665594      -1.16839788       0.27551549      -0.70510781
Na      26.19173816      22.32924491      92.15200369       0.61568128       0.18851830       0.75737961
Na      24.21711049      20.46955289      94.62206592       0.10461998      -1.18453368       0.31862316
Na      25.91540296      22.87557118      96.76755410       0.38600095       0.71347708      -0.52644646
Na      27.99951085      24.35098972      72.06184640       0.48352381      -0.00207028      -0.98406527
Na      25.69939606      21.66877637      72.89603363       0.43969436      -0.66699882       0.08686601
Na      25.02540034      23.56237164      77.80001707       0.50416474       0.20175629       1.66454504
Na      24.36168299      27.11400347      79.25495567       0.43627833       1.71055748       0.41826493
Na      23.79527513      24.29304099      82.02308474       0.41923116      -0.82766904      -0.24730231
Na      26.19940501      26.35202450      83.49843373      -0.01447129       0.00563603       0.26795943
Na      24.16655974      24.56943558      85.28413788       0.07683145       0.26133411       0.17965531
Na      26.32930087      26.88596650      87.90076493      -1.41817590      -0.23832213      -1.28140596
Na      23.93624897      24.48081594      90.15613291       0.72760572       1.34872212      -0.99544116
Na      26.21633810      26.49868684      92.23853582      -0.65904215      -0.79786567      -0.27125792
Na      24.13793199      24.46913296      94.60885269       0.80853971      -0.36551287       0.49393334
Na      26.99371248      27.00677997      96.48454671       0.45175579       0.20738460      -1.57798472
