2712
Lattice="28.6612 0.0 0.0 0.0 28.6612 0.0 0.0 0.0 100.8156" Properties=species:S:1:pos:R:3:momenta:R:3 md_step=5950 tag=warning warn_pairs="[('S-S', 1686, 1690, 1.7159670628895254), ('S-S', 1690, 1686, 1.7159670628895254), ('S-Sb', 1686, 1731, 1.9734210175030205), ('S-Sb', 1731, 1686, 1.9734210175030205), ('S-Sb', 1687, 1731, 1.9932038472742377)]" pbc="T T T"
Na       0.24745743      -0.17237680      -2.12038423       0.11714699       0.69725336       0.34770157
Na       2.46588501       1.67409824       0.46680250       0.19019728       0.11140825       0.60767486
Na       0.65219953      -0.20114437       3.05755003      -0.35966924      -1.14900479       1.53195032
Na       2.10063760       1.71641592       5.18372756      -1.18919559      -0.22375133       1.14301525
Na      -0.08291994      -0.06765045       6.70912464       0.73204428       1.03892660      -0.12882024
Na       1.85921673       1.64770462       9.21165926       0.62260492       0.68139295       0.19278061
Na      -0.00457826      -0.10334631      11.77042993      -0.68987634       1.93260454      -0.64674483
Na       2.09231748       2.81284410      13.08545323      -0.11010516      -0.32612977      -0.79002752
Na       0.63904748       1.12947475      15.72756584       0.95766114      -0.34202118       1.01558067
Na       0.09981635       0.68359251      21.80665709       0.12599584      -1.59930273       0.81942351
Na       2.74445052       0.43882130      20.54541708      -0.10186254       0.04318307       2.01493816
Na       3.10885713      -0.65948269      27.51565873      -0.63843047       0.56882376      -0.30534158
Na      -0.08244895       3.57472260      -2.12677003      -1.17571885      -1.59561804       1.17241951
Na       1.98152184       6.22199119       0.31538801       0.19333274       1.26954040      -0.71259975
Na       0.11097669       4.45308227       2.65673139       0.78054746      -1.11478932      -0.87537638
Na       2.17239954       5.59913009       4.94465278      -0.07076640      -0.63358194      -0.55937524
Na      -0.09758309       3.76596883       7.14301922      -0.37088583       0.54749017       0.83969359
Na       2.46624541       5.96920404       8.90565198       0.95112016      -0.87943389       0.39216265
Na      -0.01337583       4.37520951      10.97806889      -0.06743088       0.08052796      -0.94951500
Na       2.71310821       6.24234674      14.09993644       2.44864381       0.65238975       0.01667452
Na       0.00654975       4.69772914      16.16653938       0.01703238       0.16685335      -1.16409912
Na       2.70452316       6.63886217      18.78627579       0.06062820      -0.01491321       0.38174326
Na       3.75807683       6.04663139      25.48272407       0.00437582      -0.48970806      -0.40787690
Na       3.94605874       2.27014898      25.84591583       0.12700858      -1.17555939      -0.24083504
Na      -0.03585775       7.82458378      -1.85980196      -0.32335146      -1.59324835      -0.45391558
Na       2.43039279       9.90929861       0.23991126       1.05973953       0.01841024       0.26207456
Na       0.13322448       8.16240740       2.46912230      -0.41464253       0.15952564       0.50545706
Na       1.98951680       9.97339277       4.35475828      -0.15700973      -0.45418745      -1.19505720
Na      -0.01743482       8.19708144       6.78110260       0.44673846       0.21349040       0.21973708
Na       2.10789128      10.06095905       9.77468664       0.13237390       0.47205353       0.77573556
Na       0.45526096       7.41193334      11.79875583      -0.63586801       0.55729882       0.43958453
Na       2.43621958      10.06189526      13.39907802       1.36834602      -1.90147305       0.03598137
Na       0.20947746       7.87978821      16.53645838      -0.02756398      -0.41448185       0.71725655
Na       1.62691505      10.24952359      18.22255189       0.50733376      -0.97911835       0.06585619
Na      -3.50227882       8.12574548      16.24738320       0.59178060      -0.36219954      -0.77159236
Na       5.95303011       7.21137645      23.93116668       1.04641819       0.29656985      -0.29595526
Na       0.34221490      12.38969521      -1.93870351       0.91460251       0.12796863       0.03818253
Na       2.72339360      14.10940077       0.37409178       0.34998167       0.42987376      -1.38782018
Na      -0.06837085      12.27666040       2.50518208      -0.39034244       0.84226913       0.63457673
Na       2.36919659      14.29074657       4.87600854       1.06983970      -0.09181936       0.72252713
Na      -0.25756068      12.46592109       7.33232937      -0.30918545       0.56178046      -1.14214704
Na       1.65300769      14.75508750       9.19393315       1.00303089       1.05102507      -0.58541956
Na      -0.40153262      12.70416852      11.71191833       0.15101409      -0.66571867       1.42277909
Na       2.09858306      14.15671869      13.64446377      -0.21231783      -0.51521830       0.72778132
Na       0.15211266      11.84305976      15.26040295      -0.52477634       0.50823343       0.45256852
Na       1.68987668      14.25604031      18.04676077      -1.16204984       1.10326592      -1.40448107
Na       1.97528930      14.90527159      22.19705212       0.01747809       0.16597118      -0.77196167
Na       6.05925225      15.29067559      29.40892225      -0.42765097      -1.03269820       0.71581842
Na       0.58175733      16.55530685      -1.45906309       2.05264726       0.32696652       0.12435444
Na       2.36227295      18.87256837       0.92792750       0.75285456       0.68193161      -0.81654923
Na       0.28614217      16.48624342       2.69595718      -0.15643039      -0.65221189      -0.02489242
Na       2.24054856      18.56895488       4.96581328      -0.22476169      -0.03178932      -0.88459543
Na       0.15893889      16.11511712       6.66594485       0.13760775       0.47737207      -0.20168043
Na       2.19110071      18.23902522       9.07798022      -0.35288758      -0.92285596      -1.46127102
Na       0.08816903      16.21904724      11.80648243       0.34341658      -1.86290300      -0.91159318
Na       1.81375584      19.24922824      13.92532528       0.67682160      -0.27303572       0.46590937
Na       0.13036611      16.37083579      15.53174665      -0.35927267       0.11689202      -0.19605889
Na       2.42547280      18.55964541      18.33175425      -1.05258612       0.97681353      -1.30178121
Na       3.10414991      18.12366810      26.72262232       0.96383728       0.61130700       0.55095703
Na       5.90091170      19.36969005      25.81130356      -0.07631421      -0.43150433      -0.62473626
Na      -0.17939129      20.65034878      -1.76126022       0.23124079      -0.01685759      -0.83993235
Na       2.43472953      22.54930814       0.57500429       0.24525978       0.63707113       0.04805199
Na       0.17762890      20.95884935       2.34328096       1.47005265       1.38494930      -0.35046869
Na       2.00068916      22.26750817       5.23836976      -1.69542425      -0.57441274      -0.15866743
Na      -0.19410058      20.56348343       7.50889349       0.34681403      -0.56189914       0.03892775
Na       2.13788829      22.94910702       9.47464886      -0.03389768       0.26813366      -0.28245467
Na       0.08177096      21.12695508      11.47095412       0.07670528       0.69272790      -0.18804941
Na       2.18237931      22.77712749      13.66703717      -0.67219878      -0.28390153       0.86662251
Na      -0.11613306      20.04523567      16.81966820      -0.61411045      -0.48540753      -0.59719106
Na       3.76970412      22.49653679      19.59226470      -1.06999229       0.64437379      -0.23496145
Na       0.62599430      21.86730737      27.16378165      -1.23983813      -0.36912407      -0.54941510
Na       3.11913840      25.93181501      23.05559579       1.20568241      -0.31001680      -0.21326033
Na      -0.31906632      24.79887107      -1.16241173       0.12987345      -0.70148962       0.25722107
Na       2.64368942      26.82484101       0.48786206      -0.28756668      -0.12084294       0.27621120
Na       0.00340413      24.58562346       2.79686071       0.41076641      -0.11663568      -0.84164686
Na       2.43350252      26.18706776       5.13998826      -0.68546103      -0.54607371      -0.35335921
Na      -0.34950897      24.75703823       6.77815623      -0.33061148       0.51560243       0.12871930
Na       1.65242114      26.49533994       9.08627959      -0.23433718       0.19853595      -0.49875369
Na       0.35836310      24.66384532      11.65277355      -0.58671661       0.02897563      -1.39088399
Na       2.36845944      26.69758027      14.31214991       0.69674692       0.15205983      -1.03186690
Na       1.24682701      23.55329962      17.06843467      -1.08805782      -0.20056916       1.00127103
Na       3.47018188      25.89931358      19.63566685       0.40175260       1.71448522       0.92729316
Na       0.57752737      24.28856465      20.86680788       0.15124404      -0.30124799       0.40479439
Na       0.81842523      29.08573060      25.08728832       0.28534364      -0.42873494      -0.67277633
Na       4.61271567       0.14348064      -1.89957721       0.48974958       1.68762261      -0.24532191
Na       6.79633992       1.89301391       0.54190676      -0.58203790       2.21567042      -0.66830206
Na       4.56908585      -0.55012726       2.85158186      -0.40350825       0.65635492       0.19489264
Na       6.47676696       1.69816138       4.98887561      -0.61327771      -0.59852006      -0.53647813
Na       4.17723369      -0.44772067       7.36925605      -1.24379191      -0.51228011      -0.93815956
Na       6.64525408       1.74643269       9.22019477       0.30480396      -0.34950696      -0.87842661
Na       3.88896037       0.00320484      11.10693644       0.64966073      -0.05482808      -1.22008725
Na       5.75955336       1.82885673      13.59878463      -1.48721619      -0.54482931       0.46852104
Na       4.54729309       0.14182422      16.50658339       0.45978727      -0.41833711      -0.06528504
Na       5.69901765       3.07703325      19.18315486      -0.11658825      -0.35616902      -0.46716900
Na       3.92673529       3.49616933      22.63459361      -0.11067140       1.80006668      -0.37374982
Na       4.19641297      -0.02338610      23.52083456       0.54265574       0.22517956       0.48273042
Na       4.31006689       4.19422634      -1.86085528       0.54139150      -0.99205346       0.99473045
Na       5.44517481       6.22728117       0.80737458       0.25709320      -0.67297193      -0.56917374
Na       4.19337268       3.64443779       2.51273684       0.89509521       0.16875774       0.15021532
Na       6.68904677       6.12090310       5.13386528      -0.21064093      -0.76643190      -0.16034047
Na       4.42256008       4.05780605       7.11073698       0.53711916       0.14623934       0.78297298
Na       6.37640471       6.43382733       8.57233579      -0.57878799      -0.93537902      -0.29196621
Na       4.74247835       4.04337951      10.96196860       0.52996160      -0.56756545      -0.07083868
Na       6.01182513       6.27835058      13.46527748      -0.32424794       0.25283239      -1.10613308
Na       3.92348929       4.18024895      16.62634749       0.44758495      -0.02726578       0.64508170
Na       6.50359512       6.58944032      18.24227902       0.55291066       0.59779716      -0.95839111
Na       7.08642503       1.93136314      24.69339081       0.77286460      -0.84980123       0.24204407
Na       7.49936506       4.44110134      26.62078245      -0.75170400      -0.23624060       0.47127738
Na       4.19433873       7.68992866      -1.98538172       0.02866988      -0.75835930       0.33466718
Na       6.11067597       9.84646035       0.87638169       0.04863517       0.37666309       0.75551781
Na       4.13773356       8.06624195       3.23172006      -0.34741081      -0.38333150      -0.70688112
Na       6.55140785      10.09818317       4.90179390       0.52783427      -0.27885312       0.69630888
Na       3.82940336       8.46465987       6.90308049      -0.70141480      -0.47159716       1.59440391
Na       6.25029120      10.14029252       9.27060216      -0.11070262      -0.83048433       0.32612809
Na       4.02063022       7.87437405      11.01304041      -0.11208568       0.12669376       0.87007935
Na       6.06847077       9.96044547      12.94614838      -0.04534465       0.55699465      -0.07356640
Na       4.16112965       8.75489555      15.94874166      -1.41897839       0.28044815       0.28657780
Na       5.60527681      10.76415352      18.56213732       0.03191314       0.49484928       0.07557151
Na       8.87335970       8.85152438      26.57053996      -0.79865263       1.18158803       1.35051973
Na       6.66915999      11.23196102      28.19633983       0.32834327      -0.31801209      -1.26125292
Na       3.88788037      12.12158106      -1.79002313      -0.10712322       0.06278108      -0.97724051
Na       6.53823488      14.05306130       0.14233981      -0.12420111      -0.18620089      -1.15272584
Na       4.31270338      12.22574958       2.45720503       0.71233162       0.43013491       0.20601272
Na       6.21436334      14.02453063       5.22508202       0.53283025      -1.03031765      -0.06159063
Na       3.99043495      12.36549164       7.22021750       0.07989491      -1.27699983      -0.89737024
Na       5.89497790      14.38176455       9.39230630       0.21119847      -0.33159409      -1.32765592
Na       3.72951540      12.62435678      11.03128130      -0.19568093      -0.06761051       0.95914592
Na       5.92474725      14.56564691      13.96664521      -0.17641073       0.95785582      -0.93402925
Na       3.82940870      12.06906788      15.66681828      -0.95599330      -0.09797727      -0.00391263
Na       5.94566395      14.25688461      17.92843932      -0.77744578       1.65462966      -0.50625607
Na       2.76269871      11.36299370      23.17587852      -1.10428644      -0.78967872      -0.07886299
Na       0.54881988      15.24053592      25.83521849      -1.11603347       0.30161842      -0.01018187
Na       4.32603732      16.69965117      -1.85743503      -0.36469108       0.28492585      -1.08813011
Na       6.30015159      18.57750327       0.64477664      -0.15006305      -0.36490366       0.55526048
Na       4.18917171      16.34907490       3.01501182      -0.84451435      -0.55153559      -0.04072029
Na       5.97631674      18.75120582       5.60671661       0.01517193      -0.21015029      -1.40298625
Na       3.84552431      16.48147944       7.03876249      -0.11606267       0.12321581       0.65166565
Na       6.05392033      18.12390454       9.82830686       0.01412346       0.49910654       0.32141803
Na       3.65044959      16.54532724      11.89226571       0.00569907       0.41253474       0.83962640
Na       6.07921899      18.35636577      14.17033199       0.81712356      -0.40616913      -0.40852926
Na       3.73409645      16.32130919      15.72106939      -1.40664852      -1.13010702       0.87696774
Na       5.89880321      18.14054420      17.62705252      -0.74200010      -1.46512591      -0.81694210
Na       3.36141042      20.18418201      23.45630920       0.79047151       0.59787862      -0.62631018
Na      10.92872260      15.65014991      23.59200253      -0.53053713      -0.29256748      -0.61608718
Na       4.16410349      20.60695089      -1.57479500       0.73421023       0.82836214       0.08099771
Na       6.18712840      22.31694890       0.58139468       1.63768963      -0.14665448      -0.24128019
Na       4.42424318      20.50422925       3.11468963       0.89187653      -0.40756538       0.28757306
Na       6.61893815      22.39214512       5.09435874       1.05951454       0.54225397      -0.52868240
Na       4.12019485      20.77450387       7.77383941       0.43276922      -0.75235563      -0.67558135
Na       6.71819140      22.41942978       9.02743531      -0.02581053       0.84910576       0.53546497
Na       4.46546419      21.27315492      11.37581139      -0.99976134      -1.43784578       0.39562568
Na       6.74268704      22.28339433      13.83542165      -0.00058622      -1.22357034       0.67652452
Na       3.92425718      21.08564792      16.02823159      -0.38436698       0.03071370       0.67374403
Na       6.45842008      20.81444248      22.44111456      -0.47787605       0.18314665       0.37379369
Na       0.85583303      21.01712701      20.27036712       0.86585551       0.99248538       1.67775102
Na       8.38979465      17.84372896      24.14477235       2.56480396      -0.83800506      -0.32988270
Na       4.23465772      24.27692914      -1.87535877       0.64128788       0.10795104      -1.48756276
Na       6.16138526      25.99574245      -0.04676794      -1.05281589       0.23407707      -0.22685668
Na       4.49110704      24.46606397       2.95375797       0.78421596      -1.52872849      -0.11955221
Na       6.32634694      26.52403506       5.50151780      -0.65458654      -0.58795621      -0.79250842
Na       4.30056421      24.13043182       7.09615476      -0.55375677      -0.12150155       0.21033297
Na       6.82813405      26.48385289       9.54254396       0.28600531       0.08538281       0.05614911
Na       4.24731973      24.78270121      11.57191190      -0.66985161       0.77690181      -0.25922625
Na       6.42174731      26.78310125      13.84855014      -0.17915234      -0.62045302      -0.68100105
Na       4.83928278      24.40572244      16.24461902       0.50177869      -0.04971901       0.76788145
Na       7.01755715      27.93029292      19.21670567      -0.41782848      -0.33738564       0.60673834
Na       6.30427774      25.12236517      20.92021025       0.17652242      -1.19986742       0.06869611
Na       5.09731059      25.74009576      25.75085177      -0.36366095       0.32541889      -0.57838170
Na       8.63729098      -0.45888421      -1.73805173      -0.50513615       0.48363636      -0.02809367
Na      10.15045790       1.89145741       1.03006723       0.18445902       1.21198200       1.11604491
Na       8.37090591      -0.22518370       2.99319541       0.56264817       0.77039928      -0.18455596
Na      10.46781227       2.22254936       5.01184204      -0.19481634      -1.38919458       0.83189649
Na       8.38707447      -0.31308042       7.23909730      -0.94978562       1.05584807      -0.35753524
Na      10.83483471       2.02739022       8.92329886       0.18319208      -0.90455580       0.26861913
Na       8.59508379       0.45139574      12.03722017      -0.27658466      -0.60135322       0.44951881
Na      10.77421056       2.42629560      14.11177130       0.81856721      -0.22371717       0.23664731
Na       8.29382997      -0.22789876      16.24732833       0.20971217      -0.21320096      -0.29553770
Na       9.06981460       2.16154054      19.11104721       0.92785416      -0.10450030       0.03115421
Na       7.24215077      -1.27887674      23.96290180       0.46266059       0.40230936      -0.22175085
Na       9.84309819      -0.05570097      22.19558731      -0.13061400      -0.86377912       0.60739759
Na       8.27658255       3.82757900      -1.77513156       0.94030571       0.97222173      -0.70473726
Na      10.66848112       6.04472364       0.40943354       0.31389136       0.31699018       1.00900174
Na       8.00516526       4.25636563       2.79187252      -0.40590103      -0.76827345      -0.70673372
Na      10.90253123       6.31525874       5.26288115       0.51710516      -0.87024881       0.71421104
Na       8.41340001       4.14171852       7.36361137      -0.46384340       0.70448460       1.19020487
Na      10.54356104       6.26684728       8.91731985      -0.58722704       0.68912078       0.33199660
Na       8.29826645       4.16318151      11.50315955       1.37264590       0.24426233      -0.63030463
Na      10.40190838       6.10310716      13.91373599       0.01082044      -1.76785626       0.68047351
Na       7.95836720       3.84908926      15.73130105      -0.75263971      -0.60471621      -1.29409948
Na       7.12939410       4.04071777      22.21798123      -0.74533330       0.00255932      -0.59585975
Na      10.23600773       4.55649799      24.12100607       1.10965762      -0.02614853       0.25947579
Na      13.66122987       6.80282294      24.15526907       0.34580846      -0.27075521       0.52097039
Na       8.03756161       7.73364414      -1.04112640       0.47497545       0.41146136      -0.67876642
Na      10.95810055       9.94579234       0.03605247      -0.40720037      -0.47201200      -0.09701804
Na       9.09052700       8.27927553       2.86909748       0.01675383      -0.73050409      -0.04197077
Na      10.63564533      10.13882313       5.51089207       1.44389858       1.24443565       0.20649327
Na       8.32458885       8.81924544       7.12560154      -0.05279018      -0.38858648       0.05701359
Na      10.58281152      10.36168786       9.28754659      -0.53678132       0.08605533       2.34422772
Na       7.88013832       7.59545705      11.09835803       1.49673871       0.60273500       0.48384264
Na       9.95783979       9.80733162      13.41891691      -0.46326950      -0.64865171       0.50965137
Na       8.26019129       8.49590360      15.78931503      -0.66072398       0.23421943       1.60534558
Na       8.92623411      10.08733936      18.97194677       0.55882059       0.85310965      -0.20220203
Na       9.94925758       6.40799032      17.83341780      -0.22338129       1.18140180       1.16850545
Na      13.97781349      14.05920029      21.08884072      -1.20840599       0.34233378      -0.41591324
Na       7.85544745      11.65693100      -1.45748574       1.06993960       0.44449366      -0.05508635
Na      10.61504240      14.22628798       0.28282396      -0.71841365       0.93739964      -0.03185171
Na       8.72101089      12.13571755       2.63886651       0.43291076      -0.21520088      -0.21849541
Na      10.55960067      14.77318254       5.19469721       0.25201930       0.45979227       0.24138610
Na       8.98322659      12.53822144       7.53084395       0.41447383      -0.05203514       1.37938813
Na      10.76329912      14.70367419      10.09588751      -0.56532364       0.91577936       0.77167653
Na       7.64009890      12.18436988      11.65651494      -0.34732039       0.96797667       1.08443373
Na       9.71201289      13.87984276      14.33909566      -0.14211665      -0.23523671      -1.25362087
Na       7.28710320      11.67939782      15.80214599      -1.39807794       0.58915654      -0.30837786
Na       8.97161021      14.18123365      18.03436553      -0.27924104       0.96440761      -0.74241737
Na       5.90957204      13.48484307      24.32817658      -0.42354274       0.37207214       0.45733378
Na       8.54495672      13.88564159      26.61820888      -0.95333522       0.75119578      -0.13832978
Na       7.89149602      16.39013749      -1.66943986       1.36216954      -0.88635183      -0.41288324
Na      10.36869296      18.52458788       0.78768480       1.14951781       1.36650608      -0.69304857
Na       8.02837002      16.29801873       2.72830460       0.67424075       0.00671154       0.27885038
Na      10.16089212      18.23099722       5.04997665      -0.23581366       0.35166063      -0.34825669
Na       7.99740300      16.19577148       7.63399145       1.31924062      -0.54699940       0.56228876
Na      10.49504829      17.80369356       9.35496561       0.81936511      -0.80272455       0.52626149
Na       8.12952923      15.96661774      11.71524541      -1.51408418      -0.46758416       0.12487388
Na      10.14308041      17.83525249      13.35498339      -0.02468906      -0.58915012       0.83649005
Na       8.74565541      16.95083944      16.46385711       0.65558494      -0.38746520      -0.14766651
Na      10.70031266      18.69691740      18.83578161      -0.17998496      -0.69586579       0.90233022
Na       6.13788550      16.02560692      21.98506037       1.10566945       0.38526157      -1.06170547
Na      15.05630904      19.53387690      29.43727721       0.12620097       0.30638655      -0.15848674
Na       8.74931420      20.56859612      -1.30575695      -0.90453692      -1.19796120      -0.07566648
Na      10.39128819      22.34402949       0.66137731       0.73563839      -0.57575933       0.96820921
Na       8.00357462      20.46502602       2.74178872      -0.42037216       0.35192455      -0.19290268
Na      10.27881093      22.05590263       5.27949821      -0.24445940      -0.26590124      -0.14435173
Na       8.70708705      20.18392958       7.34463884       1.14431343       0.88297429      -0.74698247
Na      10.62798732      22.55212549       9.61372512       0.21245686       1.51182899       0.65067971
Na       8.76821463      20.38324490      11.15742068       0.94746052      -0.14627201      -0.87690447
Na      10.71190071      22.15607381      14.03641032       0.47822674       0.02863009      -0.34447054
Na       6.47554515      21.82886155      18.22306645      -1.55766529      -1.27522905       0.68242465
Na       8.75679143      20.24597444      15.73420302       0.99879810      -1.15422084       0.38616760
Na      10.50125063      21.51542499      23.97763705       0.94318827       0.48201694      -0.65342054
Na      11.01700303      23.04053988      31.50667089      -0.13227938      -0.54369782      -0.71221041
Na       8.61295564      24.23386443      -1.83547526       0.93932944       0.02209047      -0.60819247
Na      10.49753756      26.26130381       0.32308206       0.46550489      -0.28124323      -0.41507939
Na       8.35678489      24.60034150       2.81568053      -0.63369287       0.09864755       0.42200290
Na      10.45912133      25.98168479       4.94129785      -0.65311228      -0.02741157       0.49223508
Na       8.82301757      24.51253045       7.34029028       0.00136723       0.34081093       0.26865419
Na      10.68974748      26.75894205       9.45411808       0.29352271      -0.30371831      -0.07728244
Na       8.59392505      24.61015069      12.04334406      -1.10055132       0.48715623      -0.87832916
Na      10.62778154      26.63953107      14.04173212       0.27651137      -0.75902005       0.69465573
Na       8.61852762      24.28012501      16.07967748       0.11370272       0.88240582       0.67381419
Na      10.94874295      26.29769477      18.06094544      -0.49823462       0.48423198       0.92208615
Na       9.49070842      24.99076186      23.81471603       1.10715681      -0.21244723      -0.11048800
Na      11.26914116      29.98250932      24.71128799      -0.09894230      -1.46834050      -0.38897301
Na      12.55772504      -0.48462946      -1.52660994       0.06436832       0.36721058       0.56877916
Na      14.29968963       2.31198836       0.10815258       0.16747876      -0.20993087      -0.48594818
Na      12.49802432       0.08782443       3.09651025      -0.90387112       1.78046262      -0.83447771
Na      14.73045591       2.21800117       5.24058796       0.72193463       0.69937802      -0.85915009
Na      12.31665439      -0.20484826       6.96256244       0.33849098       0.25881144       0.41019071
Na      14.34986602       1.69686697       8.99955400       0.77960533      -1.68985276       0.06923900
Na      12.32578093       0.19311932      11.77880104      -1.36436914      -0.39702978       1.03447477
Na      14.44425897       2.58806694      13.86568190       0.50805214      -1.70551947      -1.07720569
Na      11.94173360       1.01373993      16.65277810       0.11671281      -0.52815919      -1.61654557
Na      15.73339235       2.91982828      19.18407530       0.19238087       0.30832236       0.21610281
Na      13.70710073      -0.22267607      19.31177109      -0.71427429       1.13399807       0.19979570
Na      14.06383225       1.51211740      23.83751882      -0.03918361       0.75821500       1.07814717
Na      12.40521928       3.71631223      -1.75016235      -0.22214098       0.53039934      -0.24762926
Na      14.95619795       5.73683539       0.61143134       0.04939483      -0.23989045       0.11662710
Na      12.44851134       4.10494746       2.55584651       0.23503058      -0.25515577      -0.33096315
Na      14.65296468       5.96133057       4.43932279      -1.84816731      -0.05544795       0.64865909
Na      12.75989545       4.03957883       6.97855167       0.95958194      -1.01402529       0.15805132
Na      14.71580489       5.87392704       9.62274025       0.37405270      -0.14420688      -1.28653028
Na      12.51630108       3.81792131      11.36520678      -0.67505683      -0.16671448       0.17005783
Na      14.37397302       6.54651869      13.80630703       0.62745159      -0.21119739       0.18872411
Na      13.31424040       4.49450605      16.75124310      -0.06224119      -0.30593589      -1.03284174
Na      15.34548068       6.26954621      19.88984794      -1.07566628      -0.71928863      -0.79858459
Na      12.19772161       3.22982820      21.27710130      -0.26190046      -0.26678894       0.04474474
Na      12.42447671       6.99473525      27.42801567       0.40283290       0.06149628       0.51289744
Na      13.13470676       7.77470948      -1.78506857      -0.08926006       0.02067880       0.30711005
Na      14.75451919      10.12658715       0.49275406      -0.87855758      -0.42907877       0.91554375
Na      12.36326169       8.05721306       2.82971676      -0.42971607      -0.22910797       0.22811514
Na      14.50985204      10.04854533       5.08539710      -0.32904325       1.38143430      -0.96057304
Na      12.46967826       8.41168729       7.65157688      -0.54516833       0.04521115      -0.00885486
Na      15.04001387      10.37155246       9.33405194       0.10795983      -0.04022943      -0.65404770
Na      12.49303880       8.18290231      11.31605238       0.74319861       0.88178751      -0.32691842
Na      15.08728732      10.08521781      14.79240823       0.23782966      -1.03460820       0.31700630
Na      12.25797510       8.12755654      15.71172889      -0.67632232      -0.12408475      -0.01748712
Na      13.59430887       8.79120261      18.79125017       0.36215832      -0.36500619       0.36529874
Na       9.91028144      12.75012059      23.74761231      -1.01299323      -0.16498867       0.25844806
Na      16.39319523      11.27522241      24.52804411      -0.88429530      -0.04198943       0.42984168
Na      12.35304050      12.08016067      -2.29907898      -0.94667138      -0.51989499       0.02253441
Na      14.27214615      13.66667408      -0.08721760       0.10162827       1.08230772      -0.48783844
Na      12.63894537      12.11174184       2.83504734       1.34756062       0.31170337       0.02842376
Na      14.72640200      14.66190178       4.87074901      -1.13574805      -0.11626620      -0.39362488
Na      12.69501718      12.55500693       7.37694092       1.26551498      -0.04466918      -0.31764623
Na      15.05312857      14.47963367       9.85541552       0.58401805      -0.15428768      -0.53552086
Na      12.33160164      12.16423433      11.80857738       0.75131227       0.07810066       1.45017239
Na      14.56795993      13.87604454      14.14718610      -2.31628848      -0.22985405       0.80579891
Na      11.76177710      11.88421739      16.64221202       0.07084395      -0.47526894       0.11724978
Na      15.14858665      12.80048841      17.61877770       0.85433548      -0.32701540      -0.15966425
Na      14.48402418      14.25642807      24.63675267       0.85928328       0.60994222       0.98397011
Na      17.77703222      12.79734716      26.88806851      -0.94985659       0.48812596       0.05373826
Na      12.01818636      16.76627359      -1.61901931       0.14118374       0.73554588      -1.67681695
Na      14.31097443      18.54742755       0.33972229       0.65452628       0.86506807      -0.58356982
Na      12.79093534      16.26305293       2.13800472       0.41801267       0.01673862      -1.50768895
Na      15.32544921      18.19312125       5.43156226      -0.25614044      -1.26307127       0.24863751
Na      12.87727011      16.25110076       7.19186627       0.30788501      -0.96983509      -0.73911150
Na      14.66737731      18.16596735       9.70288891       0.20642075       1.74102256      -1.54929961
Na      12.97165559      16.54345006      11.88576197      -1.14199398       0.12079492      -0.44653718
Na      15.59811189      17.83361703      14.93149528      -0.76153161       0.39934863       0.03898730
Na      12.57189368      15.71579667      16.12676066       0.53566090      -0.93388609      -0.55637169
Na      13.70372344      21.24694920      18.77781297       0.23680382       0.74724163      -0.31927060
Na      14.37842409      17.12539176      18.58566404       0.20704024      -0.91262963       2.00913460
Na      14.96075118      18.53758306      24.93244491       0.58438495      -0.04005358      -0.49969325
Na      12.19883051      20.47551664      -1.88055347       0.38859424      -0.78436131      -1.56707022
Na      14.02281389      22.27232129       0.08090685       0.45130475      -0.04082886      -0.77032623
Na      13.06666311      20.16995446       2.98869699      -0.07502546       0.73027685       0.88981513
Na      14.74624636      22.64201982       5.42348961       0.55667827       0.20746212      -0.44284588
Na      12.67524573      20.07812103       7.44915205      -0.77758736      -0.53942378      -0.81803733
Na      14.29312291      22.60051926       9.50918584      -0.27426353       0.26075973       0.44788236
Na      12.64742641      20.22530819      11.39376506       1.02378344       0.63457918      -0.53214279
Na      14.65359588      22.49272134      13.07635923       1.12801058       0.55088506       1.56264604
Na      12.51725333      19.27990204      15.83409159      -0.56423627       1.51187021       0.08327113
Na      13.44417089      24.45782210      19.83128673       0.21995350       0.81873794       1.50106288
Na      10.61115162      22.26870468      18.49838645       0.75097721      -1.10815029      -0.47854283
Na      15.00187514      22.50376278      25.13674585       0.47487984       0.81912928       1.30676040
Na      12.34165363      24.05250150      -1.84011033       0.29662041       0.28677805       0.34290941
Na      14.14443175      26.11825108       0.59782104      -0.42956109      -1.32141199      -0.17522138
Na      12.59398258      23.78919409       3.03462705       1.29332683      -0.32771488       2.02408442
Na      14.77038438      26.44024199       4.76575630       1.50608791      -1.99163707      -0.10738667
Na      12.61537279      24.36929062       6.89676131      -1.23077222       0.36613050       0.21922444
Na      14.19077855      26.70994266       9.46887607       0.77908323      -0.13239502       0.64886707
Na      12.41098464      24.35065153      11.76710285      -0.27879845       1.10187004       0.65420685
Na      14.23339027      26.85053786      13.73201786       0.58043648       0.39490889      -0.33097262
Na      12.76335828      24.09328204      16.05382473       0.07294838       0.32602193      -1.56094064
Na      18.62565944      30.17340971      19.12093697      -0.92449537       1.33834481       0.00352051
Na      10.42766562      20.89911894      28.21388661      -0.28544050      -0.02770959      -0.09769367
Na      15.99366376      29.38209919      26.27369885       0.94189564       0.57102815      -1.52403935
Na      17.07857952      -0.16305630      -1.89864827       0.26630216      -0.60435231      -0.61481230
Na      18.42250015       1.92582306       1.08199109      -0.30156339      -0.63108581       0.92772691
Na      16.00934362      -0.04483048       2.25241788      -0.83486836      -1.65254479       2.16690439
Na      18.49661488       1.65670007       4.69557351       0.92673568      -0.45490742      -0.36554577
Na      16.62131140      -0.29729690       7.20888027      -0.24400663       0.43187338      -0.71518848
Na      18.46130787       1.97532052       9.19242413       1.30279340       1.94641274       1.26579847
Na      17.34160862       0.01046954      11.82895088       0.36933851      -0.16911171       0.25237704
Na      19.06702365       1.93194477      14.20009965       0.21159855       0.58123561      -0.09919202
Na      20.42132828      -1.31872275      22.86972071       0.02361339       0.98436716      -0.68397785
Na      22.59112181      -0.30671045      25.15065230       0.03918586       0.81518157      -0.97109093
Na      16.51304848       0.60067631      21.86584322      -0.82447609      -0.99400697       1.62783644
Na      22.57355263       3.25365652      25.68991503       0.14898399       0.79737853       0.79064561
Na      17.20793637       4.04776210      -1.50287296       1.56796377       1.08607094      -0.05650116
Na      18.76303163       6.35710007       0.56126741      -0.02395894       0.54625081      -0.63560274
Na      16.74523553       4.07667195       2.78775272      -0.01456611       0.05067056       0.27504657
Na      18.37463091       6.00742628       4.95841686       0.43461228       1.07479570      -0.04161890
Na      16.73464209       4.03639659       7.32252609      -0.06705745      -1.45121109       0.11570417
Na      18.63908867       5.84991003       9.76815118       1.08000608       1.02057936      -1.44331465
Na      16.89338936       3.87316110      12.21549338       0.06109211       0.08404204      -1.00624167
Na      18.88964611       6.25899710      14.20550907       1.12355823       0.28226138       0.33901967
Na      16.84599199       3.90429611      15.95363343      -0.72584750       0.14458999       0.74671523
Na      18.71079292       5.01811332      19.33370632       0.55979869       0.46844492      -0.09996563
Na      19.18985497       2.70196989      22.55406301      -1.49863102       0.02140112      -0.59984675
Na      15.13389200       3.99590698      22.16756787      -0.38645718       1.40717202      -0.02906586
Na      16.43250251       7.67691022      -1.78983946       0.13261409       1.63356049       0.04565699
Na      18.62925599      10.29532756       0.67368866       1.42592224      -0.49742248       0.35815606
Na      16.74533951       8.22096089       2.85167050       0.36044508       0.53484071       0.28845379
Na      19.00378519      10.48114186       5.03477038       0.41251517       0.36475638       0.17168875
Na      16.55317452       7.98214602       7.39787269      -0.16684435       0.50462497       0.20486302
Na      18.82642632       9.82276290       9.73617325       0.21293633      -0.62311085      -1.37683862
Na      16.71491393       7.62790707      11.99846296       0.68652770       1.08696452       0.37699985
Na      18.86597641       9.68998378      13.80945572       0.95011369       1.31573192       0.20681061
Na      16.82784876       7.72761645      16.59520540       1.29554672       1.29991242      -0.30285179
Na      17.77049654       8.44508255      20.07724156       0.31444324      -0.11993337      -0.02514908
Na      12.85439144      10.50928177      21.80454335      -0.54161210       0.62460491      -0.22126378
Na      22.88167711       8.44491381      26.49342851       0.80336814       0.75191462       1.02395148
Na      16.38308542      11.79706358      -2.23116113       1.31723578      -0.07083758       0.64963993
Na      18.92598076      13.99181701      -0.13011503       0.42592614       0.64227233       0.23972909
Na      16.05562217      12.42086063       2.71873752      -1.07022763       0.37420329       1.32264862
Na      18.62499935      14.35848730       4.89414801      -1.23130354      -0.18248093       0.28926932
Na      16.86728140      12.38888628       7.57867079       0.70078599       0.19755819       0.39996900
Na      19.14138922      14.29591847       9.76725300      -0.05973765       0.39029836      -0.15621479
Na      16.64543821      12.12935488      12.06262436       0.87721989       1.04885967      -0.32920710
Na      19.31971861      13.34343681      14.39745697      -1.16119009      -0.36327932      -0.03633256
Na      18.80405158      11.05953278      16.84707055       0.57776611      -1.05207105      -0.27838923
Na      19.18457098      13.84821749      18.76591403      -0.58273936      -0.63107026       1.13687919
Na      17.04251309      11.04386555      21.55929126       0.14352828      -0.57384137       0.68890213
Na      19.36842122       7.77788213      27.19668122      -0.97798171       0.89024996       1.18421897
Na      16.01571523      15.94756425      -1.82678087       1.33080738       1.51972822       0.04260481
Na      19.10366194      17.84960784      -0.16340283      -1.70170354      -0.16095846      -0.45912943
Na      17.13625787      16.48344758       2.55182914       0.00298786      -0.70729594      -0.89651210
Na      18.76831349      18.01801971       5.25573173       0.37706822      -0.39042424      -1.00398589
Na      17.09675732      15.99141022       7.60259200      -0.61477184       0.40203192       1.01468864
Na      18.89509482      18.47613054       8.85856977       0.84623204       0.46842643      -0.17580930
Na      16.85102507      15.88590014      12.25784907      -1.18892150       0.19392181       0.17516267
Na      19.10568070      18.52893164      13.90290193       0.79697554       1.00342383       1.22350788
Na      17.39418407      15.67789639      16.74573152       0.20511158       0.83657451      -0.43953247
Na      17.53233805      18.57655486      18.27160188       0.25274650       0.03923616       1.31058528
Na      17.01633122      15.65333080      20.99258803       0.83361818       1.06566373      -0.34140015
Na      20.17656889      11.70881028      26.98899601      -0.24527939       0.85763673      -0.20835565
Na      16.32953830      20.31492000      -1.69953950       0.16926519       0.80997144      -0.24108290
Na      18.70874754      22.12608838       0.44090877      -1.75200243      -0.77927905       0.78135581
Na      16.28344738      20.27772934       2.38847254       0.24993947       2.02281382       1.03112759
Na      18.66121761      22.22558185       4.82973058       0.12685511       1.44467983      -0.01358966
Na      16.80406712      20.76511194       7.22553653       0.55879879       0.20755850      -0.90802265
Na      18.94451778      22.81242329       9.29436876       0.62240586      -0.36632215      -0.71381773
Na      16.84662624      20.74896504      11.65485191      -0.76345333      -0.90633605       0.61215569
Na      19.11092730      22.82052810      14.03246056      -1.22294935       0.15816594      -0.46575278
Na      16.34091807      21.37148802      16.04537975       0.43651352       0.16027443      -0.88044522
Na      20.58011490      24.59449786      16.66928963       1.32249458      -0.48836294      -1.35231230
Na      16.28918705      25.27261777      16.49761148      -0.51525305      -0.05731952      -0.37469522
Na      17.96785303      18.40381902      22.95408923      -0.34107446       0.24830736       0.58429299
Na      16.55169258      24.33764719      -1.61121881       0.81467149       0.07589485      -1.06508945
Na      18.57000072      26.44477711       0.53639463       0.98229845       0.35188282       0.82801754
Na      16.14444619      23.81653313       2.33349430       0.64783014      -0.52209816      -0.57425456
Na      17.83656859      26.27798839       4.64054157       0.47082726       0.23838394      -0.00461147
Na      16.63622778      24.67859702       7.76388457       0.36130917       0.93451987       0.46551140
Na      19.30673999      26.61954491       8.89940952       0.87593246      -0.79302165       0.60219037
Na      16.65670132      24.71964027      11.64277655      -0.96181442      -0.64993730       0.53644441
Na      18.61686899      26.87620670      13.99727013      -0.71030989      -0.92362428       0.49616806
Na      16.36849994      28.98848581      15.89222432       0.03829037       0.10496318      -2.06422797
Na      21.72217048      23.20172148      23.33902085      -0.66521875      -0.66355769      -0.28670213
Na      18.39650617      23.15620502      18.99971951       0.48430975       0.83674697       0.54455034
Na      18.36119577      23.36262490      24.98422509       0.31471979       0.01956874      -1.70467499
Na      20.71912163      -0.25171484      -1.80275046       0.85224435      -1.31920484      -0.40536865
Na      22.35832258       2.27768429       0.40257503      -0.56812506       2.89105829      -0.14820719
Na      20.67680209      -0.14207109       2.82484233      -0.36369230      -0.38013753      -0.09880498
Na      22.24970919       2.08845080       4.57316654      -0.77877428       0.17354890      -0.21107722
Na      20.86882060      -0.09117488       6.78788206       0.59996671       0.11005047      -0.86177551
Na      22.99447532       1.78807412       9.39705579      -1.10415590       0.49910829      -0.23608168
Na      20.77523270      -0.36924605      11.64546576       0.17210108       0.05951004       0.21399846
Na      22.87181423       1.99436370      13.77344791       0.18221071       2.07017910      -0.01220987
Na      21.11200490       0.12980235      16.11554905      -0.57765646      -1.66090706      -1.22818046
Na      20.55867337       3.72022118      16.91170554      -0.96130202       0.88311531      -0.29821448
Na      21.35754533      -0.05927849      27.99651008       1.65184903       1.00038819       0.67642001
Na      23.07866223      -2.51012132      29.08903337      -1.46205679      -0.21124532      -0.88787559
Na      20.64221912       4.38276755      -1.82726382      -0.68532505       0.16300182      -1.77843081
Na      22.98931643       6.43950821       0.27882602       0.14137893      -1.08074231      -0.12508725
Na      20.58740800       4.46688571       2.56053966      -0.58849721       1.26425957       1.27536523
Na      22.64175855       6.17933114       5.39472084       1.13521303      -0.02209710      -0.15102252
Na      20.50020263       4.01162217       6.49562195      -1.23128368      -0.46825650      -1.03863000
Na      22.95012506       6.23906821       9.46293282      -0.31001642       0.25045598       0.47313539
Na      20.67305663       4.09524382      12.18035745      -0.80291475      -1.20444024      -1.65797590
Na      22.80089629       6.17838136      14.37316086       1.05969029      -0.50264216       0.60861825
Na      20.74579100       7.13595304      20.63893287      -0.18916315      -1.50169325      -0.20072072
Na      23.69157245       6.02833378      19.10106129       0.10714228      -1.43627271      -0.00625425
Na      19.27802304       1.27937132      25.19048556       0.91656650       0.30364943       0.16806113
Na      23.98632704       6.15252621      24.50659450       1.65285696       1.32548464      -0.47147720
Na      20.26781176       8.54519144      -1.52604269       0.13326105       2.07181104      -1.04613854
Na      22.43826983      10.30204579       0.62595393      -0.88021302       0.31539399       0.20825074
Na      20.74666642       8.02318819       2.87683923      -1.87815448      -0.64869581      -0.40976248
Na      22.55811843      10.31172565       5.09127495       0.25703174      -0.53071544      -1.07504679
Na      21.17392310       7.79918273       7.84654294      -0.28989950       0.51754825      -1.42156592
Na      23.02196133      10.56323458       9.30486590       0.33408787      -0.60362509       1.91955587
Na      21.33220270       7.64974269      12.01338734      -0.12241241      -1.12576474       0.80596955
Na      22.06928371       9.59112271      15.51288358       0.77475610       0.87011596       0.58009803
Na      19.33222388      13.50041046      22.22239627      -0.57747007      -1.61269166       0.03143845
Na      22.74762995      12.81904433      24.96967993      -0.01602736       0.13274255       0.15461834
Na      21.78092138       8.09072494      23.21615032      -0.24930748      -0.48867196      -0.97190331
Na      24.72631048       9.33640712      22.84566678       0.73120015      -0.03721300       0.04862149
Na      20.30471336      12.03689210      -2.08532888       0.38079620      -1.22131565       0.85513261
Na      22.59575733      14.47283722      -0.04160882      -1.07411150       0.78789046       0.19556300
Na      20.59789365      12.52276658       2.49648647      -0.55918252      -0.00312087       0.33817986
Na      22.26667865      14.08432028       5.00097234      -0.27508189      -1.87184040       0.15999271
Na      20.62892085      12.28126202       7.25248200      -0.66325080       0.34430891      -0.46174219
Na      23.01570867      14.64145703       9.53792195      -2.25748954       1.34248014      -0.35520718
Na      20.87339184      11.91990744      11.51340935      -1.13155118      -0.19507381       0.26578712
Na      22.95188565      14.48898276      13.81622358       0.49319596       0.11814694      -0.32971295
Na      22.46627572      12.90910854      16.75626394       0.08823772       0.53823032       0.75761429
Na      20.82572589      16.17579017      16.12639936       1.50234991      -0.17023565       0.27485863
Na      19.87786975      11.39361147      24.25609807       1.56089225       0.43074104       1.09232602
Na      20.94489881      15.63884889      27.47700785      -0.91727026      -0.67857625      -0.53328192
Na      21.32458454      16.15613205      -2.57123099       0.89341860       0.02433597      -0.10832410
Na      23.00521838      17.69078423       0.31326973      -0.29641233      -0.13904043      -1.12967327
Na      21.11279142      15.94406390       2.79846105       1.30703475       0.63938163      -0.63722232
Na      22.77159255      18.36052988       4.88567767       1.86683654      -0.06124986      -0.93591198
Na      20.73094168      16.21978954       7.08876911      -0.04160064       0.29709456       0.59619161
Na      22.70145989      18.62527864       8.76142069      -0.16496354       0.69826166       1.25169080
Na      20.68913582      16.73538391      11.65071401       0.56947095      -0.81468631      -0.44523820
Na      22.97101304      18.53962542      14.16086584       0.39891078      -0.02354573      -0.37801323
Na      24.67144019      20.19510363      20.16097171       1.10861071       0.66443507       0.37932676
Na      25.79281535      19.23940013      23.66326573       0.01715720       0.03283397       0.20415812
Na      24.75973573      17.70332797      29.12318689       0.17551510      -1.25857029       0.78576256
Na      23.42040505      18.04691455      25.48488008       0.24835630       0.43437003       0.36647257
Na      21.27746148      19.68513916      -2.17604604       0.44406924      -0.69542118      -0.58108987
Na      22.89390357      22.22145660      -0.05726753      -1.17171011       0.70600820      -1.19462515
Na      20.84448902      19.87718697       2.40349784       0.01712361       1.15929587      -0.17266287
Na      23.26648191      22.20694849       4.62744670      -0.20050500      -0.51676423       0.32328039
Na      20.88412348      20.67393858       7.05019075       0.59666987      -1.72437082      -0.33049760
Na      22.66515686      23.04725378       9.35953450       2.23978916      -0.12444350       0.25775169
Na      21.02523911      20.64413183      11.68831718       0.60297176      -0.72407792       1.10199074
Na      22.86912183      22.64828191      14.07300015      -0.20038185       0.07946309      -0.00113239
Na      20.76866259      20.13989732      16.95911058      -0.07214257       0.31380032      -0.58581183
Na      24.76362733      23.84481277      21.55240502      -1.31709979       0.68513180       0.01894455
Na      20.28170503      16.75092891      20.27730746       1.36581904       1.92879785       1.15543493
Na      23.16863523      21.68458084      25.57573550      -0.77991170       0.08706215       0.64404075
Na      20.75960188      24.61937027      -1.92328246      -0.68079328       0.06746434       0.85416019
Na      22.39109691      26.51270300       0.73613528      -0.39204089       1.03696977       1.58562500
Na      20.30592861      24.23462207       3.09645360       1.20959859      -1.03793690      -0.80564704
Na      22.67263036      26.44343730       4.45002807       0.34161627      -0.70187368       0.99708257
Na      20.94573666      24.60372348       6.63875734      -0.34147626      -0.11123733      -0.44803507
Na      23.14657240      26.97149590       9.74987262       0.55385140      -0.42061262       0.72355881
Na      20.95595111      24.92288895      11.39607195       0.62379281      -0.35566996      -0.99513645
Na      22.60366017      26.44937466      14.19472013       0.19293626      -0.16186786       0.71770602
Na      22.02852217      22.34544180      20.01279363       0.17936024      -0.26952030       1.06833167
Na      23.42038392      25.64952211      19.75086957      -0.68227717      -0.25652023       0.82372854
Na      19.99972426      20.27236802      20.72969709       0.48053204      -0.78781588      -0.13346310
Na      20.23365507      20.30001710      24.75166988       1.57045032       0.21175285       0.31876166
Na      24.34903950      -0.20456167      -1.85453194      -0.81382263      -0.69672737       0.86951345
Na      26.68110622       2.23217423       0.52295215      -0.17453407       0.37203660      -0.29720419
Na      24.21620798       0.22565347       2.17392611      -0.97543906      -0.79703348      -2.15093530
Na      26.83577505       1.90693755       4.12151665      -1.00866307       1.24068457      -0.88685074
Na      24.51470088       0.03722275       6.31897967       0.99537697      -1.10389870      -0.49961938
Na      26.40495759       1.49016731       9.42896249       0.46178304      -0.48547445       0.16894620
Na      25.13083891      -0.32243542      12.41911112       0.76888064       1.06769348       0.63554161
Na      26.73774562       2.19504160      13.81230151       0.24218008      -0.19017220       0.53507330
Na      24.54493261      -0.13546080      16.22950468       0.45006660      -0.63654689      -1.07470924
Na      29.05305591      -1.68555684      17.79762222      -0.79645825      -0.93145652       0.61744572
Na      23.47876916       0.78724717      21.97406151      -1.64414638       0.24782490       0.98195104
Na      28.48746403       3.70274462      23.79606981      -0.86185306      -0.04076503       1.12782905
Na      24.60155043       3.78375063      -1.84660955      -0.24689414      -0.26379765       0.37169834
Na      26.42703220       6.13025811       0.87547380      -0.64553944      -0.53400493       0.05155999
Na      24.39225736       4.50854943       2.83280782      -0.87483469      -1.45995906      -0.81938887
Na      26.88620602       6.03359776       4.63675082       0.23653142       0.42987987      -0.08662985
Na      24.92158771       3.53973670       6.41014732       0.85658967       0.37654306       0.87591314
Na      26.30255489       6.33980148       9.51207997      -0.70412265      -0.76227795       0.12207036
Na      24.74129034       3.95560069      11.28352348      -0.62376066      -0.67825473      -0.37408945
Na      26.15709760       6.08984659      13.68710340       0.58530435      -0.15348216      -0.26203291
Na      24.63701512       3.55192338      16.40103082      -0.90749043      -0.42359129      -0.65790636
Na      20.59314038       7.84147093      17.52946554       0.48703694      -0.86528562      -0.78184820
Na      22.31380837       4.46918153      22.40595184       1.30140208      -0.00878601       0.19044784
Na      27.78393817       8.04767406      23.90588396       0.22440432      -0.41770912       1.04320070
Na      24.81373654       8.46683192      -1.75616415       0.26095085       0.09190741       0.06283685
Na      26.92561637      10.26667803       0.06168790      -0.07055147      -1.10813425       0.40516939
Na      24.31584365       8.37994762       2.66168202      -1.90715191      -0.30923274      -1.26411145
Na      26.57270377      10.41207157       4.84586615       0.98044836      -0.41918857      -0.21598319
Na      24.95643333       8.08396057       6.72590652      -0.39890518       0.41226510       0.56321506
Na      26.52513816       9.65146239       9.24889149      -0.08196216       0.12193616      -0.60202743
Na      24.55602599       8.31661215      12.03411391      -0.77888379      -1.15908967      -0.13143400
Na      27.36049179       9.85542363      13.26783221      -0.77361044       1.92964001       0.03755576
Na      21.09391254      11.20458488      19.41900370      -0.79532173      -1.66430334      -1.23377692
Na      26.81561575      10.67776063      18.07338162       0.42618522      -0.28801979      -0.32924635
Na      23.71655765       8.84267676      19.87887442       1.43656691       0.33566872      -0.51927710
Na      23.27623134      13.75188263      21.96048935       0.32506043      -0.82977038      -0.16005184
Na      24.76936085      12.05593420      -1.66222242      -1.21017907       0.24298394      -0.25870035
Na      26.75081386      14.11725954       0.32273037      -0.51112940      -0.34005834       0.56769785
Na      24.31149357      11.89552410       2.50817823      -0.63050913      -0.10373589       1.17467062
Na      26.32579751      14.34454680       4.34860645      -1.26081449      -0.02222711      -0.16752131
Na      24.78030670      12.51999829       6.62621410      -1.24433291      -0.78131861       0.19847287
Na      26.48990180      14.38199952       9.67986665      -0.06516558      -0.26057470       1.41443520
Na      24.76383292      12.13648555      11.78849433      -0.25244105      -0.20019034      -1.12079343
Na      26.63153601      14.61409066      14.10874029      -0.13715854      -0.87651575      -0.08052530
Na      25.26383734      11.34586319      15.19863686      -0.74609345       0.40850069       1.23863766
Na      27.03767436      13.93709512      17.91258132       0.02436922       0.04762503      -0.20452338
Na      25.67836253      13.91442578      24.01131211       0.40176539      -0.43519231      -0.26860477
Na      24.89011057      15.47032017      26.48202140       0.19763543      -1.27615412      -0.16169485
Na      24.92309727      16.06628080      -1.89627585       0.49489390      -0.73259631       1.07881707
Na      26.97471867      18.28875951       0.85088140       0.35680670      -0.56393830       0.30064207
Na      24.60071058      15.95842855       2.73472460      -0.54913103      -0.21761684      -0.14634280
Na      26.22462872      18.29147747       5.70322367      -0.48528681       0.99600174       0.10112036
Na      24.74474764      16.14623286       7.37820228       0.08930564      -0.78124529      -0.78981591
Na      26.85752289      18.20547748       9.40692246      -0.23100863       0.40247780      -0.69610426
Na      24.82055314      16.49617508      11.87440432       0.66214112       0.66658135       2.19366063
Na      26.71964347      18.68406193      14.37278004      -0.06613889      -0.13410311      -1.14305226
Na      24.59459523      16.24036640      16.49137743       0.77343600       0.07916210       0.28540661
Na      26.93168469      17.95138111      18.94620691      -0.38783893      -0.79545899       1.70702984
Na      20.86210970      16.46832135      24.45043082       0.04560745      -0.34736778      -0.12839986
Na      23.18279850      17.28671150      22.01255898       0.50971828       0.37245147      -0.30310716
Na      24.63431561      19.65687665      -1.79160811       1.52253066      -0.22269111       0.69868570
Na      26.25153597      22.27043323       0.08452725       0.08407993       1.13008068       0.06088208
Na      24.93359992      20.33694298       2.07750744       0.64433647      -0.80551454       0.04069348
Na      26.70398705      22.35641091       4.99781708      -0.43038094       1.58972848      -0.52680218
Na      24.77231897      20.91874262       7.34175807      -0.37610703       0.29754195      -0.57778871
Na      26.75270165      22.98222490       9.12390940       0.54671466       0.03635475      -0.62477804
Na      25.21375156      20.57316956      11.33415262       0.36083792      -0.02340027       0.37639049
Na      26.93010531      22.11508876      14.02281943      -0.14470658      -0.01107512       0.03742232
Na      24.58206391      20.45421591      16.75094461       0.64455419      -0.49774601      -0.89872296
Na      26.68149087      22.95946716      18.48074538       0.32605862      -0.69392627      -0.13498053
Na      28.48370912      22.29080959      23.40466665      -0.27318505      -0.90742954      -0.57732971
Na      30.66891466      23.85045703      24.71697800       1.63941021      -1.04579331       0.10907999
Na      24.44611767      24.79859530      -1.39350157      -0.07199570       0.08422608      -1.15288477
Na      26.58278724      26.71283498       0.79917514      -0.43049777       0.26573547       0.53847975
Na      24.55668539      24.21422427       2.34248311      -0.58608229       0.59458262      -0.16935325
Na      26.19775554      26.54160221       4.47326429       0.47736572       0.08844395      -0.42132326
Na      24.37623280      24.74865988       6.81888954       0.05809653      -1.78609366      -1.27183250
Na      26.37498947      26.53010679       9.08866019       0.59661422      -0.81846663      -0.84430077
Na      24.86198786      24.46258684      12.03557177       0.98448059      -1.94055736       0.84007425
Na      27.48907412      26.65353360      14.03047474      -0.33385479      -1.83089135      -0.85542141
Na      25.34734052      24.78811904      15.69303557       1.46181029       0.41515871       0.74063223
Na      27.06574412      26.79295293      21.19925645      -2.05759644      -0.28506487      -0.28199224
Na      25.42469424      23.89336152      24.66557066       1.13950115      -0.36236041       0.10335329
Na      28.27982988      26.17136046      24.29544777      -0.76627602      -0.32380351      -0.40379545
Na      14.24056269       3.47974152      26.44548452      -0.11563029       1.11116732       1.02629183
Na       4.28833813      15.54390592      33.45224085       0.10061964       1.58305721       0.08366896
Na       2.02856735       1.53937084      30.48218231      -0.73831060       0.33890757      -0.68535529
Na      -1.25829622       4.12136185      31.30741592      -0.22614027       0.47177268      -0.26895221
Na      12.05477388      14.21804027      27.01090421       0.34767652      -1.12481220      -0.91115432
Na       5.86937729       7.20438313      28.51397124      -1.64360502       0.10586071      -0.71308203
Na       2.09941137       4.69375658      33.66287090       0.35645474      -0.80148727       0.89752276
Na       3.23089444       0.10322759      40.17443813       0.01451431       0.06207461      -0.07196924
Na       3.80469069       0.17257234      36.82861973       0.62212561      -0.05694125      -1.13717216
Na      -0.82541724       3.95173267      35.42499237       0.35501565       0.80022079      -0.45362084
Na      -0.02522222       1.20312229      37.16869708      -0.40347541       0.09537789      -0.12243491
Na       5.97600607       2.87581820      32.87243876       0.29413703      -0.69459766       1.01817822
Na      14.64233754      10.03202981      27.16382780      -0.21926371      -0.01650508      -0.01216755
Na       3.47590966       8.69126086      34.01540321      -1.56890891       0.29800938      -0.04234758
Na       3.83447038       6.56912945      31.09506493      -0.45749275      -0.75339628      -0.62071451
Na      13.79900238      10.44972344      30.58195353       0.31117110      -0.44159010       0.39751016
Na      15.88429266       6.46519436      29.29226028       2.29672200       0.14571767      -0.08873963
Na       3.44940024      12.20477703      26.55628440       0.21916894       0.37406925       1.14661697
Na      14.06938379      10.48959860      34.62261379      -0.75712004      -0.83507013      -0.42024640
Na       3.26512305       7.37787184      42.04056635       0.39873816      -0.67317466      -0.92368386
Na       3.35095711       7.37125848      38.33361165       0.95870704      -1.17895872       0.01701364
Na      14.33353733      10.70518624      38.68970327      -0.70095173       1.07577750       1.47184436
Na      14.33860332       7.36735599      36.86309514      -0.52544260       0.71125891      -0.85105811
Na       3.08247229      12.14777554      32.77739376       1.73511725       1.39530955      -0.58870681
Na       8.74870243      -0.21627642      26.98341253       0.57035921       0.40238640       0.91805152
Na      11.06538513      15.44819361      34.49036657      -0.39492493      -0.96765920      -0.85047954
Na      11.16030128       0.99274414      28.69113980      -0.11239385       0.31172356      -0.97953048
Na       8.84911587       2.06050481      30.69627013      -0.61858976       0.70118814       1.70178712
Na       9.35362735      17.42511422      31.33393161      -0.74857363       0.49653248       0.04297801
Na      11.17391725       3.57502910      42.12460276       0.08067442      -0.88776750      -0.75280440
Na       7.26621915       3.42462133      35.82373143       0.86819636       0.18744018       0.54021862
Na      10.14941851       0.33730334      39.92904252       0.64958179      -0.04686146       1.08613850
Na      10.37385826      14.61648901      38.03076934      -0.59705085      -0.60372266       0.14942999
Na       6.96242125       3.86254791      39.68691814       0.55213899       1.43581176       0.75750830
Na       6.80956587      14.05583398      37.56295650      -0.49102029       0.16788283      -0.25471068
Na      10.55426672       4.34470685      33.84354154      -0.08755111       0.79707949      -0.59570067
Na       6.59568161      16.22609611      25.67603788       1.34639894      -0.16316490      -0.69155898
Na      10.85403734       7.78463171      34.73513126       0.87286439       1.02218874      -0.37430729
Na      10.19506298       8.62378613      31.25147679       1.64822070       0.47406131       0.31988336
Na       7.03068501      10.93573199      31.75001207      -0.85552984      -1.01332436       0.72680239
Na       9.04538889       5.69035335      29.50433048      -0.35094456      -0.02351858       0.73459982
Na      13.12743544      11.53834609      24.96511355      -1.73171073       0.49384090      -0.85498798
Na       7.14638784      11.14087248      35.33216348       0.04152788      -0.05470261       0.68662188
Na      10.55636666       7.48705460      41.57371276       0.22340040      -1.17401642      -0.17060860
Na      10.79720383       7.17356881      38.12326913       0.77892380      -0.14285637       1.15612106
Na       6.49469214      10.44644368      39.15618761       0.19893460      -0.22248996       1.16765671
Na       6.82940293       7.10454922      36.39175207       0.94620214       0.95644285      -1.05020521
Na      10.87827510      11.56340429      34.41224566       1.20795534      -1.32741031      -0.91895493
S        1.86591705       1.87318199      23.27371590       0.19441066       0.86267605      -1.94817574
S        0.92488134       5.87002282      31.46158447      -0.92712341      -0.21341629       1.13346212
S        5.73091062       4.47655265      24.28388636      -0.53449979       0.98243682      -0.43120719
S        5.40595113       0.59695415      31.29135375       0.57526181       0.25909453       1.96089177
S        5.83393383       0.01104875      26.17819195       0.35472459      -0.26068749       1.62427849
S        6.76092249       4.07773835      29.23194351       0.23409054       0.32515128       0.55493970
S        3.40197703       5.84803281      28.34547220       0.17693900      -1.02381349       0.16146132
S        3.66587137       3.79831734      31.39889309       1.68000825       0.15490726       1.10617232
S        0.99772035       2.03471859      34.36340709       0.10638781       1.41576390      -0.51889900
S        1.09597720       5.83422679      39.75450914      -0.20997454       1.14660223      -0.41854314
S        5.94597634       5.86104497      33.80210150      -0.75102210      -0.28544440       0.00023018
S        5.48811106       1.31599525      39.86499063      -1.81863902       0.74650914       0.35318386
S        4.64794979       2.42645586      35.48550366       0.61834448       1.93752806      -0.79782189
S        4.91868480       5.26358918      38.06223598       1.28549847       2.19453947      -1.30803654
S        1.59795566       5.56778867      36.04744536      -0.50795720      -0.65488464       1.42174926
S        2.23739852       2.23007356      38.38491413      -0.46327340       0.09703490       0.15348637
S        0.95037107       9.76411489      24.42278832      -0.62438274      -0.06716104      -0.56399518
S        0.97318298      13.37096840      31.75725052      -0.16639092      -0.80027308       0.79998270
S        2.65124334      13.83991783      24.54899816       1.81335173       0.41038875      -1.08340695
S        6.39884512       8.33301599      31.08922317      -0.33194170      -1.09384757       1.10121510
S        5.89128905      13.50572068      27.17266406      -0.02648878      -1.03971443      -0.98048509
S        4.80797617      12.09839323      30.53926108      -0.46683758       0.88823291       0.06111445
S        1.53396244      11.42754013      28.49637884       0.25460226      -0.09301596       0.03755199
S        2.51822573       9.37631197      31.42916929      -0.36491539      -1.80049690       0.29825135
S        0.60099018       8.17786838      34.70232064       1.41833182       1.33223815      -0.12539281
S        0.94927167      13.19529717      39.41728292      -0.79209150       0.15368594      -0.31779434
S        5.91587437      13.00666021      33.85922392       0.58364349       1.14816502      -0.43521997
S        5.09527032       8.37508737      40.35346217      -0.46997206      -1.85704461      -0.83085095
S        5.23166012       9.30049682      36.43539841       1.36909855       1.48662870      -0.13769756
S        4.70279488      12.48108407      38.26860438      -0.98639874      -0.59150918       0.13218971
S        2.47059598      11.84401598      35.28306140      -0.22698241      -0.57164418       0.60458123
S        1.94657816       9.90700439      38.68708389      -0.22834667      -0.44448538       1.49165191
S        9.45830306       2.54612839      21.96992881      -0.45769459       0.50358788       0.05475108
S        9.45722129       6.20768784      31.92744992      -0.30715826       1.09902182      -1.13153232
S       13.02011146       4.18196303      23.64974504       0.07135659       0.59387885       0.54608447
S       13.12090970       1.11963831      31.00894957      -0.73843901       0.15006948      -0.31650667
S       13.24249913       0.80371360      26.45848902      -0.87057337      -0.49248802      -0.16511477
S       11.25506429       4.09510761      29.45719472      -0.95120369      -0.21202100      -1.26733787
S        9.97519397       6.14577328      26.49060627      -0.58644496      -1.41079393      -1.03496086
S        9.37202463       2.44988776      26.45619795       1.59668300      -0.37421591       0.60917469
S        8.57573375       1.43863956      33.25917074      -2.44749114      -0.01402375       0.72100929
S        8.61414596       5.94960534      39.88806123      -0.86145448      -0.98055374      -1.13961802
S       12.78302128       6.00353658      34.52724880      -0.78642729       0.42177296      -1.37336737
S       12.90614462       1.56363458      40.31550296      -0.06635792      -0.81752251      -1.97487400
S       11.90593469       2.37110372      35.95075778       1.18008536       2.36037899       0.13585006
S       11.45696818       4.51590866      39.22799024       0.33560842       0.89227218       0.04308474
S        9.39413917       5.36414266      36.04561960       0.72354388      -0.95349124       0.63301105
S        8.72778380       2.12107192      37.95334224      -0.45444809       0.18702552      -0.02811342
S        6.26071971       8.64924221      26.27498786      -0.22284231       0.59473148      -0.57689244
S        9.65949919      13.37253817      32.63951646       0.14820916      -0.28177248      -1.20888305
S       12.21991329      13.23361198      22.83711016       1.09393814       0.24816136       0.54086643
S       12.43549152       9.38339906      32.70065931      -2.63971657      -0.74442705      -0.09631347
S       12.34450780       9.69475570      28.41138324      -0.92355220      -0.25858169      -1.03300432
S       14.83389853      12.76679370      26.81093452       0.71350119       0.58737515      -0.68556854
S       10.13498899      11.64485146      26.22986522       0.37003636      -0.14538825       0.37031884
S        8.89894962      10.09736055      29.32493117      -1.09427484      -0.96598419      -0.44898341
S        8.29993233       8.87970320      34.38235335      -1.58912020      -0.42115490       0.64201158
S        8.39537956      13.18595538      40.27355567       0.14729355       1.16517116       0.05602482
S       12.95240524      13.32195089      35.02031220      -0.39947468       0.92230801      -0.13529896
S       13.00836612       8.08440472      40.12497495       0.75503357       0.64358602      -0.92338769
S       12.06485173       9.25855847      36.70607836      -0.72618346       0.10260225      -0.45454998
S       11.99877909      12.15562267      39.15030423       0.07549616       1.53190662      -0.00816806
S        9.39532299      12.23597372      36.67759550      -1.15160176      -0.93041645      -1.61002486
S        9.25601257       9.32973691      39.32037006       0.32286906      -0.08842322       0.44139083
Sb      -0.07018622      -0.05945862      41.63751127      -0.87469687       0.47317891       0.83154887
Sb       4.38898662       3.68402715      29.04021366       1.62027592      -2.15520271      -0.12940248
Sb      -0.57463628      14.60672419      33.25014673      -2.41415030       0.36207581      -1.13795585
Sb       3.25839111       3.93209844      36.97719276      -0.03280938      -0.84223443      -0.12803999
Sb       1.57250704       8.16550306      26.21485899      -1.42229438       0.48112541       0.10823370
Sb       3.53298918      10.20832516      29.45599555      -0.44843568       2.29147122      -0.55612174
Sb      -0.58219878       7.24683283      32.90621248      -1.18714759      -1.07054261       0.62545768
Sb       3.50795209      10.85347783      37.16402277      -0.76576337      -1.87460965       1.53377740
Sb       3.90883407      16.28259008      24.04251545      -1.60260762       1.10458138       1.82689719
Sb      11.22201946       3.90078759      27.06361029       0.12630269      -1.20155901       0.05598314
Sb       7.12819674      -0.51272964      32.55983975       1.25153740      -1.35544409       0.30559561
Sb      10.52329384       3.60760083      37.30998791      -0.75402676       0.61444368      -1.14407468
Sb       3.92638519       9.29212625      25.13632818      -1.11185191      -2.26559443      -1.87236754
Sb      10.72601282      11.54859759      28.68616016       0.21353213      -1.58666176       1.45228973
Sb       7.54575383       7.24125549      32.84881693      -0.49579815      -1.88386555      -1.13531233
Sb      10.65188213      10.70786709      38.00235984       0.90158109       1.54572497       0.42932597
Na      14.34761378       3.59148257      43.55853818       1.16209849      -0.98846745       0.17099451
Na       3.19916335      14.42427069      48.34373908       0.29732933       0.55805181      -0.34726196
Na       2.84767153       0.16950536      44.50511687      -0.05478285       0.57591577       1.11467119
Na      -0.31341661       3.46480003      44.09621940      -1.64623764      -0.71415970      -0.05252240
Na      14.53297766      14.26652128      45.11815475      -0.76313361      -0.24526780      -0.60177963
Na       3.62485349       3.49839525      40.61994577      -0.50049048      -0.02830041      -0.84348644
Na      -0.00723735       3.38649572      48.02671661       1.35944445       0.47915104      -0.19900292
Na       3.27047798       0.23256553      56.14548232       1.13510426       0.56560346      -0.68127974
Na       3.02870584       0.16942142      52.18653434       0.04206196       1.23841897      -0.72143460
Na      -0.33411653       3.61191906      51.77649029       0.29513486       0.63369484       0.82915890
Na      -0.94937137       0.34369234      54.04249021       0.87029242      -0.98586009       0.87327299
Na       3.76213262       3.50511230      49.79490130      -0.53078554      -0.49323982       0.80352295
Na      14.07241305      10.54137603      41.87731488       0.88981269       0.24841814      -0.70132596
Na       3.20887604       6.76158357      48.94334587      -0.98813510       0.65147595       0.40339188
Na       3.51836707       7.21421906      45.35609959       0.81659945       0.27979569       0.21300627
Na      13.91861694      11.07221501      45.08636006       1.32296197       0.12308102      -0.01728621
Na      14.68530616       7.06133221      45.90953451       0.75435087      -0.28248146       0.68488775
Na       3.19977261      10.49766288      41.33051655      -0.75674321       0.07706414       0.03596024
Na      14.02392003      11.02420581      48.82960574      -0.86342371       0.71186886      -0.08189554
Na       3.61837630       7.49410283      55.92067326      -0.41833368      -0.43210827       0.36892091
Na       3.47408994       7.42705130      52.21845683      -1.02789372      -1.10671341      -0.71091741
Na      13.99673087      10.91248376      52.50492239      -0.02775226       0.66212286      -1.70142241
Na      14.42438623       7.38952033      53.73158840      -0.25778523      -0.28808196      -0.48142581
Na       3.01998549      11.09189413      49.22046047      -0.51460313      -1.57143566       0.52352194
Na       7.00512153       3.48334354      43.44822909      -0.06186523       1.06044031       0.38303254
Na      10.38629889      14.35444872      48.61526101      -0.74018111      -1.12157443      -0.20883615
Na      10.35137114      -0.30836316      43.92150767       0.30027579      -0.69952135       1.73575161
Na       6.69884487       3.66874229      46.75166780      -0.62550706      -0.04234077      -0.97710679
Na       6.77958233      13.97007716      45.24610493      -0.26094293      -0.47959915      -0.08843438
Na      11.19503388       2.94952360      58.05145694       0.05963687       0.86661292       0.74867134
Na       7.13305117       3.76126441      50.52946452      -0.92535585      -0.77962078      -0.19909525
Na      10.47850461       0.21606471      55.27229921      -0.29309230       0.80067165      -1.10027856
Na      10.58913759      13.96920319      52.53762632      -1.22987923      -0.52993249       0.34061829
Na       6.79267757       3.37033865      54.37870752      -0.03239929       0.66135473       0.28680145
Na       6.99027254      14.10104723      54.52143576      -0.01828065      -0.51639101      -0.96323896
Na      10.93226757       3.56456120      49.55329142       0.48809322       0.41924004       0.39125022
Na       6.79995748      10.49295734      42.77732586       0.43977899      -2.14392465      -0.52067740
Na      10.34176177       7.15783545      48.58325411       0.97491426      -0.88245988      -0.06057327
Na      10.93984116       6.99457092      44.79028078      -0.92573500       0.06246160       0.62025968
Na       6.57363846      10.55173967      46.91031038       0.43927439       0.33092167      -0.91419258
Na       7.52375824       6.75620862      45.28577328       0.14494398       0.53360700       0.59869942
Na      10.09819576      11.28470753      41.57243804      -0.56701323       1.14270306       1.27086042
Na       6.85583142      10.83059883      51.15151543       1.13933810       0.24215021       1.01440271
Na      10.54287836       7.05913551      56.23553097       0.79635875      -0.35789173       0.41684919
Na      10.49411358       7.23529704      52.17294312       0.19693974       0.53022120       0.52755957
Na       6.64376684      10.45056157      55.19121615       0.18023242      -0.44060796      -0.78764448
Na       6.96519972       6.57893524      53.87209443      -0.40851203       0.44437202       0.59708946
Na      10.15555636      11.09517036      49.33300144       0.11260077      -0.82039790       2.20428565
S        1.33196988       1.64166913      42.37475829      -0.01611843       0.22399970       0.08111160
S        1.03846826       6.08966585      47.99286145      -0.31877354       1.26445199      -1.95287602
S        5.24458096       5.06264706      42.14440020       0.20235494       0.35714922      -0.24132951
S        5.47372261       1.62944668      48.09777904      -1.55883155      -0.96008634      -0.60351461
S        4.65738253       2.32623879      44.07701500       1.65383531      -0.22406240      -0.89700075
S        4.40794684       4.90410547      46.91478751      -0.87003542       0.72862579       0.21351086
S        2.06217115       5.04965121      43.85001120       0.09218172       0.86640507      -0.75961652
S        1.70101664       2.17882346      46.40243281      -0.95099320       0.44481265      -0.40568363
S        1.45655037       1.70359298      50.25617070       0.20245990      -0.49007659      -0.88713143
S        1.05020525       6.06746009      56.00946634       1.33201708      -0.69464608      -0.07618627
S        5.29254399       5.88731229      50.71364642       0.58975599      -0.94439293       0.99663164
S        5.58204304       1.39036479      56.48061528      -0.54256008      -0.43319931      -1.02298040
S        4.99093739       2.41182228      52.73648501      -0.93038360      -1.27922944       0.20519109
S        4.37754161       5.14144543      55.17030409       0.53606353       0.10814482       0.64157838
S        2.24661712       4.87988621      51.74872863       1.05561156      -0.66224762       0.72287632
S        1.64302199       2.22349300      54.76894668      -1.00837455      -0.80565922       0.31939575
S        0.96747251       8.65751625      42.52194884       0.16506095       1.16642683      -0.95415610
S        0.85501906      12.83835425      48.17058617      -0.87177310       0.05613954      -1.11192601
S        5.16172869      13.01514977      42.57383549       0.89291939       0.29462723       0.49712525
S        5.38752666       8.46375548      48.20256896      -0.38314459      -0.70357680       0.33314396
S        4.42502916       9.51753080      43.98608295       1.41559203       0.60250689       1.12023162
S        4.52427635      12.11033043      46.69002190       1.82419146       0.25613017       2.60135300
S        1.64258669      12.25315594      44.06685976       1.29613173      -0.54635660      -1.08525832
S        1.93349517       9.04365279      46.52052035      -0.47371833      -0.22522719      -0.30736528
S        1.17936760       8.35050243      50.94317049       1.59585387      -1.19614661      -0.53566431
S        0.57692987      12.69419641      56.32984379      -0.48726139       2.39453430      -0.11614848
S        5.26693783      13.01612800      50.46904490      -1.09088272       0.41008830       0.87018093
S        5.40485429       9.11709150      57.38054527      -1.03816859       0.77946241       0.30467667
S        5.15960303       9.44219456      52.64702379       0.76965988      -1.12057404       1.30093279
S        4.60427064      12.51095970      54.91847029      -1.15414011       1.38565965       1.24453405
S        1.95590516      12.01957049      52.02786242       0.06594869       0.28976610      -0.02195827
S        2.13004296       9.45417431      54.81539544       0.85290678       0.30504084       0.37648828
S        8.72931432       1.26003021      42.18634553      -0.64300532      -0.27953523      -0.82769460
S        8.23351605       5.23678773      48.47163929       1.02917883      -0.90164456       0.04670728
S       12.42117423       5.64004272      42.83797814      -1.13322983       0.12530508       1.65458064
S       12.38778193       1.28375525      48.19536986       0.04495760      -1.06796267      -0.73314559
S       11.95414437       2.03328302      44.36360001      -0.11166974       1.76371346      -0.17907459
S       11.78686308       5.09720974      46.98770598       0.60759113       0.34674148       1.67958037
S        9.25238911       4.64635531      44.12674282       0.31517576       0.08589382      -0.67419317
S        9.02116093       2.19744479      46.97593792      -0.05127399       0.23058082       1.31168281
S        8.06494809       1.20699351      50.92947530      -0.01555323       0.08498803      -0.04750995
S        7.93289001       6.00752892      56.56759885       1.20040304       1.67912237       1.16427484
S       12.57803459       5.70687188      50.54011078      -0.83028406      -0.23831072      -0.66391974
S       12.85884840       1.52144770      56.33207339       1.99699209      -0.53591097       0.25624818
S       11.31559602       2.15900888      52.39455331       0.37107310      -0.35695966      -0.68088924
S       12.13577947       5.14210940      54.53273852      -2.07599465       1.92367694      -0.43695922
S        8.38621620       4.88742631      52.50057100       0.29415336      -0.77409259       0.10145069
S        9.26898853       2.67653936      55.78934288      -0.35286169       0.90175194       0.35573179
S        7.98992432       7.99375552      43.00208669      -0.54359529      -0.80220895       1.18941069
S        8.04043597      12.73140324      47.93937016       1.02903099       0.37896070       0.24184472
S       12.93626197      12.89705362      43.13857094       0.53596772      -1.96123955       0.26050129
S       12.92672494       8.34051698      47.81939431      -1.99297919       0.14399700       0.72522560
S       11.59749024       9.49156878      43.81281453       0.31139783      -0.45421922       0.69691458
S       11.46390063      11.96632006      46.73185749       0.32961958       0.82078695       0.12967636
S        8.68081676      12.18566130      44.19241158      -0.45835656      -0.65398526       0.90719914
S        8.91669913       8.96253888      46.57502176       0.47114292       0.42158143       0.49686283
S        8.39877256       8.58140417      50.66327094      -1.24972865      -1.45473562       0.74716980
S        8.15301137      12.72450936      56.77680103       0.09500922      -0.90963993      -1.48050822
S       12.68303898      12.84564485      50.51645729       1.11215074      -0.21522098       0.94479210
S       12.85693438       8.58749657      55.83019191      -0.24849529       0.74828712       1.05673122
S       11.42169554       9.88625163      52.30956099       1.52187119       0.91153686      -0.91819928
S       11.57358234      12.61179822      55.09799592      -0.22239844       1.07403213       0.52773297
S        8.42303571      11.92295484      52.91835596      -0.45265178      -0.12301043       0.59761691
S        9.17984548       9.22827582      55.38352660      -0.68036744      -0.48548622       1.03801951
Sb      -0.19506451       0.06290323      57.61618771       2.55206338      -0.30457707      -0.97244413
Sb       3.15074536       3.58012130      45.35211889      -1.96395883       4.48558950       0.00711828
Sb      -0.17068886      14.41490378      49.53382464       0.85782249       4.59095726       3.42555446
Sb       3.23889923       3.74524281      53.63429595       0.59393564       0.95848277      -1.54788780
Sb      -0.31633567       7.01478993      41.33179990      -0.56363216       1.93450170       0.17137504
Sb       3.02132033      10.84705167      45.32790767       1.04303964      -1.72440244       0.36502530
Sb      -0.36788613       7.04767611      49.52354506       0.11961822       0.83731518       2.64479215
Sb       3.48661395      10.89370719      53.48615137       0.51140658       3.51360273      -0.72309208
Sb       6.73707567      14.35122833      41.52999961       0.24715896       2.51358148       1.86979791
Sb      10.58322861       3.45192316      45.70817673       3.06352256       0.65623786       0.78726744
Sb       6.66275437       0.00371110      49.40533420       0.22186911      -0.69913475       1.01849803
Sb      10.28568256       3.73079774      53.88238721      -2.19771445       1.92512202       0.26272035
Sb       6.78142477       6.88333633      41.22970691      -3.33343950      -0.78762314      -1.71876967
Sb      10.08514746      10.53105086      45.38034788      -0.77197104       0.80390301       0.36571195
Sb       6.90513572       7.11353580      49.49229895       1.79025692       4.47820606      -2.45150167
Sb      10.23379824      10.93820187      54.11050811       1.09340829      -1.62939989       1.81684885
Na      14.23113616       3.82855453      56.08900031       1.24975171      -0.32651833       1.12317875
Na       3.38103928      14.69033363      64.32960597      -0.83915258       1.74311841      -0.01912933
Na       3.38141648       0.12216808      60.39332967       0.21744091      -0.22810858       1.15380007
Na      -0.29013351       3.66650800      59.98928020      -0.31726386       0.77727588       0.13553423
Na      14.04999298      14.66060028      61.79365525      -0.37159204       0.81519909       0.51884452
Na       3.45178327       3.47945913      57.55900176       0.15240584      -0.20739848      -1.32536776
Na      -0.50197136       3.38424495      63.52597491      -0.19992687      -0.18441278      -0.18307087
Na       1.30453898      -1.81376768      71.39943559       0.66602282      -0.02964760       1.05432836
Na       4.57041888      -2.82085059      69.01488985      -0.19725881      -0.98607608       1.43213055
Na       0.40935582       2.80728212      67.89875562       0.43698824       0.37605752       0.16785583
Na       1.99859398      -0.50757589      68.32475423      -0.10318683       0.21192023       1.58040655
Na       3.20058585       4.41336941      66.29956058       0.30392771       0.49916718      -0.18696784
Na      13.86524601      11.10744733      56.61226789       1.14191491      -0.86763124       0.20125007
Na       3.80760889       7.48980619      63.09837392       0.41772948      -0.18002520      -0.90335888
Na       3.56710851       7.62114033      59.40814366       0.97533941       0.84656282       1.67896775
Na      15.04462283      11.53057026      60.25571484       0.32836896      -1.07436278       0.09470947
Na      14.34177084       8.24318119      63.50759228       0.58063242       1.12457912      -0.44677146
Na       3.07250178      11.05135431      57.50148807      -0.68667471      -1.86583106      -0.51194622
Na      14.69029851      11.84331472      64.00156882      -0.38831114       0.09050845      -0.46958921
Na       4.39585438       5.06987510      69.06718603      -1.47545429      -0.36693319       1.65459160
Na       2.52636584       8.24252400      66.49145346       0.26160652       0.37379418       0.67424913
Na      14.70975795      10.28617373      67.29789802      -0.45492754       0.16287132      -1.38404986
Na      15.15804663       7.81563958      70.51689952       0.19263975       0.23842271       1.61707443
Na       3.75952769      11.35703636      65.96109180      -0.58452567      -0.44090877       0.26179145
Na       7.27408394       3.70032822      57.97769852       0.29951691       1.11837332      -0.65512295
Na       9.47565552      14.03561095      63.67325304      -1.13421390      -0.91535502      -0.39689356
Na      10.10842197      -0.67853045      58.91193714      -0.80844042       0.39814380      -0.11635585
Na       6.96721832       4.01244617      61.57786432      -0.08808587       0.05440709      -0.65504752
Na       6.05265660      14.99618738      61.83402695      -1.28940821       1.60323899      -0.72848472
Na       7.28066048       7.88990102      73.74002320      -0.04490133      -0.24120610      -0.37814601
Na       6.40143692       3.60440225      64.78967752      -0.86740315       1.46669162      -0.46363945
Na       8.04864053       2.80198814      74.05416120      -1.72064758       0.80647134      -0.32706947
Na      10.87713532      13.95748443      67.21576495       0.35661095      -0.09124712      -0.27958081
Na       8.57004658       5.09231484      68.15588303      -0.89516157       0.76897240      -0.84145359
Na       5.80685467      13.78563276      70.77696301      -2.50259395      -0.10643431       0.79007239
Na      10.63736572       3.37073036      65.53403500      -0.45180732       0.05503491       0.71109979
Na       6.76391353      10.96705205      59.59235168       0.68554169      -0.93663836       0.67326333
Na      10.80579201       6.93183019      64.56651953       0.23338136      -0.54435431       0.43657112
Na      11.16196715       7.48430117      60.53046995       1.39850572       0.71076168      -0.13929110
Na       6.90911481      10.91060491      64.11324337      -0.06153992      -0.30706897       0.42973546
Na       7.45270335       7.98569778      62.01709763       1.08993136      -0.22200508      -1.67034783
Na       9.99203532      10.43851024      57.87616843      -0.27791428      -0.60810628       0.89673661
Na       7.73879817      11.40625709      68.08979995       1.36798914       0.72850117       0.23473572
Na       9.96701735       8.29489389      71.92534142       0.86265555       0.49148764       0.74780892
Na      11.77148422       7.67207658      68.42108925      -1.43081415       0.47807127      -0.70454859
Na       7.17709287      10.91107634      71.73129685       0.46095426       0.84784900       1.62409009
Na       6.98485329       8.06550304      69.49803139      -0.49333010      -0.04842874      -0.49283417
Na      10.87588259      10.58184343      66.25161602      -0.09066548       0.11347839       0.57160254
S        1.40886441       1.36251672      58.76834675       2.03520455      -0.95177191       0.00405302
S        1.96218259       6.12567817      68.08362945       1.20006038       0.75305579      -0.87892466
S        5.68190889       5.82911213      59.25167408      -0.06943619      -0.49457973      -0.57212765
S        6.51955211       0.98454108      64.54408362      -1.09311597       0.96607187       0.14977604
S        4.90110495       2.36292953      60.49952112       1.43800143       0.07464756      -0.18549229
S        4.06957048       4.60213239      63.66155158       0.79806312      -0.39072248       0.13999768
S        2.11624105       4.97500817      60.23851088      -0.53863408      -0.45625416      -0.50177618
S        1.82879318       1.93767515      62.82648053      -0.96439411      -0.91106677       0.67114289
S       -0.34229372       0.05226455      69.52665754      -0.48678957       0.52537439       0.27871930
S        2.72201174       4.67410532      76.75219006       0.81540716      -0.69559682       0.38703171
S        5.96629144       5.02179576      66.85062520      -0.23261456      -0.55325340       0.02360056
S        4.40509069      -0.58507424      75.82628430       0.52356435      -0.43317151      -0.07085311
S        3.00044210       1.67661855      67.51881265       1.91156367      -0.88883947      -1.52261593
S        5.84666016       5.54415065      74.87711911       0.34120540      -0.58228906       0.79781950
S        3.28234463       3.04522322      71.32721289      -0.02863492       0.78484903       0.63047323
S        3.91415466      -0.65835608      70.42842410       1.53764151       0.09963466      -0.03594040
S        0.91239236       8.59403244      58.69054697       0.37989662       0.54628319      -0.20673374
S        0.92691118      13.30785816      64.67629385      -0.07670679      -1.76751735      -0.67590082
S        5.44292047      13.28121230      59.40905326      -0.02419164      -2.01991501      -1.08525919
S        5.02263543       8.60280648      65.33665874      -1.04217743      -0.67136073      -0.73322118
S        5.10194906       9.25386655      61.21785946       2.54380425       0.37330891       0.96502503
S        4.44471551      12.36065894      63.32190890       1.89108604      -0.23069189       1.89720094
S        2.23307798      11.80664931      60.19558139       0.67930158      -0.42533112       0.77233956
S        1.77379400       9.44771901      62.97896727      -0.02620402       1.06403295      -1.60181912
S       -1.21134536       8.28177480      70.05094836      -0.04025321       0.29874947      -1.71177951
S        2.00586525      13.21216404      78.43932381       0.33958893       0.76602601      -0.60671209
S        5.18040349      12.63483323      68.11034069       1.68431052       1.05212842      -0.32409285
S        3.72165903       9.40548716      76.08324170      -0.19962685       0.74706554      -0.63152891
S        4.89466175       9.49028057      70.45341848      -0.00237806       0.49474235       0.61595439
S        5.15617262      12.82468662      73.34390001      -0.96019741      -0.81294986       0.12533105
S        1.83041457      10.39330549      68.30434744       0.33104562       0.28567739       0.79086237
S        0.87625026      11.02720736      73.53748895       0.04259328      -2.89921415      -0.52186627
S        8.02742734       1.33815904      59.28498004      -0.63019542       0.57449192      -0.70633103
S        7.86678158       6.26777674      64.09364941      -0.23086405      -0.33967781      -0.51627377
S       12.62008963       6.14467574      58.53807503      -0.58738399      -1.46861419      -0.49779138
S       12.79784848       1.38800271      64.64240677      -0.63447284       0.73457925      -0.65780443
S       11.83130825       1.74724345      60.66408682       1.55727489       1.13200148       0.68283460
S       12.05882716       4.98481001      62.91149501      -0.60005566       0.50383700      -1.23558465
S        9.37793486       4.46366017      60.13164486       1.25916260       0.09195333      -0.23751700
S        8.84328747       2.35273367      63.22841850      -0.02291765       0.14044924       1.43995711
S        8.77120657       1.44295542      67.70731420      -0.81856680      -0.69740689       0.53164238
S        8.55456920       7.75503458      77.31316366      -1.34311883       1.58311697      -0.10785024
S       11.40832744       4.84689272      67.67734900      -0.74521384      -1.83873606       0.61531098
S        7.53771866       2.58802629      76.61696741      -0.37504488       1.15455032       1.29329507
S       13.01683929       3.65218003      71.06736044       0.28147160       0.22876386      -0.76951324
S       10.58925437       5.86134668      73.79131323      -0.94214303       0.65615495      -0.69068199
S        6.43686235       5.36802881      70.57199913       0.04958927      -0.59687044      -1.67582706
S        6.85995199       0.95246140      72.39928588      -0.32374494      -1.39029971      -1.29744383
S        8.54291480       8.75037108      59.44796556      -0.55342697      -1.78988142       0.41890420
S        8.67006975      12.74598360      65.91830029       0.36965412      -0.29906268      -1.72984499
S       13.17302799      13.29296729      59.12339868      -2.02304800       0.69943546       0.57913363
S       12.95580482       8.54005154      65.85143365       1.02953873      -0.88028748      -0.96633755
S       12.33047626       9.94566034      61.17567941      -0.50354287      -0.98048137      -0.81552055
S       11.98255451      12.36349754      64.21890122      -1.05631840       0.98038420      -0.31881651
S        9.37334851      12.52332158      61.37190453      -0.89804784       0.43915002      -0.00063209
S        9.32301140       9.56566646      63.73168202       0.70785531      -0.17869485       1.34091034
S        9.46378745       9.18710767      68.95979590      -0.53299470       0.23591811       0.72427669
S        6.53123920      12.76570526      77.40392122       0.02762344       1.18111890      -0.99571897
S       12.25406914      11.56778588      68.49588806      -1.50656279       0.10321748       0.59215120
S       12.57710133       9.51952848      76.48530813      -1.08197290       0.03270201       0.52289983
S       12.49966113       8.13831146      71.19272001       0.17164419      -0.03867796      -1.14406001
S       11.95761272      12.88017008      72.43036872      -6.92092802       0.09676787      -0.11294785
S        8.89710232      12.90371145      69.98987612      -0.54461938      -1.19136132      -0.06887043
S        8.93414471      10.03791362      73.78588028      -1.41463545      -0.65260693      -1.27723211
Sb      -0.14186512       0.57024371      78.22309454       2.86931882      -2.91201235       1.06382739
Sb       3.24366337       3.51964738      61.74557050       1.59582138      -2.27553154      -2.21757627
Sb       0.46609930      14.73117312      66.54965275      -0.66381433      -2.54058109       0.64284009
Sb       4.43673598       1.51194381      69.59976274       1.56752729      -1.16952791       2.07016195
Sb      -0.41120379       7.21256748      57.30690054       3.45230975       1.12928241      -4.19311577
Sb       3.41968050      10.74443494      61.93294733       0.57616804      -0.68484038      -2.34707408
Sb      -0.70227465       6.82017801      68.05262096       1.83515603      -0.82572450      -1.23134162
Sb       3.56428288      11.58739661      69.71012968      -2.01208522       0.18425045       0.94115719
Sb       6.94930482      14.44992488      57.89942618      -0.12990746      -1.48665588       1.69461367
Sb      10.49479339       3.40282705      61.85384183       3.28136165      -2.88230905       1.30328402
Sb       7.14221107      -0.10704937      66.47359517      -0.35076972       1.13483475       2.69631661
Sb       8.55491886       5.48896662      71.87417182      -1.03405340       3.64203326      -0.70393349
Sb       6.98942792       7.44811407      58.08727988      -2.17930234       1.35459054      -0.82857364
Sb      10.88180840      11.09019051      62.57618052      -2.19028379       0.50277426       1.51235893
Sb       6.82567686       7.21104757      66.11959836       0.95491620       1.21995052       1.53447218
Sb      10.66154966      11.07179087      70.26637528       3.27663490       1.17867592       2.51430392
Na      15.27020425      15.54640470      27.73197121       1.57581426       0.00922407       0.67667688
Na       3.59248090      29.53077070      33.58548621       0.37272500       0.06035821      -0.32070313
Na       3.06321828      13.99640118      29.84910655       0.73780388      -0.14112081       0.12698284
Na      -1.54038832      18.92676703      31.58489476      -0.39959110       0.20166551      -0.51240463
Na      14.18451500      27.94753928      28.95179032      -0.85934073      -0.58266646      -0.46909007
Na       4.06943038      15.43663645      27.01611276       0.14495228       0.61847387      -0.56724398
Na       0.44433205      18.26136299      34.40915954       0.63322353       0.05917062       0.02177888
Na       3.20083858      14.22170310      40.36541556       0.57965317      -0.09886748      -1.17062387
Na       3.18794047      14.42338704      36.42845502      -0.12792894       0.12370684      -0.14322218
Na      -0.27496555      18.37369511      38.10636417       0.34313208       0.24778197       0.05849039
Na      -0.10524823      15.13333549      37.22455385       0.85950445       0.61599975      -1.39552994
Na       3.62231063      19.58658358      32.80698921       1.35676109      -1.20782576      -1.64623188
Na      13.82118421      22.99138618      27.96719271       0.00773902      -1.47438830       0.36049262
Na       3.11505624      22.70129901      31.73293309      -0.72456500       0.38699236      -0.59385075
Na       3.50167069      21.97547633      28.30530297      -0.55722705      -0.90667854      -0.40952421
Na      13.73717175      24.57965818      31.08271932      -0.11281684      -0.69854863      -0.01642451
Na      17.87382979      21.40337515      31.83704729      -0.33694341      -0.03562920      -0.36107813
Na       5.00921896      22.67812526      25.67201532      -0.48315132       1.13849008      -0.04988510
Na      14.31207463      25.08145126      34.44594774      -0.30687826       0.06778263      -0.93462048
Na       3.35046453      21.79801141      40.31522830       0.77363523       0.44863632      -0.79525803
Na       5.05915589      21.45702844      36.04594085       0.16775169       0.08606576      -1.29865543
Na      14.24070706      25.62276353      38.42877197       0.04590446      -0.13694473       1.54369667
Na      14.91583860      21.61474770      37.94598924       0.99683158       0.82763017      -0.85699192
Na       3.44628944      26.31543256      33.64228523      -0.17386837       1.40235649      -0.25457461
Na       8.51270855      18.04708185      27.94281817       1.02089963      -0.75899696      -0.28164200
Na      10.68596199      28.65347336      32.07433489       0.63175863      -0.40769093      -0.52068306
Na      12.17822203      15.48531319      30.72898238      -0.05358679      -0.50143246      -0.83992227
Na       6.18476948      18.48881981      30.30170348      -0.30620583      -0.37337319       2.33649083
Na       6.50371581      29.22870444      28.75875047       0.71053206      -0.04763787      -1.28439617
Na      10.32751220      18.59964428      41.69753911       1.06542533      -0.36484018       0.25184550
Na       7.11002706      17.70959486      34.49626979      -0.47780142      -0.24743586      -0.30254627
Na      10.47199179      14.79642243      41.79287206       0.14640401      -1.63004469       0.45119627
Na      10.20890319      29.02269673      36.27572277       1.65126156      -1.58466642      -0.14568616
Na       6.69700005      17.68272705      38.52653495       0.75776924      -0.83065442       0.65289567
Na       6.97279416      27.98608298      37.20413081      -1.17495811       0.10608432      -1.42892686
Na      11.09846796      19.11242588      34.62197004      -1.19846269       0.27594602      -0.74210463
Na       7.60548400      22.17933471      27.90067778       0.80978871       1.93197881      -1.41495804
Na      10.73177208      24.58064786      34.32536867       1.22053636      -0.06415454       0.95210887
Na      11.30721173      19.92034585      31.58067739      -0.07299457       0.49908977       0.78195635
Na       7.16259753      25.09122011      30.22177191      -0.57360005      -0.18210731       0.14155057
Na       6.91129832      21.28310624      31.28300100      -0.61317298       0.16145456      -0.48546014
Na      12.37371326      27.09991098      25.95970332       1.30866561      -1.18214928      -0.19347029
Na       6.86524195      25.07462995      34.77661333       0.83254087       1.31974506       0.54274705
Na      10.37209065      21.88560659      40.78423746       0.30358938      -0.05050374      -0.35519714
Na      11.06934431      22.36108574      37.34756682       0.19324952      -0.08799162      -1.33815362
Na       7.47352487      24.84500696      38.09657161       1.48087272       1.06273657       1.06601071
Na       7.20937892      20.93079554      38.00415046      -0.30397185      -1.66066806      -0.10008854
Na      10.60293155      25.97921329      30.01565120      -0.41126308      -0.17376694      -0.94182721
S        1.72577626      15.95496847      28.25276717      -0.49658407       0.64854122      -0.90581610
S        1.10175952      19.14143896      31.55607105      -1.74092256      -2.10798054       0.29804819
S        5.48359873      18.31200382      23.26125625      -0.42159055       0.36699343      -1.39309519
S        6.93984283      16.14052553      32.00862766      -0.29991041      -1.98778452       1.11358871
S        5.76012051      17.61113722      27.86741419       0.75161961      -0.91843856      -1.55215120
S        4.34101088      20.67076176      30.40398760      -0.09764367       0.09947418      -0.76882406
S        2.85934347      21.00587723      25.97596848       0.35912366       0.27444924       1.08707433
S        3.98603430      17.10642786      31.03496367      -0.32340173       1.32571791       1.58732616
S        1.59067085      15.66888376      34.51298520      -0.39713298      -0.62767339       0.01525881
S        1.22213732      19.80338297      40.20070026      -0.29314101      -0.81811267       0.75348791
S        6.17713361      20.41827646      33.88856714       1.10115562      -0.65591239      -0.31790853
S        5.62758402      15.72253092      39.87770239      -0.37919454      -1.65346562       1.25202396
S        5.21353467      16.31389484      36.22212526      -0.82918061       1.01970374      -0.32526396
S        4.71858905      19.51042721      38.29366728       1.28105290      -0.33386106      -1.38864780
S        2.63824604      19.44562042      35.44492293      -0.12219471      -0.54465435      -0.48602131
S        2.01172163      16.64893252      38.22991369      -0.33878736      -0.54359065      -0.07752335
S        1.08000957      26.88514355      20.36251540      -0.54477453      -1.21773506      -0.09859882
S        1.74427135      27.86927972      31.90043683      -1.18821036       0.49089518       1.38489433
S        5.11803649      27.81852196      21.13713804      -0.16948546      -1.26389807       0.27574382
S        8.37794517      23.49091468      32.76537870       0.66464706      -0.83142908       0.59043343
S        5.40275512      23.94409269      28.10038131      -0.93041843      -0.23362182       0.17045891
S        4.76161352      24.97869170      31.57935807       1.46066016       0.48704019       0.31060696
S        2.19562314      26.57880700      25.40954767      -1.61950940      -1.13267881       1.57233244
S        1.82106230      24.19520165      29.30927626      -0.52852233       1.28436685       0.66411043
S        1.13089764      23.25223559      33.51491533       0.05906681       0.75772596      -1.12877888
S        1.31276755      26.90878334      40.64604178       1.05011877       0.40369095       0.01419174
S        5.85148711      27.75571602      34.69220322       1.07794351       1.09471602      -0.06705643
S        5.92398629      23.30719999      39.99130912      -0.62459499      -0.77738033      -0.14424882
S        4.47354968      24.19684839      35.29582776      -0.57904499       1.27155655       1.63867856
S        4.65280263      26.62402306      38.27009262      -0.42451051      -0.01796004       1.33530630
S        1.78579229      26.85141585      36.06151641       0.12025794       0.13733478       0.30746363
S        2.12066926      23.62649084      38.34067045       0.40239945      -0.84621694       1.22184547
S        8.20463437      14.91820126      24.09614835       0.70610430      -0.81522899      -0.35522717
S        8.94501517      19.74755699      30.05662599       0.78865719      -0.13449384      -2.14315485
S       14.54475663      20.44785467      26.83066322      -0.90549846       0.08239259       0.42476107
S       11.69583513      17.30115481      32.65721799       0.68541497       0.49748057      -0.45566951
S       13.06883761      16.66615195      25.59752073       1.38549862      -0.32886071      -0.05749544
S       13.83370217      17.07843935      29.14259618       0.61526371       0.00929792       0.44072243
S        8.76078773      19.96422792      25.70757926       1.92775406       1.18315871       2.01560754
S       10.35831786      15.99872231      28.12729045       0.32105999      -0.59082427       0.56589348
S        8.44942978      15.37933414      35.46687360       1.62568585       0.70214344       1.12819420
S        8.04707708      19.98781164      40.24412257      -0.09876047       0.23767941       0.14163278
S       12.01301204      21.45365148      33.80240543      -1.03566393      -0.42566491       0.49246655
S       12.67441485      15.59082110      40.35573265       0.46205086      -0.46477964       0.37095938
S       12.16560366      16.67689813      36.74286966       0.29563376       1.40493674      -0.69049477
S       11.81089804      19.91744456      38.82187303       0.99624152       0.01748774       0.98206117
S        8.79747815      18.86034601      36.47904628       1.39216311      -1.42619750      -0.63320995
S        9.36575251      16.99061275      39.56171251      -1.18508519       0.11527283      -0.83607168
S        6.74757325      24.58690393      23.61341027       0.09203474      -0.27334147      -0.31960494
S        8.89819048      28.17408815      29.55425461      -1.41964713      -0.96187415       0.20907956
S       14.18259879      30.13124075      20.96891893       0.41653236      -0.69987797      -0.59113078
S       13.44388928      21.82417235      30.58005986      -1.03108827      -0.44397956       0.94986916
S       12.11528332      22.99570185      25.59467151      -0.79306212       0.18004601       1.34176557
S       12.61023567      25.62209947      27.98890244       0.58556450       0.04010174      -1.04135234
S       10.18541708      27.46716274      24.31853991       0.49857385      -2.00002392      -0.00784762
S        9.74323709      23.59835236      29.04509185       2.22190192      -0.59256488       0.76431022
S        8.02270210      22.82507792      36.18247423      -0.19381520      -0.21618050      -0.53725635
S        8.18497358      27.10523332      40.06498117      -2.39350567      -1.61284029      -0.68598131
S       11.90363957      25.99454856      32.40979181       2.38419447      -0.46666024      -0.82086239
S       13.13425616      22.71422165      39.87523908      -0.65985609       0.21227628       0.21917093
S       12.57352697      24.43255009      36.38969316      -0.81258332      -0.77250155      -0.95923296
S       12.09981519      27.61284610      38.21450278      -1.07062392       0.96486785       0.78569275
S        9.28075996      26.42665509      35.91222910       2.12567242      -0.41062908       0.39540304
S        9.95451888      24.28566540      39.24049876       0.08767538       0.61211757       1.77866650
Sb      -0.18285500      14.62593176      40.85020962      -0.77460971       0.37430037       0.81252012
Sb       2.73436383      18.81571122      29.76180104      -2.90620096       0.01275881       1.51482282
Sb      -0.15223456      29.04285815      32.85826438      -1.97609320       0.90479686      -0.44405893
Sb       3.54859345      17.92532509      36.95543691      -0.41144105      -2.05992559       0.58049290
Sb       4.64211002      23.40467612      22.67857298       1.81983235       3.78670336       3.01373581
Sb       3.93494560      25.50759011      29.37307367       1.50361979      -0.89287858      -1.16302592
Sb      -0.59368610      21.91721621      32.37770038       1.75157093      -0.70962944       0.12999191
Sb       3.25199862      25.16436488      37.01644353      -0.07051198       0.94479927       0.59093255
Sb       7.06622878      29.67692228      21.61626101      -2.88032598      -0.65305712       0.62772059
Sb      12.10128711      17.76594300      27.59128467      -1.57725631       1.78903146       1.14229981
Sb       7.80068885      14.33483770      33.47958503       0.46086203       1.16466595      -0.37181995
Sb      10.51290257      18.15208813      37.83963459       1.91358654       1.84371184       1.98044036
Sb       7.71871700      22.26115880      24.72314853       1.47049455      -2.39859376      -2.10090261
Sb      10.64630378      24.47763830      26.77915321       1.29353039       1.77226569       1.68864508
Sb       8.38982724      21.52818305      34.25454320       2.92190263      -1.34091141       0.04290888
Sb      10.88939365      25.75726581      37.54429026       2.47297381      -0.05100063       1.00081032
Na      13.92059959      17.81474517      42.48857521       0.64421641      -1.31307773      -0.58483356
Na       3.00328096      28.81040121      48.58974757      -0.71887283      -0.12451006       0.11934659
Na       3.00491284      14.62513300      44.45478156      -0.36460014      -0.08465846       1.06859270
Na      -0.27492102      17.89707557      46.27771478      -1.38033335       0.09206369      -0.41724686
Na      13.98256591      29.61536303      45.94916223      -0.63798941      -0.58518553      -0.26401794
Na       3.80787037      18.00633629      40.97905864       0.73830422       1.39473820      -0.74744674
Na      -0.21225448      17.73176203      49.93841853       0.37820805      -0.11475368       0.13185228
Na       2.93773582      14.58752458      56.07835250       0.62714633      -0.15907235       0.75258488
Na       3.45918973      14.52917676      52.04573072       0.31827487       0.02507616      -0.97759174
Na      -0.34047324      18.10004976      52.88223061      -0.68710625       0.44740526      -0.47563211
Na      -0.67687489      14.10337807      53.88811856      -0.44598561       0.87807327       0.44503921
Na       3.10222062      17.98164338      49.20301403      -1.18441246       0.30653128       0.33201192
Na      14.07851574      25.09409738      42.60378025       0.50648141       0.97515793       0.95679925
Na       3.11082461      21.60092913      48.12103695       0.19491806       1.21941479       0.75641542
Na       3.22565388      21.44013062      44.51287270      -0.28829102       0.57463491      -0.54968294
Na      14.00770775      25.15049735      46.35686369      -0.99971227       0.86107560       0.34549668
Na      13.76526125      21.48955726      45.43057153      -0.70149501      -0.32977071       0.00146696
Na       3.34665230      25.06048427      41.51913171       0.01885386       0.62657833       0.29691886
Na      14.23918228      25.19139440      50.18995741       1.15424397       1.03596544      -0.30918461
Na       3.27505076      21.91967913      55.61769801       0.22594034      -0.35779063       0.16906371
Na       3.67179672      21.68652233      51.44880106       1.05636262       0.27427124       0.96533876
Na      13.79489458      25.28656194      56.96973630       0.04959308       0.07612762       0.29809311
Na      13.96845652      21.69765543      53.35346606      -0.09305506      -2.14317110       0.46243546
Na       3.06525836      25.29263686      49.57231578      -0.39738621       0.95068056      -0.05094845
Na       6.97031383      18.31157935      42.72696732       0.10738236      -0.20567787       1.42387564
Na      10.26565904      28.41010083      47.61576614      -0.53629379      -0.84897282      -0.42901511
Na      10.59218577      14.13534561      45.15684226      -0.39857492       0.86282894      -0.54389069
Na       6.83609180      17.82596154      46.21191155      -0.17657909      -0.44665367      -1.11035111
Na       6.35316009      28.12496592      45.81752275      -0.82777771       0.73789993       1.06892678
Na      11.28451283      17.88328654      57.88608447       0.14720311       0.12349622       0.40160872
Na       6.57645703      17.82065775      50.30433882      -0.49307980       1.31832331      -1.31219859
Na      10.56556955      14.79712810      56.48570313      -0.68582971      -0.70661193      -0.47968569
Na      10.38182072      28.23158586      51.34168435      -0.21264034      -0.04158289      -0.78812113
Na       7.23516539      18.18792546      53.71653014       0.05465046      -1.44801683      -0.59704045
Na       6.65260886      28.40649580      53.10601463      -0.89177232      -0.38562694       1.34567363
Na      10.76443657      17.48753313      49.65834682      -0.66093691      -0.98243483      -0.02531468
Na       7.02617914      24.94125747      42.37691000       0.02467103      -0.02962988      -0.43107470
Na      10.39298174      21.27321610      48.34096825       0.18355611      -0.21591680      -0.18378262
Na      10.48162262      21.41371359      44.45051232       0.17672554       0.31448081      -0.45652165
Na       6.91375424      24.88365204      46.63394330       0.00090953       0.01634198       0.12952977
Na       7.02154217      21.69902053      45.70689483       0.41359091       1.17183907      -0.56348075
Na      10.58550532      25.64964639      41.48295524       0.80695029       0.37241247       1.20572145
Na       6.86422409      24.87546840      50.46731889      -1.55828341      -0.03021535       1.24870439
Na      10.92528756      21.24260459      56.83248527       1.25701901      -0.84421677      -0.17892919
Na      10.46563672      21.41919136      52.63381219       0.68673006       0.00007301      -0.82411503
Na       6.99505535      24.91124909      55.01548668      -0.53404138      -0.79628673      -0.16301310
Na       7.01611245      21.73218928      53.56806739      -0.20766545      -0.38729866      -0.41485000
Na      10.56013943      24.47914754      48.96559015      -0.00209999       0.31230452       1.33687357
S        1.44904425      15.70913565      42.15114741       0.90006893      -0.63806386       1.30273496
S        1.03933125      19.77147277      48.36123027       1.90949310       1.20323219      -1.54103106
S        5.17005988      20.29589518      42.50131173      -1.36348497      -1.20101291       1.33177438
S        5.60788810      16.13900718      48.33511481      -0.30078776      -0.04627040      -0.59480881
S        4.58530909      16.81697165      44.03308679       0.29914029       0.30128708      -0.37471332
S        4.67372646      19.21432226      47.06571316      -0.85996083      -0.44538410       2.30425520
S        1.58215025      19.25498056      44.37661993      -0.60755780       1.07557275       0.03051316
S        2.02702784      16.30706390      46.67764401      -0.80933288       1.26071311       0.30406623
S        1.42138479      15.77682150      50.74390692       1.02754516      -0.44589436      -0.68794278
S        1.25511575      20.33266995      56.11818014      -0.54626453      -0.21515747       0.51369053
S        5.96293312      20.21344468      51.42169351      -0.38447984       0.89111494      -0.18121735
S        5.62179886      15.74971309      56.37455631      -1.31221343      -0.53683092       0.35986646
S        5.14794049      16.69064101      52.43267354       1.37332364      -0.58060306       0.41984052
S        4.77867940      19.19826201      54.87325399       1.21857711       0.99515558      -1.40784806
S        2.11509626      19.32629818      52.03271341      -1.65916106      -1.76178821      -0.99697939
S        1.72310762      16.57396237      54.49769594      -0.99476800      -1.42790745      -1.56570286
S        1.63853053      22.72426832      42.47838006      -0.18661545      -0.93552494       0.22619952
S        0.97387116      27.24513620      48.04712112      -0.00111963       0.72323242       0.11308063
S        5.64250812      27.27591846      42.59057534       0.85527661       0.63529492       0.90293968
S        5.63021513      22.95810178      48.58745347      -2.20804697      -0.32401155       0.27572694
S        5.15879623      23.73877382      44.26299076       0.57849000      -0.18355701      -0.42188262
S        4.46202789      26.20547671      47.22638473       1.89276230       0.31488455      -0.14810058
S        1.82956513      26.09174877      44.22048811       0.17546382      -0.16759771       0.22895636
S        1.92257903      23.26739179      46.44053078      -0.24792346      -0.09472105      -1.37095698
S        1.37573985      22.90643785      50.51333826      -1.63327778       0.59240258       0.18251571
S        0.94764141      27.23327917      56.12762663      -1.26685705       0.05960688      -0.05148332
S        5.05918723      27.54519925      50.65095887       1.08376547       0.54322346      -1.75719820
S        5.51417292      23.25760771      56.77528735      -0.80359640       1.55076395       1.36865371
S        5.27960520      23.81805840      52.61547668       0.59652935      -1.68173585      -0.54116962
S        4.86446973      26.81721469      55.06186508       0.69696586       1.01764790       0.73757169
S        2.24834598      26.10097059      51.93912556      -0.19521474       0.06466234      -1.25638491
S        1.93723749      24.15327669      55.01477925      -1.12902439       0.13745135      -0.49109645
S        7.84602048      15.65909681      43.14296278      -0.84567175       2.37067808       0.69576721
S        7.99048657      19.82641911      48.03177245      -0.48747862       0.50432839       0.92563672
S       12.46572574      20.31682221      42.66530202      -0.48768702       0.73813913      -0.09638116
S       12.58353569      15.84082588      48.08585374       0.16113986       0.28011570      -0.93064445
S       11.73783466      16.70318610      43.90461107      -0.14771796       0.62895633       0.28203388
S       11.91560206      19.60766415      46.42644679      -0.36164800       1.10119472       0.05899872
S        8.75646277      19.20669381      44.39936211       0.27740229       0.19586204       0.33624092
S        9.36371217      16.34581691      46.80028003      -0.05008635       0.48721308      -0.27773403
S        8.82609833      15.33107692      50.56085397       2.11711722       0.43317969       3.30046869
S        8.27776455      20.42058667      55.83691554      -0.50097766       0.55564388      -1.67014372
S       12.43302649      19.90033867      50.55908506      -0.73827000       0.47201989      -0.36561449
S       13.09046676      16.33117667      56.38590514      -0.25395681       0.12877641      -0.11049402
S       12.37297802      16.49220305      52.60305301      -0.07266217      -0.50043598       0.25711261
S       12.03331024      19.41448387      55.05470048       0.08272608       1.30626344      -0.09382060
S        9.58098007      18.86466008      52.10351893       0.08541455       1.10445326       0.00203644
S        9.27703288      16.49389195      54.92939249       0.89986882      -0.40595528       0.29301655
S        8.51151628      22.62946860      42.81080021       0.47041989      -0.56885763      -0.49699462
S        7.99041823      27.22798391      48.15216053       0.40480631      -2.26849253      -0.67781711
S       12.54943008      27.31060163      42.78342578       0.18336991       1.08059675       1.18113338
S       12.91222268      22.81907607      47.99351791       1.03916845      -1.18707096       1.18969845
S       12.06909306      23.71209869      44.08612578      -0.49824544      -0.23010742       0.55444773
S       11.61325426      26.19889148      46.96767124      -0.67362507      -1.17830737      -0.42385892
S        8.97929280      26.15348115      44.09686505      -0.26072573       0.05029347      -0.51173658
S        9.19427781      23.28284251      46.59228256       1.14368122       0.81991591       1.47780747
S        8.74632200      22.60287022      50.67068911       0.41842200      -0.44392460      -0.72071207
S        8.43800428      27.22046976      56.59969752      -0.50468695      -0.73192734      -0.38286254
S       12.97559248      27.47555334      51.42250708      -1.15247453       0.34620374      -0.12048744
S       13.10424005      22.96420423      55.70112918      -0.55631381      -1.17781646       1.65030699
S       12.25553540      23.66615468      52.19926864       1.37611470       0.71436205       0.50216902
S       11.57186140      26.34030489      54.79477106       2.51756379       0.83444080       0.62803186
S        8.84385489      26.09866945      51.92409910       0.45527553      -0.90116058      -0.09547321
S        9.25663523      23.30462361      54.63389802       1.99957828      -0.33196938       0.01097265
Sb      -0.23044735      14.42261383      57.79574276       1.37731689       4.19226702       3.31399201
Sb       3.21264632      17.97056063      45.45354045       2.78871957       0.46176712      -1.09732297
Sb      -0.20047438      28.75031599      49.60907009       1.66378085      -1.32414724       1.70347618
Sb       3.40046421      17.94036729      53.46876660      -1.90386389       2.23338607      -3.45060392
Sb      -0.07608944      21.47369838      41.28927189      -1.36667602       2.25181757       0.81055976
Sb       3.43443994      24.86884706      45.46987071       1.60015663      -0.55274432      -2.93730668
Sb      -0.23222970      21.47465253      49.49139637       0.22492530       0.17806786      -0.10400821
Sb       3.69120126      25.26735730      53.66661170       0.67566964       0.67546997      -1.38767875
Sb       6.89638080      28.69056374      41.26120991      -2.32535339      -0.74846040       0.00488334
Sb      10.48229481      17.92304355      45.50656690      -1.49772566       1.12654385       3.33121695
Sb       6.94134707      14.42724846      49.31705530      -2.43539175      -1.30760924       0.12895437
Sb      10.83683778      17.76891913      53.76584281      -0.74024250      -1.10912154       1.14970843
Sb       6.79871191      21.65752768      41.46710430       1.39234651      -0.79485110      -0.61022409
Sb      10.50440320      24.85849210      45.33064431      -2.69916342      -0.56109242      -2.34850416
Sb       7.13855596      21.35462987      49.57510207       1.02293628       1.29114181       0.45523240
Sb      10.51128809      24.85839211      53.25355367      -0.51267152      -3.48154536      -0.43325346
Na      14.78878124      18.53604582      57.67039042       0.19776339       0.15780748      -0.27164668
Na       3.80388178      29.76170027      64.84358635       0.86194389      -1.19159614      -0.58018821
Na       3.12393283      14.46622031      60.40824437       0.21694554       0.26967068      -0.51240955
Na       0.31100241      17.56376184      60.36543547       0.57816967      -0.03338904      -0.85870072
Na      14.17206216      29.10525770      61.61936950      -0.00724561       0.76769953      -0.15697424
Na       3.29903875      18.39311541      57.22780251      -0.15569081       0.24977808      -0.62741854
Na       0.70837365      17.77453943      64.68616430      -0.58481941      -0.04305089      -0.88200952
Na       2.19383609      13.28334259      73.22914306      -0.10851373       0.60022971       0.07822248
Na       4.21406884      15.59552331      67.97052223      -1.11358348      -0.01651803       1.13209925
Na       0.46483443      17.93028052      68.33763402       1.26388089      -0.30905256       0.75585838
Na      -0.28836215      11.91544351      69.18126796      -0.69602141      -0.19193081       0.46568059
Na       3.89823488      18.71023151      65.15406836      -0.76111174       0.60949540      -0.09211699
Na      14.25108101      25.16240050      60.37776522      -0.27350951       0.75152871      -0.35604062
Na       4.23652271      21.85690669      63.03491025       0.65945904       0.29946856      -0.90115327
Na       3.96231750      21.87991528      59.40177306       0.04996535      -0.74462917      -0.40249061
Na      14.98595730      25.67301435      64.11955257       0.42599998       1.35846074       0.94342327
Na      15.00672204      21.35248800      63.31784909      -1.13094466       0.82299345      -0.55382649
Na       3.16255472      25.53177875      57.40322644      -0.08709084       0.13091117      -0.56212231
Na      10.88152655      24.80686946      65.40089913      -0.56906350      -0.87924937       0.73880754
Na       0.88885878      21.04126659      73.81879561      -0.98115420      -0.84387384       0.19465655
Na       1.90018938      23.57815788      68.75357365      -1.16108541      -0.38072380      -0.93216901
Na      13.49444423      27.03106782      70.17985489      -0.02306647       0.58146903       1.35769218
Na      18.48431209      27.06177466      67.94928683      -0.39016519       0.09241036       1.18597509
Na       0.77509972      25.49742561      64.67709419      -0.60394047       1.01887711      -0.87622866
Na       7.09458537      17.92930996      57.08847079      -0.42638751      -0.28929184       0.25334212
Na      10.74053257      28.31174658      63.07608625       0.28102507      -1.38974154      -0.05181442
Na      10.70081203      14.70164025      60.46185811      -0.22002753       0.22991874       0.65740081
Na       7.52306201      18.00444091      60.39760866      -1.34312379      -0.08712204       0.65819746
Na       7.04985307      28.62079339      61.60192097      -1.46002125      -0.58521131      -0.05146033
Na      14.84662990      13.95603854      70.73001809      -0.15307844       0.40675824       3.30622415
Na       7.25133182      18.15839880      64.61414441      -0.74261340       0.63787216       0.18957762
Na       9.21253180      12.75302709      73.09393305       2.37871992      -1.54225457      -0.97586822
Na      11.38488842      31.29092842      69.16676184      -0.45590324       0.24244399      -0.70307799
Na       8.20100802      18.39524870      67.94692672       0.03953018      -0.26526018      -1.24214804
Na      10.82143747      28.86335302      66.05387321      -1.01369184       1.68032007       1.01393923
Na      10.82439148      18.13663443      64.94760686      -0.42882214       0.17153026       0.67932741
Na       6.99009728      25.15380848      59.08473706      -0.19340577       0.10983997      -0.07144191
Na      11.35181990      21.67882975      64.68351611       0.15254032       0.22132149       0.38336853
Na      11.54393599      21.68280134      60.78657102       0.65913010       1.10526408       0.83569576
Na       7.12271511      24.82198009      63.09646518      -1.13193511      -0.17246966      -0.64163649
Na       7.64216447      21.46542346      61.22869419      -0.60223620       0.99432464      -0.85428783
Na      10.31439589      24.79684811      57.09711038       1.02674079       0.14694362      -0.28253446
Na       3.74107918      24.54095364      65.53065030       0.74970517       1.00537765      -0.16074367
Na      15.86423342      22.36828665      70.41192480      -0.52411689       0.45696539      -1.32423003
Na      11.48058538      20.89452737      68.83549853      -0.45365285       1.25885219       1.96967072
Na       8.86637310      22.99771785      69.59556672       0.35708709      -0.05237804       0.07575120
Na       3.91967167      21.40728848      67.21748884       0.52282743      -0.24991091      -0.99059212
Na       7.59669860      24.95647838      66.63128285       0.54819943      -0.15029431       0.17187881
S        1.61433044      15.84133682      58.40849976       1.18025662      -0.80346649      -1.74531167
S        2.04857740      20.45830405      64.97589314       2.03104826       1.32734885      -0.72133846
S        5.87024146      19.93234789      58.64348441       0.84578705       0.56225499       0.80465723
S        6.21823774      15.44037031      64.68957149      -0.87190953       0.73824681       0.83031981
S        4.62135446      16.93413392      59.91871135       1.43512561       1.86935667       0.57741821
S        5.44881031      19.44962582      62.90951141       0.02205829      -0.81840281       0.44702957
S        2.19172401      19.89616003      60.74550381      -0.73130308      -0.72822382      -1.68235748
S        2.33265428      16.81090630      62.82646840       0.43541303      -0.68481898       0.19622452
S        2.29627547      16.44891195      66.44210854      -2.38723036       0.04019208       1.39069018
S        2.49974667      19.48517755      75.54298048      -0.25517806      -1.58483033      -0.23451481
S        5.88410146      19.71720244      67.42890556      -0.42940678      -0.50744178      -0.56879258
S        5.26124981      16.17104902      76.00767995       0.43679032      -0.38412550      -0.55479598
S        5.82214938      16.45214260      70.08035492      -1.44026105       0.68594400      -1.08141663
S        6.34046452      19.18141993      73.09839823      -0.23452688      -0.31922417       1.22860035
S        2.58045453      18.32618419      70.71082752       1.33412847       0.06822333       0.49289185
S        2.43047474      14.68894067      70.16020091      -1.38554030      -0.35095133      -1.44986676
S        1.36273477      23.02730151      58.95234943      -0.56615348      -0.95370466       0.08637983
S        2.27137870      25.71295436      67.37722799       0.03821255      -1.20707650       0.06970562
S        5.17761454      27.21198429      58.82219140       1.03266763       1.44115952       0.88926015
S        6.01277697      23.07083580      65.35968813      -0.23284094       0.01281656       0.49949554
S        5.39492274      23.54260264      61.08883672      -2.07836602      -0.31878129      -0.42237143
S        4.84511943      26.68952080      63.19861280       0.40469289      -1.68404024       0.37760842
S        2.45617053      26.13871241      60.06241667      -0.51625371       1.78273685       0.48845686
S        2.13714717      23.71592085      63.06170135      -0.07704083       0.76007936       0.15479048
S        1.00227342      22.97316679      71.46265700       0.03935005       1.21137631      -0.54113337
S        0.95829574      26.82142008      78.01813915      -0.34722552       1.90062093       0.46746336
S        7.36258374      25.81607992      69.21520229       0.32625568      -0.38608276       0.33701951
S        6.10657579      23.05734113      76.14199533      -0.11139134      -0.84605524      -0.22453007
S        4.30744511      22.56080970      69.81028863      -0.03493566       0.68183094      -0.48235841
S        8.35245406      23.00921199      72.23325127      -0.51672390       1.58525526      -0.49132693
S        3.83436583      25.17827361      72.66262432       0.97355912      -0.86262362       0.54539885
S        0.72375177      22.82665450      75.80566712      -1.02044888       0.32987787       0.29512264
S        8.64144368      16.05135457      58.73997575       0.37647615       1.36537379      -0.20604775
S        8.85383201      20.50223494      65.62780854      -0.03930786       0.07846019      -1.46903478
S       13.17419759      20.45107716      58.77222410       1.07108886       1.52925704      -0.37410899
S       13.23377329      15.61393396      65.86544371       0.14068146      -0.71180907       0.28474238
S       12.47968839      16.68430235      60.52552790       1.34997850      -0.70641417       0.01103511
S       12.30926221      19.64013334      63.14280976       0.62796949       0.09762503      -1.13653124
S        9.71084628      19.50954977      60.07827316      -1.01126689      -0.83606625      -0.69691058
S        9.08664802      16.96622332      62.78526220      -1.74193505      -0.05374505      -0.83025199
S        9.43862139      16.32266888      66.60027803       1.65538850       0.52134383       0.06837647
S        9.12014135      16.24123765      78.28360343       0.52587709       0.43940754       0.64118467
S       12.95217438      19.34534740      66.98570359      -0.45300841       1.05257130      -1.24421522
S       13.63747638      16.47178935      75.28986897      -0.24652287       0.63751169       1.80581557
S       12.97198934      16.85679464      70.36286138      -2.87586147       0.69858951       1.10467891
S       13.32947523      20.54993516      71.08807701      -0.28448287      -0.45167636       0.15262485
S        9.80873235      19.11036742      70.19376214      -0.01440873      -1.30150673      -0.82784432
S        9.20182024      15.71344512      73.75434823      -0.98989123       0.40012046       1.09184949
S        8.58641798      22.68709872      58.85141408      -0.65913451       0.53453403       0.60217450
S        8.80494073      27.04049983      65.32185263      -0.90295968      -2.05135705      -0.57859048
S       12.87700299      27.31042684      58.76609801      -2.19858545      -1.31798124      -1.17123052
S       13.63739530      22.88048899      65.19201580       0.52552274      -1.78454775       0.83173835
S       11.66900119      24.19193473      59.52092161       0.61850920      -0.38615184       0.25254715
S       12.01880374      25.79816754      63.17522475      -0.45011198      -0.05390926       0.04181374
S        8.76203296      26.44602979      61.05128101      -1.36734684       0.32278815      -0.01733551
S        9.45972614      22.97361078      62.69985405       0.79221148      -0.72159551       0.04371976
S       11.00945229      23.43450339      67.96937470      -0.77055075       0.69131714      -0.35382066
S        9.01866198      26.36764016      75.01287837       1.70977797       0.89024822      -0.91624468
S       12.69761093      28.94417359      68.26399300       0.58192447      -1.25446229       0.82547328
S       12.44357402      23.79786322      74.90450204      -0.73265091       0.42106138      -0.50753018
S       14.36753988      24.59975159      69.73629649      -0.30393445      -0.55897268      -0.24210010
S       13.68951922      27.77857498      72.86164254       1.56168593      -2.03593192       1.21472468
S       11.01719763      26.07405584      70.72588317       0.43223419       2.78146230      -0.07245706
S       10.07896767      20.09648833      75.12752096      -0.68738507       0.70700548       0.13351707
Sb       1.11425444      14.56800468      76.28313557       1.23286029      -0.25722626      -3.81554512
Sb       3.67000585      18.28403045      61.63253302       0.82269205      -1.16361790       0.76035748
Sb      -0.65301078      28.69927321      65.68694121      -0.13114111       1.46126650       3.32459131
Sb       3.81590350      16.25486925      71.38944690       0.30794760       2.32383331      -1.14663216
Sb      -0.03237368      21.43874306      57.82322428      -3.69476498      -1.30870950      -0.19170708
Sb       3.69699597      25.14202147      61.86224920       4.00625186      -0.07962005       0.37175281
Sb       0.49042856      21.58287993      66.54044987       0.68943570       2.65264224       0.94298461
Sb       3.37301621      22.84006933      72.08320681      -3.79263504       2.75718152      -1.79818629
Sb       6.77683854      28.52994708      57.82834146       0.50763937       2.99795415       1.44838292
Sb      10.95398600      18.12633499      61.70641911      -1.19387109       2.84912531      -0.10988692
Sb       7.40722505      14.68293781      66.66910089      -1.18412558       1.10516050       0.41658746
Sb      11.95097870      18.66734986      71.54984775      -2.62699134      -2.56706322      -1.11587170
Sb       7.06969697      21.58777663      57.48512499      -3.59726393       0.41072703      -3.36864637
Sb      10.47861592      24.91963274      61.47299589      -1.34760905       0.97885908      -2.47940255
Sb       7.23770628      21.65680205      66.92451111       2.81150228      -0.58519271      -3.89889036
Sb      12.02563922      23.98804116      70.09906534       0.51897821       2.59918533       0.60759169
Na      29.83310634       4.47122155      27.41774620       1.34900881      -0.04008899       0.79872513
Na      17.72648621      14.08391551      32.41193763      -1.77340946       0.99072517       0.93927214
Na      16.41638541       1.14801750      31.52860227      -0.90071143      -0.40721652      -0.41226889
Na      14.42714483       3.56622702      30.34546322      -0.70560481       0.97681962      -0.06699996
Na      28.77475927      13.81588151      29.12640253      -0.52740011      -0.72442552      -0.35709229
Na      16.35523811       4.95346858      24.50715593       0.60253377      -0.55543197       0.02613409
Na      14.59614678       3.96608832      33.96439398       0.27336933      -1.14486940       0.85966265
Na      17.55175927       0.23316079      41.78463124       0.07151107       0.40377901      -1.23835550
Na      17.84367751       0.05640941      38.26367120      -0.22232624       0.39167548       0.46857611
Na      14.01893693       3.93991129      38.81887766      -0.92213421      -0.13982899      -0.13081543
Na      14.51378584       0.68287319      36.63102242      -0.50495908       0.09961339       0.37333425
Na      17.58331995       3.17866765      33.97667570      -0.79607838      -0.65798444      -0.10395866
Na      28.77367999      11.46741652      26.21916542       0.38093087       0.06986910       1.42379007
Na      17.58543266       7.46520030      32.56197695       1.47088146       1.06408023      -1.11895699
Na      16.51463814       7.96306131      25.67864506       0.11023164      -0.83545741       0.51592550
Na      28.38027995      10.99920487      32.03958846       0.07814194      -0.16396383       1.15243343
Na      28.98859501       8.23971174      29.67383095       0.29094735      -1.51516184       0.26014204
Na      18.67717112       8.77844410      23.56837787       0.37053875      -0.87035196       1.47242139
Na      27.91073501      10.84476088      35.76130750      -0.30309332       0.54085381       0.08466072
Na      17.84070035       6.93719244      40.01896944      -0.28974356       0.17774826      -0.06580772
Na      17.99062334       6.98703632      35.96894099      -0.07622909      -0.73603651       0.36072728
Na      27.73869362      11.03117522      39.77392500       1.25138653       0.36119104       0.95544141
Na      28.12823955       7.04148687      37.34386303      -0.82039525       1.54084337      -0.66595941
Na      17.59103351      11.23724640      33.77050307      -0.07749052       0.16348044      -0.73373557
Na      21.08171351       2.93157270      30.45205680      -0.33378071       0.43493933       0.64845711
Na      24.85604442      13.86866871      32.22533380      -0.14307326      -0.21681415      -0.34924676
Na      25.69997249      -1.07018059      30.91775780      -0.33594104      -0.40707091      -0.32517665
Na      17.77604396       3.88645393      30.66779381       0.30005102      -1.60740590       1.15181035
Na      21.81593485      13.14528355      29.71386179       0.00210102       0.30280922       0.22188138
Na      25.59092451       2.97122257      41.62474824       1.22788074      -0.93008890      -1.13925140
Na      20.72939887       3.04692745      33.85285605       0.86858974       0.22073079       0.11838193
Na      24.82969709      -0.33473969      42.41859410       2.20261922      -1.79970431       0.13273780
Na      24.63853136      13.82277994      35.60765207      -0.90209994      -0.15762784       0.60648302
Na      21.16037250       3.25561207      38.28105104       0.20087375       0.73696072       0.46774145
Na      21.19281849      13.44148178      37.14554484       0.74355277      -0.71476095      -0.11477119
Na      24.15931152       2.83496058      33.85317842      -0.52365009       0.43536693      -0.24440324
Na      24.91007922       6.35131450      28.07169405      -0.47143561      -1.55561744       1.42548594
Na      24.41382227       6.57121284      31.62919582       0.14222220      -0.60985424       1.13620154
Na      27.26045893       6.06069184      26.30911201       0.81002262       1.37381627       0.18478588
Na      21.88527448       9.46080950      31.43527691       0.67461918      -1.37595608      -0.49913639
Na      21.23077136       5.30156700      28.24711894       0.91882296      -0.13446232       0.38144742
Na      25.42396066      10.84472470      25.63176346      -0.54150211      -0.24198602      -0.07047409
Na      20.75321423      10.56948618      34.38342405       0.25292152       0.52613414       0.71478657
Na      24.52485699       6.92190788      39.70733682      -0.32045894       0.57185242       0.89603335
Na      24.46603754       6.62314992      35.29516556       0.31689425       1.22973594       0.78993173
Na      20.96463721      10.57289744      38.72172117       0.41318284       1.24489766       0.83214984
Na      21.31669098       6.62364587      36.27848034      -0.89028733      -0.64585210       0.98595268
Na      24.90673853      10.32104265      33.23327914      -1.35793732       0.76528262      -0.75598477
S       16.81416551       2.09147934      24.11632196      -0.88936320       0.39592745      -0.57246358
S       15.85290328       5.16297141      31.97374755       0.58119872      -0.28720637      -0.47182259
S       17.68911003       5.66466332      21.57236526       0.30219089      -1.31665319      -0.61066596
S       18.90900041       1.85649437      31.90164722      -0.73378783      -1.24350834       0.62497244
S       20.10449333       2.83715941      27.77206597      -0.56953904      -0.01277182       0.58840848
S       18.42414828       5.91810521      29.06512717       0.87752591       0.38701418       1.41292608
S       14.87787142       6.12271390      26.67163370       0.36163881      -0.03562886       1.01857714
S       16.37424712       2.74985459      28.46583431       0.23209856      -0.39674842       1.06112938
S       15.45754626       1.37035308      34.14087732       0.42914080      -0.07856051      -1.20538484
S       15.62130849       5.40810245      40.48774068       2.07344545       0.37053876      -2.19313381
S       19.63073202       5.57950474      34.36131009       0.16665225      -0.51430267      -1.01122236
S       20.04573797       1.31033501      40.12436502       2.22456695      -0.48040142      -0.81225355
S       19.05164633       1.80344098      36.26328787       0.09454060      -0.50552162      -0.61982743
S       18.92710499       4.61500256      38.98168706       0.46764918      -0.50606916       0.13640536
S       16.23150477       4.78075982      36.31497700       0.97272360       0.01297350      -0.72006606
S       16.00048693       2.03561785      38.71670588       1.46660227       0.68674301      -1.23043875
S       14.68020918       9.51018653      23.79089732       0.19197067      -0.61522195      -0.51637765
S       15.50271071      12.22371056      32.27961174      -0.11140429      -0.30915547       1.89260053
S       19.72590308       9.98563117      21.44726561      -0.53653244      -0.07079511      -1.21453880
S       19.21283353       9.87066807      31.97448668       0.69832370       0.47203141       0.39487521
S       21.28788174       6.16109510      25.48555051      -0.19347244      -0.57504655      -0.30820809
S       18.81131756      12.40119714      29.33949424      -0.62104536       0.50390925       0.49154154
S       18.53922371      10.05735820      25.90799755      -0.36632766      -1.33017063      -0.34815456
S       16.22929423       9.38026797      29.64504798       2.13765023       0.00726954       0.00951038
S       15.88824368       8.21607858      34.57435853      -0.63915747       1.46524911      -0.14992712
S       15.48278142      12.88245312      40.20441074       0.60248053      -0.02012232       1.28002126
S       19.74748995      13.33008406      34.44527729       0.91661790       0.18705638      -0.08045517
S       19.48087807       8.68002869      40.88065872      -0.14448743       0.47541075      -0.04251595
S       19.49570170       9.15634101      36.54568740       0.66476362      -1.76093952      -0.65433066
S       18.79902657      12.27438071      38.81270760       0.08865480      -1.14571573       0.52452938
S       16.13606308      11.87553419      36.32724459      -0.35898094       0.54471979      -0.19271293
S       16.47680105       9.14330146      38.89116397       0.32914727      -1.32382171      -0.30571220
S       21.62138099       1.79573062      23.46745128      -1.72683919       0.26470013       0.47553824
S       22.49156513       4.61892827      32.18099465       1.60057337      -0.34982321      -0.53125012
S       29.56091930       6.07324403      24.80190982      -0.87976618       0.18484425       0.49900866
S       27.15372704       1.39171190      31.08116489      -0.07914016       0.06368716       0.92411800
S       30.21787067       1.82721626      27.55757629       0.64789899      -0.96966748       0.31623431
S       27.21375502       4.96408964      28.64974403      -0.28703094       0.59260951       0.81182047
S       25.59552345       3.83133730      25.40208608       2.51831796       1.45200824      -0.52881149
S       23.74848777       3.90412810      28.55088186      -1.44695304      -0.67598417      -0.14155819
S       22.42107632       0.78459898      34.30732842      -0.34424239       0.83826498      -0.27032592
S       22.08123009       5.72262017      39.84518893      -0.60776614       0.62863648       0.68812734
S       26.27702359       5.89776314      33.63008874       0.08642861       0.01666725      -0.02562343
S       26.95748366       0.86940906      40.20202356      -0.29519112      -0.21816151      -0.71222383
S       26.00600311       1.84172171      36.14132941      -1.00573925      -0.81953477      -0.30868311
S       26.27542268       4.98261686      38.37693080      -0.74395401      -1.34735706       0.10743982
S       23.09042513       4.33324140      36.00811572       0.07795272       0.91009441       0.39510616
S       23.81781822       2.36050312      39.40653928      -0.09742890       0.12554936       0.71489795
S       23.64211357       6.78337339      21.67372418       0.30851084       0.67385082       0.19775565
S       23.39807509      15.19925466      28.80594801       0.01761799      -0.67550425       0.54739322
S       26.88490022      13.38907927      26.65376479       0.61525340       2.03037375       0.85762115
S       27.05762777       8.79764440      31.34761590      -1.34812865      -0.93623254      -0.49626382
S       25.42238020       8.12995072      25.57368650      -0.46470716      -0.74253839      -0.37546197
S       23.92581017      11.46333491      30.78013822       1.23008128       1.21719939       0.13735685
S       22.97459800      10.90156552      27.24138788      -0.49510605       0.17728538      -1.41650756
S       22.81002215       7.91162912      29.36092643      -0.65161537       0.35172510       0.91925603
S       22.47147435       7.95252337      33.96464077      -1.03368463      -0.88359435      -0.01938557
S       22.65141125      12.51865463      39.81150676       0.03271398       0.08121167      -1.54680348
S       26.54440819      12.50189458      33.76562724      -0.59204782       0.75221273       1.22128452
S       26.90142836       8.28139313      39.84462087      -0.35111846      -0.15345781      -0.72590352
S       25.54969398       9.11594518      35.63478999      -0.07943645       1.00169884       0.04130042
S       26.11970162      12.16642911      37.92808462      -0.20356613       0.58515462      -0.56983431
S       22.72044585      11.72935120      35.79884944      -0.46379736      -0.27934313       0.23163287
S       23.54458403       9.31196644      38.78510827       1.52316533       0.55331364      -1.13855550
Sb      14.02741733      -0.02856469      41.58457724      -2.53430085      -0.20198081       2.25134970
Sb      18.00255404       4.21425268      27.31036564       1.45686910       0.80022954      -0.37557533
Sb      13.96787724      14.02991744      32.95420731      -0.16877766      -1.11366591      -1.96690268
Sb      17.58599311       3.30547485      37.56405034      -1.44404544      -1.03161297       1.31189652
Sb      16.24523272       7.68676768      22.54179960      -1.71377844       1.38425549       0.72820738
Sb      18.63603318      10.03698853      29.62582743       0.77740205      -1.94302869       0.68859767
Sb      14.15358309       7.31876935      32.98120956       1.84669316      -0.29146870       0.78623773
Sb      17.75784998      10.54072822      37.48605058       1.12412948      -0.11287405      -0.28492883
Sb      22.11589013      10.93354022      22.23634803       0.89310164       2.40124631      -1.48243194
Sb      25.80275333       3.11598765      27.77812803      -1.75440254      -1.43004470      -2.07937751
Sb      21.51001580      -0.47578866      32.37302495       1.00712760      -2.69234244      -1.91583490
Sb      24.70646324       3.38856825      37.50449137      -1.53723525      -1.15830359       0.37125753
Sb      19.41364951       5.82992541      23.62830341       2.65647819       1.82026909      -1.67353536
Sb      24.37757628       9.79429446      28.97230841      -1.22572594       2.53537287       0.17025009
Sb      20.99982548       6.59236034      32.65776268       2.25566877       0.24171567       2.18977213
Sb      24.44199488      10.60206138      37.09146474       0.92141275       0.75801557       0.79515705
Na      28.45265831       3.40234761      40.02705898      -0.86603282      -0.88637011      -0.40057708
Na      17.63054550      14.32223255      48.44907705      -0.24690283       0.06569009      -0.79387406
Na      17.33464496      -0.12845329      44.81822206       1.02661643       1.33159844      -0.46388106
Na      14.04827858       3.60905717      48.26235802       1.48420550       0.56927739      -0.54134879
Na      28.25009161      14.60447754      46.10443608       0.93994336      -0.47244727      -0.90241346
Na      18.05285037       3.89884198      42.26340578       0.35001669      -0.04937010      -0.87573263
Na      13.92448448       4.13042008      52.53102592       0.22081035      -0.11790074       0.36745793
Na      17.51898597       0.64676012      55.92544527       0.00636424      -1.77659663       1.19304247
Na      17.04961747       0.28757310      52.15290680       0.47440573       0.39965100       0.74540087
Na      13.44274175       0.38410781      53.75850097      -0.95581254      -2.18640313      -0.13229974
Na      14.24532782      -3.24830761      53.31388885       0.54590288       0.07219277      -0.90179365
Na      17.19200998       3.79044194      49.61533794      -1.03675153      -0.96058479       0.23682135
Na      27.89560282      11.32190855      43.90462371       0.23625633      -0.80790318       2.13760202
Na      18.09967743       7.24723048      47.23259733      -0.11680474       0.05797612      -0.71997367
Na      17.98370193       7.46987144      43.22147280      -1.25730258       0.29136408      -0.00203065
Na      28.38195893      10.72337922      46.75167155      -1.53642632      -0.94635631       0.56906955
Na      28.69191628       6.67428471      45.10935937      -0.64091582       0.70741223       0.20728080
Na      17.77980984      11.24534101      41.36122790      -0.02954181      -0.83820651      -0.97186752
Na      28.34627471      10.84785986      50.50432654       0.08378172       0.33474245      -0.14967952
Na      18.06955359       7.24370070      54.86004385      -0.22200722      -0.30419200      -0.39816924
Na      17.89555196       7.35716831      50.69526521      -0.04127922       0.01341661      -0.47479816
Na      28.22559618      10.49753102      54.03448175      -0.15209084       0.04715368      -0.26971971
Na      28.89054382       6.87735188      53.53044015       0.04562399       0.50990892      -0.20802007
Na      17.51908502      10.74939793      49.34808209      -0.49533105      -0.03786532       0.36804650
Na      21.95124046       3.66710686      41.55832423       0.13699179       0.65148143      -1.48780917
Na      24.83538982      14.41674843      48.15822406       0.05831864       0.69043772      -0.09779337
Na      24.41480199      -0.22889306      46.52379762       1.58065091      -0.29465973      -0.49356898
Na      21.15825373       3.53716927      45.97997868       1.61443930       0.91115931      -0.56004648
Na      21.88853885      14.13992990      46.04114343      -0.25191910      -0.91087672       0.01512535
Na      24.94638926       3.06528929      58.54247185      -0.99987570      -0.34157451      -0.50392572
Na      20.63779761       3.39647248      49.54661160      -1.39206280       0.58082012       0.57451690
Na      24.62010881      -0.42639577      57.27847358      -0.32040108       1.04217263       0.51514116
Na      24.90330485      14.42228900      52.20880593      -0.89523859       1.20326278       0.11295387
Na      20.93692406       3.76741706      53.80274074       0.00892726       0.32383748      -0.82313226
Na      21.29049131      13.51698152      54.26227537      -0.36973628       0.28305235       0.28378842
Na      24.51192983       3.99601713      49.70797158       0.33455194      -0.78651960      -1.01374985
Na      21.00486732      10.49783832      42.97064731       1.66882332      -1.06303803      -0.74403647
Na      24.80459769       6.99833965      47.51971544      -0.76661857       0.30527719       0.26692167
Na      24.98954604       6.83906669      43.70143897       0.71437267       0.75812379      -1.02496531
Na      21.02273732      10.63202918      47.06588662      -0.13894680       0.25642841      -1.75519197
Na      21.73068714       7.13642324      45.46162947       0.24641546       0.95841260      -0.75643849
Na      24.24881461      10.51991082      41.47805940      -0.25834703      -0.35244666      -0.93481168
Na      21.13950046      10.60488332      50.96279216       0.07800685      -0.26633857      -0.14993231
Na      24.49751575       6.51056367      56.40256186      -0.62867189       0.37180814       0.46001599
Na      25.21266288       6.70148941      52.32993052       1.07199946      -0.92668318      -1.09635190
Na      21.24968197      10.27173679      54.98154608       0.31761580       0.98270800      -0.20947541
Na      21.81791132       7.25677228      53.20387442       1.72847631       0.41733248       0.85878959
Na      24.44997033      10.42881641      49.24029978       0.59603037       0.26242278      -1.55022281
S       15.41044568       1.10313422      43.24692113       0.51540278       0.03653922      -0.06343464
S       15.83136450       6.04871707      48.59567618      -0.81293988       1.56670718      -0.38320841
S       20.10808459       5.62958022      43.10059323       0.67156719      -0.06224813       1.33544802
S       20.13221459       1.10404432      47.82970258       0.48553769      -0.63606683      -0.90433511
S       19.05502352       2.37555034      44.35855111      -2.23818939      -0.54732443       0.55663954
S       19.12536825       4.61311551      47.38117586      -0.04960485       0.89253984       1.25242065
S       16.51008623       5.33127463      44.50847616      -0.01013424       1.04353129       0.11166922
S       16.10008074       2.24533844      46.98002376       0.23188974      -1.76799281      -0.53717437
S       15.36661854       1.79746639      50.40303764      -1.82650453      -0.40371496       0.35499094
S       16.05052374       6.10763229      56.34343433      -1.75391366       0.75408610      -0.74147261
S       20.14995689       5.89397431      51.09429513      -1.69957975       0.90831410       1.14756898
S       19.91162107       1.64577808      56.24202911      -0.24433517      -0.41410597       0.13580324
S       18.88084138       2.38358111      52.12463127      -1.52847264       0.11647678      -0.52442921
S       18.65658442       4.47841194      55.23089641      -0.58233102       1.48560461      -0.02230607
S       16.18967311       5.40889641      52.23545987      -0.84367273       0.23171104      -1.34093126
S       15.83868634       2.07951509      54.29178382       0.96710614       0.09029966      -1.96863816
S       15.32501579       8.24020092      43.12655017       0.15465367      -0.06110002       0.55895108
S       15.06786041      13.09964976      47.57031179      -0.65179814       0.25079513       0.30648414
S       19.81723165      13.04649698      42.60254988       0.93845140      -0.21969486      -0.03474139
S       19.81915345       8.98880879      48.83090497       2.18289419      -0.27366060       0.65625981
S       19.37003842       9.23183542      44.85135667       0.34854710       0.51324871      -1.03900138
S       18.73754387      12.35291236      46.91688372       0.11162619      -0.48073034       0.49559194
S       16.53527661      11.92690507      44.01874480       0.19501592      -0.83312480       0.22308287
S       16.27159948       9.60964632      47.08745593       0.18204261       2.73808761       1.41109276
S       15.17448868       8.88105336      50.82428112       2.23077558      -0.14502630      -0.53912015
S       15.43896372      13.26430116      56.20197808       0.59806441       0.60160452      -0.47835497
S       19.93281888      13.22112284      51.18573402      -2.28424468       1.46826509      -0.31046351
S       19.67875026       8.81706113      57.01816602      -2.29620994      -0.25740696      -0.63661438
S       19.05587329       9.08443587      52.70753021      -0.85072252      -0.89064618      -0.15050441
S       18.80226969      12.09262046      55.06402509       0.09836730       0.05423466      -0.04163871
S       16.49908395      12.08602249      51.82518834       0.39850684      -0.84044186      -1.40147473
S       15.91795388       9.62930741      54.56756247      -1.49025660       1.69268226      -0.95049757
S       22.66129185       1.31773345      42.91983206       1.16942246      -0.36821423      -0.13483162
S       22.18789788       5.82760498      47.91329159      -0.83186868      -0.06938430       0.39402766
S       27.07357451       5.41244647      42.61883856      -0.12672966      -0.95176937      -1.01139478
S       26.71061772       1.24012694      48.51542250       1.41965505      -0.23095781      -0.58246001
S       26.17880503       1.78080504      44.36079820      -0.26840161       0.03481024      -0.06387646
S       26.37508411       5.04476926      46.34554263      -1.17659871      -0.41912245       0.89496814
S       23.27820619       4.64006817      44.12746606      -0.00822354       1.68478936       2.00296401
S       23.58245262       2.53155298      47.27414765       0.51362699      -0.06335008       0.51730707
S       22.60672516       1.25266366      50.96728568      -0.58950816      -0.56438834      -1.22216615
S       21.96578297       6.01896338      55.64150734       1.61395279      -0.99669002       0.63696784
S       26.88927367       5.49674971      50.54679800      -0.62424791      -1.66086544       0.22751035
S       26.81066630       1.39063808      56.61850964       0.03438188       0.97136038       0.42146676
S       25.94963895       2.13886626      52.44291685      -0.80845213      -0.18165870      -0.13805391
S       26.48706322       5.28807631      54.59626657       0.94795687      -0.54201317       2.23502133
S       23.24474579       4.90771503      52.27450177       0.20391831      -0.44186509      -0.05026906
S       23.40329258       2.66973767      55.30866192       0.21313862       1.10313233      -0.04910515
S       22.85643918       8.30910754      42.65561602      -0.64565208      -1.37354870      -0.55772011
S       22.57895273      12.54871919      48.35895142      -0.18444695      -0.12904906      -1.10587570
S       27.00598345      13.04844527      41.96540979       1.38033078       0.35931982       0.71945134
S       26.93584889       8.86190338      48.75444500       0.73285225       0.25183123       0.21145675
S       26.04905857       9.48173946      43.92683600       0.33102339      -0.40394930       0.02682686
S       26.19522479      12.30901168      46.20507335      -0.10367606       0.48612651       0.28133225
S       23.14548403      12.26155283      44.18568311      -1.00393387       0.23530589       0.17145004
S       23.45825820       9.16715797      46.53222684       0.05045144       0.63477649      -1.45759105
S       23.01700192       8.43556926      50.82426642      -0.59060967       0.84141730      -1.19681140
S       22.35107019      12.40593933      56.41813436       1.57801660      -1.16983614       0.57404754
S       27.21311442      13.32865246      51.30433510      -1.63186819       0.19379506       1.22904448
S       26.84703457       8.51692316      55.92318784      -0.10943438      -0.01884770       0.93429327
S       26.24644913       9.69417277      52.02836571       1.12734120       0.27398592      -0.89216440
S       26.11609312      11.85769859      55.03828790       0.72508624       1.61849192      -0.23827480
S       23.10518437      12.18625079      52.54518475      -0.11158739      -0.00971650       0.15249737
S       23.44736870       8.96411817      54.75417827       0.03623819       0.36658656       1.24430863
Sb      14.27954816       0.08043807      57.49508957      -2.59955152      -0.83237886       0.40926949
Sb      17.60434934       3.60413488      45.83139211       0.12075761       0.31230778       0.61134003
Sb      13.99679372      14.33113361      49.20850345       0.26955074       0.92823682      -1.21866656
Sb      17.29503826       3.72032318      53.44051616      -1.69329864      -2.35146736      -1.36733514
Sb      14.11935961       6.77690278      41.64254564      -0.98808206       1.41252237      -1.16581239
Sb      17.66413243      10.76480728      45.58356244       1.16843769       0.26424844      -0.18275489
Sb      14.08120091       7.25040872      49.58886254       2.37947566      -0.57068447      -0.87650333
Sb      17.70454188      10.81900103      53.53134850       1.04468536      -2.12098479      -2.26428879
Sb      21.42498297      14.02265170      41.09327917       2.74792203      -1.09176758       2.19272277
Sb      24.83469106       3.47439451      45.49415636       0.58898860       0.49281687      -0.06787118
Sb      21.31413209      -0.23038260      49.48426308       0.84883576      -2.03253123       0.63269175
Sb      24.72921467       3.74135614      53.68136139      -1.55771480      -0.27435717       2.75423754
Sb      21.17380447       7.06437139      41.46982445       2.44230133       1.00778404       0.15458050
Sb      24.67112008      10.75821630      45.19324578      -1.84041156      -2.28371140       2.41557389
Sb      21.34839486       7.30567474      49.59725113      -1.20765356      -2.58781757      -0.47973859
Sb      24.66765065      10.67935859      53.47906942      -0.26273525      -3.05874011       0.93425624
Na      28.19101694       3.76708668      55.79084428      -0.72772359      -0.80241147       0.52868844
Na      17.85519549      14.48712089      64.24685762       0.66284153      -0.55405390       0.68078429
Na      17.70701220      -0.16599083      60.17536592       0.47263598      -1.81082513      -0.95544595
Na      13.69241127       4.10270321      60.12326619      -0.00576557      -0.63320123       0.28307218
Na      27.51545646      14.35012735      62.65514255      -0.83719072       0.84798727      -0.73392001
Na      17.73108559       4.03699227      57.97853796      -0.59258845      -0.81741938       0.63793234
Na      14.32136053       3.72136214      63.72532070      -0.09881191      -0.95370270      -0.25652104
Na      16.31692506      -1.08636808      72.40843503      -0.74010940      -1.06302047       1.13272108
Na      16.99868650       2.09196119      66.25849336      -0.69715061       1.30832412      -1.36468393
Na      14.15595946       3.83363476      68.37722050       0.51773033      -1.04188803      -0.23851129
Na      18.01380110       1.68758688      70.28549032      -0.82828020      -0.78945964       0.60951109
Na      17.62563836       5.18950197      66.18925432      -0.04813748      -1.14705463       0.68399243
Na      27.84344915      10.75682205      58.18255736       0.34158535      -0.01583285      -0.69060059
Na      17.89952220       7.16570071      62.85036906      -0.39925714       0.70684004      -0.78005152
Na      17.96763741       7.44288293      59.36597269       0.77275843       1.09715038       0.98756119
Na      28.44667962      10.98260041      61.72506808      -1.29586623      -1.43573188      -0.12000421
Na      28.60628930       7.02736282      61.04568023       0.07061773       0.70462583      -0.26873552
Na      17.51161577      10.92150395      57.27405423      -1.20971520       0.05094237      -0.92220869
Na      28.29401313      11.12347843      65.94818771      -0.01361610      -0.99485083       0.04064924
Na      16.73102152      10.09369252      72.65963756      -0.25152231       4.97351693      -0.43938657
Na      18.49731352       8.51505291      66.51643331       0.60635000       0.94469625      -0.53618949
Na      25.51558090       9.70081372      67.95311034      -1.54873335       0.57114337       1.14601922
Na      24.55394350       8.31029965      70.88543391      -1.56247163       1.39619699       0.22968049
Na      18.32180448      11.58783712      65.86925482       0.11126777       0.53354244       1.35820988
Na      21.21416253       3.49032474      57.82973315      -0.39004689      -0.76670879      -1.05697137
Na      24.76091352      14.82335034      65.61103082       0.28241902       0.66731084      -1.62791872
Na      24.66287343       0.02780014      60.62238933       0.02059449       0.05388697      -0.25883505
Na      21.43976722       2.82475911      62.02495805       0.75462044       1.49424390      -0.97116815
Na      21.81444237      13.80333638      63.13043632       0.87599348       1.29950849      -0.12133291
Na      27.93418984       6.42933328      72.20278170      -0.66236629      -0.33514538      -0.72488837
Na      21.00434630       3.93442025      65.42169121      -0.04128976      -0.49265562      -1.67077810
Na      26.24486682       0.70469806      71.13980360      -0.60065493       0.16306185      -0.29376485
Na      23.49768813      12.75024538      68.46677311      -1.25639040       0.14662708       1.70317999
Na      23.31831763       1.75407052      70.24227684       0.02200840      -0.22879463      -0.68878803
Na      20.95496050      15.43559854      70.02814157      -6.09030144      -5.59223853       2.18378197
Na      23.79878000       2.24292719      65.04492052       0.15674429      -0.70413630       0.45925137
Na      20.91362890      10.60014106      59.06114460      -1.27962367      -1.39714999       0.01130633
Na      25.28662147       7.14229706      64.30154196      -0.13636947       0.37774662      -0.46109316
Na      24.96369532       7.11070132      60.51162163       0.44215594       0.52516267      -0.23987942
Na      21.40514019      10.14661105      62.63359769       1.60891287       0.17682493       1.64169103
Na      21.36480682       6.49265816      61.33326735       0.56969263       0.00625078       0.54604012
Na      24.61074310       9.73118358      57.00097588      -0.84839215      -0.14895536      -0.49204338
Na      21.51296967      10.89196948      66.17572095      -1.34096937      -2.04540397      -0.63669840
Na      27.53787749      10.47714285      71.85018608      -1.77864846      -0.87821347       1.09865269
Na      25.48559963       4.53102397      66.85026995       0.36806927       0.72918598      -0.25409426
Na      17.91655852       9.77698937      70.25323952      -1.10413234       3.50912548       2.79970800
Na      21.47134885       8.98313714      69.76293044      -1.00706749       0.82144985       1.91294053
Na      24.93239725      11.15646920      65.00487783       0.54493109      -0.44047565       0.61434657
S       15.75687672       1.51058156      58.65808437      -1.95238386      -0.80558673      -0.30202663
S       15.42162490       5.95021335      64.53395931      -0.57335847      -1.37657182       0.64076631
S       19.96569468       5.41706176      58.85862247      -0.62870875       0.46713521       0.74150572
S       19.52923275       1.46320426      65.41286821       0.05343875       1.23147851      -1.16477284
S       19.09075851       2.38091587      60.24456145       2.07369099      -0.59864282       2.41365758
S       19.30649212       4.73864243      63.22175318       1.41295216       1.23291564      -0.54329897
S       16.40276569       5.22590323      60.63444002      -0.39013746       1.47929408       2.45980695
S       16.61825683       2.15469410      63.14979634       0.48104178       0.43554258       1.19535211
S       16.90522988       3.63961652      68.34847599      -1.37667872      -2.20499862       0.54191344
S       14.69361064       5.93738243      75.00105134      -0.44156041       0.79610272       0.13038249
S       20.22403610       6.13853269      67.11168679      -0.01336768      -0.69621121       0.94193280
S       25.15861597       0.46807865      74.64346027       0.43634076       0.11729791      -0.95945757
S       20.92910860       1.06677966      74.98115662       0.02874519      -0.46153331       0.92640263
S       19.46384445       5.98081194      75.01667954      -0.70394667      -1.36009887       2.22524697
S       17.22098546       6.34598831      71.56920762       0.36329730      -2.01682223       0.37593821
S       16.48861833       2.24376650      72.66694531      -0.14721014       0.55330673      -0.12740791
S       15.57318008       9.24554250      58.66466253      -0.84622094       0.12845208      -0.08296413
S       15.93203360      12.88503034      66.09644135       0.28295570       1.74990384      -2.43165806
S       19.45138585      13.04634095      58.94871621       0.03428298       0.28908550      -0.28127146
S       19.53897579      10.64366262      67.88342372      -0.80934867      -0.96224310      -6.55218096
S       19.39801349       8.75530222      61.30831890      -1.83487797      -0.19718748      -1.14503899
S       19.59102590      12.02929249      63.62011167      -2.13998468       0.29749011      -1.53742685
S       16.31679472      12.99123643      62.27621788      -0.73278089       0.13681419      -1.00527682
S       16.81632018       9.69349891      64.33005850       0.03285846      -1.03884155      -1.23532469
S       16.13805944       8.05254129      67.77793042      -0.67070086      -3.28945400      -0.68371408
S       15.31721559      12.57992524      78.14053811      -0.70150372       0.42764930      -0.89834676
S       18.57664549      13.83420410      71.40944115     -16.57768622      -7.99450697      12.22944187
S       19.57024801      10.44286487      72.31275054       3.32356251      -1.77053894       0.55913860
S       16.64932756      12.47939396      71.59505940      12.48772588       0.95082813       3.23116159
S       19.16630027      13.12856412      74.57852666      -6.56690967       4.19021614      -4.64214181
S       17.15754024      14.14560250      72.32252071       6.76409200      11.21336658      11.76542732
S       16.74661312       9.50817596      75.47584660      -0.69838702      -1.97936928       1.75394872
S       22.58466554       0.96068855      58.79287235      -0.09569392      -0.49654618      -0.45134759
S       23.34968575       5.35616585      65.03802345       0.32244728      -0.87191878       1.17850803
S       26.87871595       5.68850525      58.65203653       0.51816311       0.96961440       0.58186280
S       27.18319313       2.41162439      65.77244271      -0.55705956       0.03370126       0.76468169
S       26.38418646       2.16848056      60.89052982      -1.12359990       0.10301549       0.15576982
S       26.74097925       5.50598542      62.69597659       0.07641671       1.43156924      -2.03784733
S       23.47003588       4.55518147      60.33457055      -0.70544337       0.73647309      -0.15417210
S       23.13869897       0.84831947      63.06361543      -0.71790704       0.01663511      -0.34061052
S       22.70026431       2.10381984      67.63101240      -0.40794532      -0.14173541      -0.52800972
S       23.13838767       7.01123680      78.76972304      -0.78709638      -0.80451062      -0.03191004
S       25.17665843       3.44486214      69.64969307      -1.39386773      -1.26876483       0.44837814
S       27.55906815       2.97119939      78.40955629      -0.77427243      -1.72860865      -0.34358644
S       28.18556419       3.81605077      74.06284277       1.42198840       0.76580631      -0.15219286
S       30.64353031       6.59248702      72.56178872      -1.21110093      -0.25546067       0.36465828
S       22.21868079       6.67147523      71.05241481       2.06035993       0.46533881       0.15232558
S       23.53784798       4.75679357      74.62067712      -0.19373542       0.49233879       0.45104512
S       22.80157294       8.23442802      58.71204709       0.17879307      -1.68828707      -1.85110973
S       22.68208722      13.20724682      65.66717992      -1.78216033       0.03118930      -0.55213198
S       27.23620057      13.36457705      59.54912910      -0.01138828       1.17611619       0.36444158
S       27.43941785       8.14221893      66.13409695       0.67939363      -0.26077401      -0.27971522
S       26.55546465       9.37970602      60.04921791      -0.53731281       0.77213085       0.75715480
S       26.28557711      11.89051219      62.87354143       0.00632276      -0.40362615       0.84523088
S       23.07337773      11.82030906      60.96589368      -1.20261413       1.40165668       0.80544387
S       23.94836773       8.82807642      62.94348908       0.99044692      -2.17934962       0.04839120
S       23.24088568       8.63905579      66.89390148      -0.05553222       1.17075789      -1.72435925
S       24.73568355      13.36832754      74.40993927      -3.97580360       1.79006333      -1.36868630
S       26.16167858      12.35218934      67.11534935       0.10850438      -0.51736007      -0.07104090
S       27.24091368      10.67123164      77.61482375      -0.50099638       0.79744610       1.80369569
S       25.98426063       8.24525232      73.44038542      -0.03798231       0.39268506      -1.08866070
S       27.07316059      13.09354498      71.14286827      -0.18683835      -0.52497628       1.48187227
S       23.81911934      10.80741541      70.16946151       2.69109587       0.46829965      -0.20738226
S       22.53576454       9.38062327      75.46979254       2.32115491      -2.05289333       1.86095873
Sb      10.26438906       2.44957935      76.30663870      -0.79992221      -2.55418194       1.07150878
Sb      17.81879518       3.62377316      61.76794449       0.86307713      -0.48308914      -4.47501973
Sb      14.72928128      14.63363697      67.48910082       0.14044020       1.61381886      -1.06468559
Sb      20.92191693       2.27561842      72.60380294       0.28771477      -3.62147041       1.14421677
Sb      14.37704334       7.51515933      57.38899816       0.78790792       0.82815263      -0.96302698
Sb      17.90657177      10.74665323      62.27621189       0.35712978       0.84076650       0.54522155
Sb      14.31645915       6.62825761      66.57534694       1.79719260      -1.74275018       0.20810575
Sb      18.77421712      12.25174961      72.57184976      18.98082502     -21.42313450       0.22616732
Sb      21.30106588      14.11347775      57.73277347      -0.78573660      -2.11049766       0.79889917
Sb      24.94066824       3.77586450      62.15796223       2.42660766       1.96806383      -2.22184844
Sb      20.45736297       1.11335820      67.63982580      -1.49374074      -2.79829944       3.36865574
Sb      26.82542868       3.66702932      71.63234677      -0.97354327      -0.77241925       0.76847992
Sb      21.08778058       7.03428637      57.55561919      -1.02936598      -0.79863773      -2.26387556
Sb      24.90941037      10.46623618      61.58387060       0.37244650      -2.04385670       0.95120861
Sb      21.76366086       7.27947237      65.52236119      -0.94114427      -2.29073032       1.04338044
Sb      24.65533993      12.46189656      71.89185751      -1.02991272       1.79633240       1.03149002
Na      30.05768424      16.25375206      31.27154982       1.16766890       2.20727334       0.09525221
Na      17.36075472      28.00940931      34.26965934       0.90456793      -0.14133439       0.71390015
Na      16.08575708      12.26764875      29.39684345       0.42608324      -0.84442637       1.14357532
Na      14.41105294      17.69323716      32.04810296       0.50288856      -0.33196960      -0.92672254
Na      28.11916681      29.42342890      28.68881869      -0.58360236      -1.31745830       0.86325810
Na      17.75163948      15.09913168      24.66364645      -0.29308129      -0.96674296      -0.98479070
Na      14.55647199      17.13965217      35.40684322       0.57919123       0.11848921       0.40882664
Na      17.61982503      14.64936514      40.18507487      -0.58135349       0.79803353       0.14395472
Na      17.42964326      14.56050061      36.52799906      -0.08566438      -0.00094416      -0.77099936
Na      13.98730211      17.82290607      38.97624413       0.82041346      -1.04714369      -2.13317206
Na      14.09987132      14.21063395      37.58963808       0.68690189       1.27282254      -0.74686583
Na      18.05576891      17.88184086      33.60684261      -0.30785586       0.76099139      -0.22979142
Na      29.22351700      25.57058863      27.25174399      -0.20488161      -2.01819907      -0.58570877
Na      17.66599789      21.80306923      34.87449647      -0.10670759       0.04488296       0.80302911
Na      19.20310265      23.27767068      28.36228872       0.15986275      -0.66217747      -0.76083683
Na      28.74417027      25.09192121      31.14662074       0.44103121      -0.69615352       0.59323215
Na      28.37596731      17.59139141      28.83207551       0.25507349      -0.80659322      -0.03472096
Na      21.31537391      20.51110805      27.98730012       0.42787147       0.25446002      -0.29487451
Na      28.51253670      25.55901417      34.47720208       1.69435877       0.28838768       0.37001239
Na      17.71782510      20.92609048      41.99131472       0.87414441       0.07503789       2.16532699
Na      18.39459809      21.55370320      38.49450019       0.44595217       1.00003431       1.23555048
Na      28.62480895      25.25847739      38.58049873      -1.36551692      -0.55101882       0.16735122
Na      29.96252191      22.29340713      36.00027880      -0.13870194      -1.61230613       1.46109000
Na      18.22337863      27.06893888      30.98779408      -0.01271264       1.35321086       0.34143196
Na      22.49144971      16.92673714      31.34234738      -1.24010443       0.44577893       1.21856559
Na      24.71595919      28.23374133      34.83499868      -0.24688459       0.36441587       0.46218757
Na      25.06887336      13.25025936      28.62907078      -0.47950798       1.01028623       0.24660335
Na      18.12546870      17.58814238      29.87718915      -0.05364669       0.78079801       0.65289119
Na      18.38965004      29.91391644      29.22741282      -0.68520866      -1.22539300      -0.84333757
Na      24.94081591      18.04332208      41.14558008      -0.34409123      -0.18330599       0.69456027
Na      21.41494960      17.49079793      34.59162867      -0.19684558       0.91876996       0.60572132
Na      24.96110575      14.22269771      39.52120437       0.57854552       0.52922648       0.29819064
Na      24.58802376      28.40299084      38.74544890      -0.99320687      -0.00896801       1.30950000
Na      21.24816836      17.58064560      38.35721067      -2.34264266       1.03734045      -0.71333926
Na      20.54252575      28.10345848      35.87803510       1.27396978      -0.12854346      -0.92721598
Na      24.97233339      17.35928057      33.47293113      -0.65867412      -0.91712390      -1.13822318
Na      21.58548779      25.17363427      26.41037153       0.28647555       0.67218437      -1.06724726
Na      24.70272461      20.81110548      33.30099971      -0.85986669       0.21625452      -0.81634043
Na      26.83831567      23.97613444      28.47811648       0.10943353       0.00490136      -1.34908728
Na      21.13256873      24.56962670      31.84335741      -0.13139664      -0.26260794      -0.59838041
Na      24.92178117      21.33393368      30.14911400      -0.35141855       0.51554092       0.13887120
Na      25.31000002      29.82616420      25.06796589       1.22581792      -0.54397726       0.12154805
Na      21.36642429      24.76660793      35.42483431      -0.68428791      -0.38850429      -1.13481533
Na      24.62674387      21.49198904      40.40565020      -1.84241223       0.18642932      -0.65917205
Na      25.55558981      21.48471328      36.53163809       0.15802387       0.83307831       0.13580327
Na      21.38901521      24.71176772      39.14612495      -1.49620260      -0.22723213       0.07351407
Na      21.54127948      21.41551086      35.85575594      -0.10460851       0.50964101       0.40152215
Na      24.83393221      25.03951389      33.27819855       0.52309263       1.34915213      -0.40450406
S       16.66132403      13.63315492      22.72233731      -0.19601652       0.14554291       1.03069028
S       16.62702002      19.22193518      31.53024086       0.26573170      -1.00327397       0.04869342
S       20.81698606      18.39840075      22.47924129       0.79719503       0.70400846       0.57954837
S       19.74283802      16.15344069      32.05951587      -0.34291767      -1.04122664      -0.18233214
S       20.12008916      13.81424475      25.31851567       0.60002331       0.67050458      -0.45212511
S       20.25543944      18.21510432      26.47495524      -0.09750864       0.34974402       1.65121393
S       16.67544716      23.26131632      27.05346011       0.20272913      -0.05137887       2.03638044
S       17.94611222      15.66535138      27.91016588      -0.25253552      -0.09040300      -1.16813276
S       15.67302055      15.56652299      33.71613732       0.34197654      -0.09924040      -1.13939272
S       15.57950858      19.79821347      40.34775508      -0.38913515       1.81049771       0.46937448
S       20.08992032      20.21935431      33.74790483      -2.04618786       0.64683369       0.00048244
S       20.16670120      15.65421787      40.05096327       0.28542225       1.33414488      -0.71989683
S       19.03093548      17.10917328      36.08508369      -0.82175413       0.69460081      -0.18115910
S       18.64707279      18.96229748      39.28440752       0.97688836       0.97831454       0.62007474
S       16.16554928      19.84193041      36.19706860      -0.53621462      -0.69150888      -1.98630302
S       16.04463157      16.24358235      38.08308175      -0.45379876      -0.11919289      -0.24875231
S       17.35589330      20.69185153      24.38477155      -1.53038005       0.32289622       0.59014008
S       15.50759387      26.87992216      32.01800441      -0.35542347      -0.88438045       0.99969996
S       22.48257597      25.53325213      22.15425499      -1.48345344       1.61245483       1.19971633
S       20.18419112      22.26037975      30.47467547      -1.03610439      -0.00176414      -1.08358073
S       20.60741459      22.66428808      25.87081788       0.22322473       0.72246046      -1.71316246
S       20.07326810      25.91845223      29.01929449      -0.24392755      -0.84171438      -1.24832119
S       19.99577046      27.42724556      25.70939219      -0.03837220      -0.50437787      -0.07962113
S       17.04271318      27.80304022      28.40112831       0.71093834       0.90429683      -1.95502690
S       15.76421539      22.83195898      33.32742911      -0.41891494      -0.23608559       0.70731464
S       15.63468904      27.10208224      40.51258692       0.38825000       1.29930353       0.11648342
S       19.92632932      26.52217299      33.42563098      -0.77985964      -0.18977337       0.37061032
S       19.74927865      22.69983381      40.38093567      -0.72468080      -1.12525683      -0.06540003
S       19.09579148      23.34080182      36.30490585      -0.61456990      -0.73432878      -1.29111452
S       19.63112256      26.40430802      37.92321487      -0.40053584      -0.00084386       1.32606549
S       16.30361948      26.42815796      36.16093429      -1.04580820       1.57221481       0.01491767
S       16.54867268      23.81966033      38.93103096      -0.42279011      -0.11957729      -1.33851902
S       24.48390265      11.81920230      23.05604172       1.51549332      -0.54319296       0.19999553
S       24.18018583      19.07604379      31.35486273      -0.86571705       0.24232252       0.05053402
S       30.86160934      22.52057890      22.00972164       0.25641700      -0.42149512       0.34248642
S       26.86509563      15.99539081      31.33557569      -1.88664433       1.68673168       0.30451537
S       23.65044879      15.67481832      24.09367251       0.31277623       1.73667861       0.27539173
S       27.50427855      20.49291526      28.92274545      -0.46746216      -1.35744373       0.05251816
S       23.88386069      20.01977246      27.58899253       0.41556005      -0.11870518      -0.85515187
S       26.50589305      17.83816625      26.30337868      -2.01943915       0.93779728      -0.81647915
S       23.05500058      15.33459170      33.71775573      -0.31076727      -0.16556075       0.19887327
S       22.34963937      19.64717338      40.07218056      -0.59226216       0.58689570       1.20469430
S       27.33098163      20.58008398      34.35747417       1.22486833      -0.33548527       0.17938435
S       26.91320409      15.96699614      39.61738949       0.93329297       0.90761464       0.30424830
S       26.45476634      16.51628388      35.69017437       1.26270851      -0.15196760      -0.39900018
S       26.00700837      19.31905849      38.27205380      -0.01035849       0.80779371       1.02273359
S       23.54193753      19.16830358      35.34038153       0.41756162       0.10715841      -0.88036371
S       23.59725487      16.19774161      38.03530006      -0.32139249      -0.27292219      -0.03437748
S       25.22178109      21.64219492      23.19327299      -1.28937616      -0.22955822      -0.22983441
S       23.25664514      26.65698431      31.70280919       0.17986306      -1.17733216       0.56077105
S       26.96919169      28.34732952      23.66150385       0.29212835       0.49838970       0.97295296
S       26.37949503      23.35678458      31.60122593       0.18182901       0.00556993       0.37196712
S       27.93848375      23.72404790      25.66366980      -0.56978260       0.60903536      -1.10476359
S       27.14957602      26.68516864      28.61614344       0.05849524       0.66592675       0.72026362
S       24.03522194      28.46031931      27.37658141      -0.76424040      -1.67786863       0.95235385
S       24.20079306      24.48589480      27.18414117      -1.17284863       0.61377146      -1.01023873
S       22.53216533      23.04653167      33.61371280       0.75162226      -1.38404801       1.06136137
S       22.89069429      26.93959592      40.54896830       0.58138594       0.80451088       0.33008330
S       27.01557044      27.16327465      33.27737147       1.19963843       0.05336752       1.50774951
S       27.27683437      23.15027108      40.20426517      -0.81834030      -0.64653815      -0.77088596
S       26.18902103      23.95761004      35.61503074      -0.54237396       1.50414929       0.07281113
S       25.95409981      26.03642872      38.82555440      -0.41912884      -1.00095906      -0.99440951
S       23.26566569      26.26587760      36.17515188       0.43099380      -1.23898032      -0.25641540
S       23.56617848      22.94255441      38.14043887      -1.22487149      -0.19018384       0.51190418
Sb      14.15517169      14.31115367      41.61152389       1.51008422      -2.32988327      -1.15454954
Sb      17.89255365      17.66659918      26.40414257      -0.66468133       0.01495234       0.05028300
Sb      13.81793214      28.43326049      32.96707246       1.38560762       1.53903837      -1.11943732
Sb      17.38887309      18.19242213      37.45839723      -1.91570774      -1.15807004       1.09885494
Sb      16.92651265      20.86762552      26.89721553       1.69442562      -3.01407093       0.91964143
Sb      18.28681163      26.09232635      27.16396673      -2.46036356      -3.97768463      -3.43176113
Sb      14.33197156      20.92100230      32.75188453       0.45286052      -2.06755125       0.92960966
Sb      17.79592863      25.08371198      37.41702471       1.74128436       0.71956191       1.67850517
Sb      24.52443780      26.93379651      23.03773468      -1.01642647       0.89344277       4.55348595
Sb      26.20956956      20.27631066      26.92024484      -2.32510163      -2.06016442      -2.21771039
Sb      21.11505602      14.18821186      32.61583206       0.89571395       1.81973018      -0.81559230
Sb      24.82255707      17.80794859      36.86024953       0.14063782       0.87260842       1.15023582
Sb      22.96127710      20.12287009      22.79740912       4.85152760       1.22751895       2.23376105
Sb      25.53294616      26.62047442      26.65071127      -0.64112203       1.16691299       1.11774554
Sb      21.60293527      21.13251930      32.17381261      -2.67014064      -2.32926268      -1.95562979
Sb      24.69535803      24.75668312      37.22266707      -0.49342484       4.52965874       0.90226912
Na      28.51326590      18.03435314      41.92351599      -0.64286143      -0.13374680       0.14350278
Na      17.67339009      28.71768749      48.70924416      -0.25587458       0.69038438      -1.14704317
Na      18.03658099      14.24181759      44.55584715       0.31377436      -1.15015762      -0.15205169
Na      14.29222836      18.05644690      46.61286281       0.93309374       1.69529990       0.17917206
Na      27.92175143      28.58367122      46.00974630      -0.09021118       0.46151321       0.52305735
Na      17.77819720      17.74040525      41.56314293      -1.25542525       0.25608768      -1.78239279
Na      14.16692388      17.82403003      50.44092400      -0.29192548      -0.14341217      -0.16044574
Na      17.77094669      14.36556351      56.90493540      -1.03776277       0.20522751      -0.70991110
Na      17.84317572      14.48497206      52.65953754      -0.71004249      -0.18905166      -0.95736620
Na      14.43233053      18.17291572      54.40122773      -1.82981662      -0.14206640       0.50279024
Na      13.95419621      14.67322365      54.09140373      -0.63629334       0.34880702      -1.33247275
Na      17.39559411      17.45463998      49.18101338      -0.14125644       0.91453652       0.23154771
Na      28.56441657      24.79808597      42.16903862      -0.38603644       0.48898476      -0.12895455
Na      17.47094243      21.47301788      49.04165771      -0.25819015      -0.31814252       0.83180651
Na      17.42973267      21.55930737      45.33241894       1.29581265      -0.62396948       1.27068462
Na      28.83322798      25.30884931      46.35474947      -0.17244107      -1.03820593       0.20594858
Na      28.49818024      21.75876842      45.00067600       0.08620278       1.27510817       0.84543705
Na      17.65460345      24.15462218      41.66021460      -0.87816199       0.25912208      -1.46312566
Na      28.30229654      25.42269896      49.89221983      -0.37773273       0.44459380       0.53103896
Na      17.83813342      21.60669037      55.28814041       0.19677935       0.19560063      -0.16202732
Na      17.69859603      21.58492504      52.28282172      -0.19452179      -0.63788907      -0.51072951
Na      28.74515440      25.60902565      53.64289698       0.80291635       0.52183483       1.67857219
Na      28.68700873      22.06306598      54.10197860       0.69049623       0.22333625      -0.18532870
Na      17.96264550      25.17613799      49.36090696       1.01804110       0.28607030      -0.61872179
Na      21.38314563      17.46820981      42.11994340       0.89825555      -0.20613546       0.02997744
Na      25.10216635      28.65048157      50.40736597       0.10007631       0.87679021       0.26335313
Na      25.04918541      14.11375255      43.80839871      -0.35520926       0.52355131       0.71718820
Na      21.50086702      18.24612238      45.91585523      -0.88313312       0.01771530      -0.60393058
Na      21.01795463      28.48545830      45.16038764      -0.94423784       0.70868052       0.74946440
Na      25.38405347      17.57429095      58.15768263      -0.89790491      -1.31701264      -0.48178012
Na      21.25786316      17.78964326      49.28852911      -1.31990972       0.61279089       0.49972307
Na      24.67055491      13.90220952      56.28719005      -0.18652078      -0.18717996       0.94869065
Na      24.17293094      28.80342055      53.95320960       0.89602988       0.01195843      -0.62337131
Na      21.51902036      17.17097482      53.15415283       0.33804112       0.44168314       1.25570379
Na      20.80258073      28.31417313      53.13346533       0.42858861       0.90668746      -0.86088069
Na      24.69859428      18.14612847      49.58256790       0.55839702      -1.56179834      -1.10777517
Na      21.46132864      25.10813418      42.86387309      -0.43337726      -0.38581421      -0.31456763
Na      24.88724214      21.58556262      48.32421430      -0.25873186      -1.28431023       0.25463896
Na      24.85364337      21.21549759      44.30494368       0.61914425      -0.25100209      -0.60562664
Na      21.38637038      25.17294274      46.91095358       0.08253844      -1.05545259      -0.37860933
Na      21.21222323      21.66024062      45.67816885       0.39193525      -0.60355170       0.36077657
Na      25.15446235      25.04727136      41.59612033      -0.41354549       0.29159014       0.76093253
Na      21.58157205      24.88766702      50.78265941      -0.42817395      -0.12684245       0.26959429
Na      24.80787417      21.49496759      55.99088514      -0.36774186       0.15099809       0.20034527
Na      25.08124137      21.42470393      52.55369000       0.45460903      -1.17423503       1.68571801
Na      21.14021905      24.72547332      54.58149488       0.47657968      -1.40099397       0.42553456
Na      21.29676695      20.38398931      52.86115890       0.46028095      -1.05267479       0.05713582
Na      24.68006188      24.79941433      49.56395833       0.70500648       0.39871150      -0.62682351
S       15.65765088      15.63564137      42.77913125       0.90124612      -0.06704215       0.76124579
S       15.43207576      19.87562462      48.08423206      -0.05205267      -0.41609637      -0.44836124
S       20.14572470      20.20712924      43.19057280      -0.21378554       0.44407587       1.23249779
S       20.24003101      15.66857626      48.04076368      -1.37874699      -1.06537180      -1.13277564
S       19.17298881      16.61732415      43.90949937      -0.85654079       1.55859096      -0.14405839
S       19.13787629      19.20711432      46.80778720       1.65643607      -0.82374575      -0.16023776
S       16.21594057      19.08645334      44.08128251      -0.52654941       0.31593695       1.11103839
S       16.59904271      16.08739196      46.64489750      -0.47206861      -1.89982572       1.40046806
S       15.67410234      15.64205607      50.35317452       0.13214660       0.42818110       0.03763423
S       15.82762187      20.43216718      56.18757413      -1.34973106       0.65411378       0.17398824
S       19.74575715      20.14317792      50.73049328       0.18224934       1.81438233       0.09352340
S       20.18886951      15.52996679      56.15669580      -0.90299209       0.04309069      -0.80283649
S       19.00703610      16.82787735      51.69817445       0.20953693      -0.17331412       0.27473752
S       19.23099577      19.25340255      54.65925532       1.10745376      -0.30793509      -0.21187350
S       16.03269520      19.40481407      52.38206631       0.14569382      -0.10022693       1.03427412
S       16.63740975      16.41977286      54.67085313       1.62933343      -0.68827225      -0.47302221
S       15.41175584      22.71561815      42.91721693       0.69211052      -0.13994431       0.38385892
S       15.23428142      27.36787550      48.25419629      -0.52952646       0.79833258       1.17553644
S       19.77106829      27.47570160      42.89271536      -1.03643425      -0.30855122      -0.97432422
S       19.83547570      22.89011878      48.02851512      -1.12547401      -0.50559433       0.16199352
S       19.28756894      23.55112256      44.30570080       0.55624126       0.69821241       1.18298399
S       18.95758851      26.40644366      46.95266473      -0.53915852      -0.02086916       0.77641968
S       16.43679015      26.08106766      43.91213608      -0.72900073      -0.59501618       0.51838426
S       16.22124545      23.58872765      46.76494893       0.62981452       0.19064753       0.22781036
S       15.37502645      22.66982752      50.73093782      -0.36888733       0.54051042       0.36927176
S       15.35493326      27.28916521      56.03546468       0.60471705       1.31666781       1.10145324
S       19.78814824      27.19265469      50.76015068      -0.94465226       1.69120486       0.07741895
S       19.64788412      23.08331566      56.87590125      -0.56137071       0.74643071       2.08096503
S       19.59438212      23.77669338      52.47888825       1.63399110       0.09923014      -1.65248951
S       18.77171438      26.85596332      54.56206826      -0.21991277      -1.58777010       0.05543145
S       16.41389699      26.24744182      51.74838374       0.58750122      -0.14784468       0.83407708
S       16.27449372      23.88042263      54.50376649       0.53732753       0.01861106      -0.43490556
S       22.98051746      15.29654087      42.25547176      -0.81884306      -0.35087031       0.38580723
S       22.34220429      20.13809291      47.74790616       0.18926421      -0.06871060       0.64567750
S       27.02850684      20.12097188      42.59523056       0.09482066      -2.05481821       0.44627078
S       27.15575148      15.96026763      48.23502070      -1.34637779       0.63389104       0.56747169
S       26.48810062      16.57910432      44.09543341      -0.53532095       0.99116603       0.79083832
S       26.17243688      19.15245030      46.89602223      -0.09542052      -0.82055909      -0.21481887
S       23.51361431      19.00225934      43.93020020       0.97038517       0.06428601      -0.14931359
S       23.57741425      16.44100789      46.72363660       0.66606348       0.74073558       1.59770726
S       22.94471619      15.74596700      50.69173636       0.34029777       0.45218292      -0.73723263
S       22.59897507      20.01188246      55.77289105       1.81643379      -0.12802118      -0.82902356
S       26.87118569      20.21652017      50.79706691       0.45642760      -1.33584013       0.67913743
S       26.78908165      15.77077927      56.50269177      -0.13330477       0.24278558       0.65551965
S       26.45134686      16.57593734      52.08102647      -0.81998496      -0.08421643      -0.93274786
S       26.45504880      19.73206841      54.40814945       0.88389018      -1.42079600       0.68481046
S       23.53630398      19.08799335      51.98885570       1.08816904       0.77422476      -0.71862002
S       23.67185279      16.31544237      54.58456746       0.09468014      -0.98348930       0.04846968
S       22.88659729      22.70277044      42.49648630      -1.40045888       0.20941797      -0.60649036
S       22.89435298      27.01743038      48.46413571       0.23284997      -0.86368832      -0.14571468
S       27.41941423      27.44324920      43.38996913      -0.43120718      -0.27180801      -1.07036900
S       27.33561532      23.03080172      48.12365833       1.47467013       0.78733333       0.36047501
S       26.41949444      23.88179330      44.02446202       1.18747606       0.57590827       1.57299922
S       26.27233810      26.15007269      47.14234241       0.09561539       0.54173615       1.37801253
S       23.45643193      26.55578293      44.49886705      -0.36965588       0.46553877       0.05319900
S       23.49553468      23.45147738      46.53917682      -0.22008987      -0.32527068      -1.68260748
S       22.92167785      22.54636249      50.49969785       0.36636652      -0.31390295       1.91105065
S       22.46208602      27.29798931      55.67072234       0.03578430       0.84615724      -1.19640759
S       27.60465342      27.63190235      51.52886005       0.78003912       0.12789577      -1.09961691
S       27.13873796      22.83774165      56.49723629       0.51878498      -0.57652683      -0.64860390
S       26.83049514      23.90182534      52.67916599       0.13973768       0.68128624       1.06047528
S       26.25615291      26.51531230      55.04215463       0.52913531       0.18716746       0.88827810
S       23.80190678      26.39312403      52.12507289      -0.17221993      -1.33867189       0.48651733
S       23.63318814      23.38841273      54.69151699       0.74914101       1.49305178       1.66333078
Sb      14.39762712      14.71308781      57.69004203       0.53345966       1.05189821      -2.61776992
Sb      17.78085120      17.81495685      45.34916637       5.99924904       1.45033818      -1.45288593
Sb      14.00514897      28.77383103      49.57422824       0.79428521       2.57749595      -0.33472700
Sb      17.75434211      17.96222167      53.32004619       0.79820392       0.29185603       0.46490519
Sb      14.15450986      21.35859010      41.50421985      -0.10074773       3.10606012       2.16735245
Sb      17.70870739      24.90598590      45.46157839      -1.12245931       1.90074607       1.01046988
Sb      13.97108884      21.23457300      49.36142150      -1.36191061       1.30112419       1.58814798
Sb      17.87998704      25.16093215      53.29566079       2.69252239      -1.36409099       1.78399781
Sb      21.36424252      28.49214762      41.48989135       2.93146891      -0.90148550       1.70723621
Sb      24.93493193      17.78937378      45.34486579      -0.55329911       3.59973825       1.48623272
Sb      21.38245564      14.28993894      49.67868613       0.74008998      -0.25234705       2.44979083
Sb      25.03821461      17.97226614      53.51587364      -1.75926489       0.62324314       1.33278950
Sb      21.30334699      21.28157910      41.44890368       2.62969022       2.79018245       2.45096174
Sb      24.87142017      25.00456939      45.51515077       5.13116270       3.46097162      -0.04022106
Sb      21.17625286      21.46126480      49.31242093       1.66761886      -2.01635458       1.22735275
Sb      25.03913008      25.02353464      53.71695653      -0.31491828       0.44567810      -0.72173219
Na      28.71737444      17.86483320      56.14145639      -0.70590435      -0.21270160       1.44082005
Na      17.34999963      27.96557755      63.50277783       0.51755950       0.73451131       0.13303458
Na      17.80008883      14.42525041      60.75381287      -0.71668025      -0.65445122       0.65501677
Na      14.15695303      18.61572009      61.19430388       0.20286232      -0.77246573      -0.75627894
Na      28.33943383      29.27747372      61.35339363       1.38207160       1.15039474       0.72461824
Na      18.55099706      18.06219794      57.27036198      -1.02159829      -1.26160638       0.57540636
Na      15.17330915      17.39654397      65.24702008       1.60217610      -0.34378321       0.00153832
Na      18.75670321      15.66005421      73.12282173      -1.17053599       2.13698944       0.79611518
Na      17.65328959      12.59246924      69.26879038       0.03766379      -0.80090251       7.69715078
Na      11.86275691      16.98876318      67.85588143      -1.47634015      -1.64140102       0.01731824
Na      17.42091649      15.77296657      70.49312573      -3.12469481      -0.97843029       0.35881481
Na      18.88376608      18.12552328      65.60670938       1.04052372      -1.97435819      -1.18708806
Na      28.33155643      25.10689663      57.20155669      -0.66812038       0.87975519       0.83773258
Na      18.85674566      21.90985602      62.73248929      -1.88740058      -0.64904026      -0.15964215
Na      18.16739889      21.62448489      59.28155337      -1.06700752       0.01030047       0.71999011
Na      28.70366238      24.85543773      60.60465067      -0.49635960       0.02624364       0.32458604
Na      28.85988720      21.31191643      62.43657961      -0.16051033       0.69057008      -0.16063087
Na      17.54992529      25.47941805      56.80749648      -0.32390970       0.25870732      -0.16390958
Na      25.98505194      24.66101824      65.85129877       0.26483565       0.60309769       0.20376073
Na      18.62379966      21.64210743      72.05614914       0.31772657       0.32614955       0.96723300
Na      18.24718991      22.02739525      66.04428256       0.09820063       0.80581359      -0.32297117
Na      28.15656078      26.65952556      67.98893802      -0.24763051       0.16013670      -0.04232488
Na      27.50691825      21.43732461      70.22023597       0.91660918      -0.77524686       0.27547175
Na      15.69485652      24.87473839      67.11191524      -0.86727732      -1.53714144      -0.07086442
Na      21.74420445      17.71251377      56.86287851      -0.08408579      -0.23101259       0.11447456
Na      24.75152605      27.61770450      64.28060444       0.59952572       0.24594242      -0.00979793
Na      24.46488116      14.44192972      60.68788395      -0.80742083      -0.40491861       0.62255162
Na      21.39346514      17.59633405      60.71647125      -1.57887012      -0.55350123       0.26936278
Na      21.24651769      28.01615806      60.93923325       1.02364363      -1.18659182      -0.19579520
Na      25.61592025      18.97915376      75.11966697      -0.19684586      -0.63838414      -0.11380968
Na      22.18295520      18.30146205      65.34488368       0.44752616      -1.12800552       0.21128999
Na      25.68959719      14.58110058      68.94957035      -0.33135939       0.13719813      -0.99537590
Na      26.03800008      29.88204867      68.34120872       1.89815491      -0.56812678      -0.18216705
Na      22.22337247      19.00561622      68.96591552       1.68019048       0.10101557      -0.38464523
Na      21.20987485      27.75551719      70.33434540       1.08921815       0.39261335      -0.07129687
Na      25.87918735      18.68004046      66.11412021       0.93465132      -0.10207565       1.03076876
Na      20.73998207      24.90739769      58.90139353      -0.62633725       0.84076525      -0.42870449
Na      25.18240323      21.99474771      63.45080498       0.05033144       0.42302902       0.53654426
Na      25.31540888      21.14479410      60.03232143      -1.19964730      -0.60654715       0.65446505
Na      21.62329534      24.51158906      62.33506794      -0.16752568      -0.58312077      -0.73254090
Na      21.39837383      20.88225364      60.77723896      -0.07476426      -1.74215083       0.34597367
Na      24.89240819      24.54289535      58.10125444      -0.30644840      -0.62457811      -0.27779944
Na      19.65883009      25.05933909      65.57967818       0.08247820       0.53081646      -0.31645967
Na      25.17270114      21.77315809      67.87140323      -0.47578202      -1.12790869      -0.18101446
Na      21.32796817      28.01412537      64.46462483       0.33740728      -0.11568943       1.32728157
Na      21.13217973      24.45999352      68.42065502       0.25379231      -0.52057031       0.14998749
Na      19.39982933      21.54471303      69.27777288      -0.87880024      -0.45950190      -0.17296039
Na      23.74035784      27.08648202      68.55505959      -1.71999585      -0.08314044       0.83340622
S       16.17132674      15.97506483      58.75255901      -0.72007891      -0.50399672       0.06771396
S       16.27692551      20.11032988      65.39704758      -1.08250218      -0.09065684       0.60645923
S       20.30500886      19.82960339      58.51831678      -0.71987969       0.57252994       1.92396161
S       20.49746966      15.91939679      64.58032730      -1.71936821       0.30382330       0.75907522
S       18.78101710      17.26686337      59.88410402      -0.45482315      -0.80790188       1.63694742
S       19.90444556      19.15541389      62.94788395       0.90345338       0.28393735      -0.58711129
S       16.53085662      20.22833648      61.04340674       0.63855921      -1.03150716       0.59953530
S       16.65497627      16.83580679      62.94291614       0.31039275      -0.19471942      -0.22513204
S       16.35529861      16.38267777      67.64313567       0.08256835       1.45042013      -5.32973669
S       14.85679815      20.73286866      76.32887023       0.26650247       0.14120743       0.76472927
S       20.56392296      20.17005305      67.20822111       0.16151490       0.25838390      -0.26345249
S       22.79539681      12.41262792      78.74895125      -1.48092020       1.21599701      -0.42733695
S       20.91215964      17.57004103      73.59667104      -0.81856957       5.09843482      -1.48664938
S       19.89849983      21.38425166      74.92540309       0.87290976      -1.24240571      -0.50183007
S       17.50664031      19.85354036      70.18635240       1.63388997       1.03002836      -1.26770663
S       17.68538495      17.54759783      76.85410173      -0.32265181       1.57986442       2.49788952
S       15.79960979      23.60227177      58.49890454      -0.09603891       1.78571363       1.18664891
S       15.49545475      27.49713172      66.13364063       0.82855572       0.19865720       0.36432564
S       19.53602377      27.22860633      58.43728872      -0.45828376       1.63652212       0.88286243
S       20.73811358      22.76726602      64.57105955       0.10973065      -1.14934129       1.60012232
S       19.89934747      23.20929775      60.91411134       1.28939772      -0.93912722      -0.65503954
S       19.62775398      26.63290131      62.68218465       0.07650519      -1.17637263       1.04940858
S       15.95712288      26.91489754      61.58845730      -1.01909766      -0.62566760       1.34188421
S       17.13111254      23.81412135      63.61387841      -0.18916374       0.17302337      -0.07231050
S       18.20507184      24.23076795      67.81471986      -2.46261486       1.42200503       1.73083528
S       12.89862204      30.82608131      75.74636419       1.08925045       1.44945581      -0.55699305
S       18.53658148      27.78693594      70.68817282       0.10223801       0.17435707      -0.40076813
S       24.19725323      21.86707471      75.70368276       0.43519759      -0.67279481      -1.21875083
S       20.66690480      23.34773970      71.07921788       0.54990524       1.68604516      -1.74245701
S       21.96892262      25.70474384      74.77339531       1.29581048      -0.85485404      -1.72091570
S       17.74703694      27.73067306      75.15838056       0.03898669      -1.50971790       1.60083050
S       16.41509877      23.01385036      73.12675630       0.75825093       0.12806024       0.76320358
S       22.90069508      15.76499502      58.80430612      -1.76945463       1.93733811      -0.56373474
S       23.85132343      20.64711049      65.43157513       0.45598415       0.66745336       0.26820815
S       27.44733495      19.71596829      59.06070709       0.20329146      -0.05561866      -0.00469726
S       27.22840239      15.99755630      65.66665287       2.50353817      -0.72693142      -1.03597567
S       26.46621355      16.48447239      60.69607477       0.09589407      -1.02868809       0.23985342
S       26.72954177      19.26839806      63.25941828      -0.05972270      -2.17175052       1.16459031
S       23.82061047      19.11915721      60.60756690       0.02297413      -1.91712220       1.24944329
S       23.94611798      16.38485318      63.46375718       0.90185751       1.53284084       0.25669374
S       22.93540790      16.44428468      67.72161854      -0.95155385      -0.28454960       1.08598285
S       21.96237822      18.06551857      77.61326825       0.61097427      -0.09512994      -1.22677854
S       27.54325547      20.02149155      67.78515122       1.78252047       0.35185823      -0.71330378
S       28.85034976      15.83844402      74.12324790      -0.64334526      -0.24574724      -0.30249408
S       26.89444255      17.01254497      70.39994395      -0.26905088       0.47231879      -0.05919479
S       27.08209699      20.07704220      72.93232070      -0.78644871       1.75561834      -0.21455803
S       23.84659514      20.32989251      70.70674512       0.08363620      -0.11630237      -0.61317670
S       23.68379717      14.39414484      70.96987271       3.11405355       0.68766545      -1.42679489
S       22.83895552      22.58690896      58.70592304      -0.08449472      -0.68590712      -0.09175755
S       21.12824517      27.37157614      67.40466198      -0.26076101      -1.08421319       0.65340983
S       27.17978952      27.33512845      59.13529781       1.40207472       0.27810463       1.59288560
S       27.75144481      22.62819098      64.87850719       1.79319729       1.25556993      -0.98402148
S       26.20878976      23.48232166      61.13240823      -0.27144568       1.03087247      -0.25474321
S       27.72491564      27.67950940      63.68569304      -1.38468429      -0.60260135      -0.19633763
S       23.49401147      26.12761213      60.16240745       0.75943736       1.58217943      -1.41067839
S       23.92592128      25.05859427      63.71740971      -0.56785170      -0.19525389       0.41704727
S       23.94285749      24.31854497      68.54321882       0.35996002       1.17226082      -0.94529952
S       25.29680956      25.79053233      77.06053965      -0.24395194       0.01800242       0.76800785
S       25.85967722      27.57754640      66.76991763      -1.02294081      -0.18735644      -0.24574299
S       27.06184920      19.11108275      77.81145647       0.00579083       0.67278959      -1.26162500
S       27.23877178      23.65709658      68.46571455      -0.27995758       0.64321945       0.74976671
S       28.64202687      26.93240062      73.75870963       0.88688850       0.51194314       0.36834214
S       23.85083747      27.91563726      71.15670187      -0.23308080       0.78178080       0.88346221
S       25.26228372      24.14426959      72.08843580       1.01403022       1.80735919       0.68239661
Sb      14.49879735      14.53530203      76.74652663       0.11574641       0.10599037       1.15283142
Sb      17.94058275      18.41140933      61.80329569      -2.21272404       2.44423177      -0.91338887
Sb      14.24880201      29.54800278      66.55600438      -2.04563545      -5.38236304       0.31664694
Sb      19.37054885      18.58477438      71.60763978       1.59338469       4.02516178      -1.30192921
Sb      14.48679066      21.90238212      57.49026670      -0.26002313      -2.63049670       2.61335928
Sb      18.13555843      24.98042839      61.69198229      -1.46014895      -2.58715143      -1.40723798
Sb      14.55402358      21.25333058      66.80763637      -3.53706963      -0.23060831      -1.48114242
Sb      17.12750950      25.31791733      74.25132282       0.67577178      -2.36581513      -1.25183084
Sb      21.16324051      28.49292667      57.16541948      -1.25960053       2.79448300      -0.74527071
Sb      25.20765081      17.88756864      62.12396775       1.37793342       0.76432846       1.36835566
Sb      21.28665631      15.00468057      66.64278689      -1.80538419       1.34796097      -2.17814547
Sb      25.45612007      18.57360575      71.62001871      -1.16628098      -3.03839240       0.09620997
Sb      21.42814629      21.51286936      57.27553311      -0.48843040      -1.29118556      -0.60666102
Sb      25.30286443      25.70828199      61.78640685       1.20345012      -1.30324728       0.17928338
Sb      22.01756556      21.92964599      66.39885812      -1.09981373       0.54766702      -0.29796951
Sb      25.87158438      25.13639834      69.78848492      -2.85843422      -2.37579989       0.98452489
Na       5.38896143      -3.02666341      74.93018477       0.90710939       1.17689095      -1.71312980
Na       3.04545262       0.86122154      77.82918472      -0.21635680      -0.29923462      -0.04062300
Na      -1.45712406      -2.65971761      79.00930403      -0.55573383       0.71994283       1.30922848
Na       1.77116333       1.38093683      80.37726839       1.02906998      -0.82971939      -1.44900241
Na      -5.03598294      -0.56539730      82.09210401      -1.41254137       1.13679289      -0.93003091
Na       3.54192569       2.80504223      82.72587626      -0.18212614       0.99922381       0.22682624
Na       0.48045739       0.33415813      84.20258944       1.65853219       0.71377321       0.29851813
Na       2.11166107       1.80076107      87.35563971       0.42113738       1.08924217      -0.87102176
Na       0.07632346       0.45709523      90.27535465      -0.79688277       0.72206129      -0.16793028
Na       2.62602915       2.14043610      92.11062342       0.56953730       1.32721681       0.56151769
Na       0.25329271       0.05911712      94.40912391      -0.12035252       0.00809715       0.13595846
Na       2.33000852       1.96221124      96.53533390       0.64098952      -0.99564659      -0.34164838
Na       0.79796823       1.93448040      71.00100191       0.56264852       0.58693090      -0.23784530
Na       0.78363912       2.64009371      76.23716348      -0.54732310      -0.12585358      -1.42769850
Na       0.18473822       5.97200905      75.65139759       0.21039612       0.79332466      -0.95727074
Na       0.80871327       4.86505898      78.68921147      -0.10298864      -0.25831057      -0.35753705
Na      -0.84217380       3.37132246      81.19345778       0.20691001       0.69331730       0.32539965
Na       2.46692100       6.35260221      81.62334432      -0.14113055       0.27273187       1.15848622
Na       0.13725836       3.83326585      84.62908199      -1.24049315      -0.30173594      -1.20104556
Na       1.90610347       5.73324399      87.65006397      -1.01279450      -0.24157684      -0.52694778
Na       0.04987149       4.00756312      89.33246063       0.00389143      -0.02145925      -1.08273238
Na       1.87458983       5.73685137      91.83135244      -0.47166496       0.04913797       0.87241688
Na       0.24261064       4.00752398      94.10006691      -0.19219892      -0.30326874      -0.37204086
Na       1.96097890       5.81586868      96.50436102       0.39658675       0.34891785      -0.33514866
Na       1.45937560       4.97307269      70.71453034      -0.45415418       0.34890222      -0.15365006
Na       1.52144984      11.38143642      76.12657574      -0.11290569       0.42180337       0.64317440
Na      -2.71915923       5.46267653      74.18927185       0.53389280      -1.06394203      -0.04033881
Na      -0.68538628      13.10475101      78.21406660      -0.61876302      -0.38709809      -0.60164346
Na      -0.98198859       7.04818730      81.83066008      -0.76028537      -0.04226118       0.78121891
Na       1.79031909       9.96051283      82.46767629       0.36459272       0.47791118      -0.32142118
Na       0.21757677       7.07151305      84.76754233      -0.35111410      -0.26344652      -0.13382715
Na       2.61357695       9.57451548      87.26932344       0.74918576       0.62939457      -0.20755525
Na      -0.30872361       8.16708390      89.76230703      -0.04634544       0.36517591       1.26556812
Na       1.58303174      10.89314546      92.12534730       1.03500623      -0.05776052      -0.03226799
Na       0.52269931       8.02815036      94.15462279      -0.64291701      -0.09087235       1.87548931
Na       2.32308405       9.94591872      96.84351796       0.17694568      -0.73308478       0.66275153
Na       0.08134749      15.15553528      71.35902970      -0.03193983       0.18862090      -0.18065081
Na       2.63107200      16.64517602      77.56738856      -0.35546478      -0.36938062       0.12457647
Na      -0.81800669      12.96522869      74.02047670       0.38213296      -0.58486730       0.57257962
Na       4.02155355      16.82366207      81.21009792      -0.02914123      -1.33546074       1.04174185
Na      -0.99307822      12.52606249      81.52203019      -1.21900285      -0.34388212      -0.16851763
Na       1.59267273      14.38116773      83.88399604       0.55374401       0.99484250       0.27211404
Na      -0.14302488      12.19661277      84.79964021      -0.91876718      -1.17471996       0.04930168
Na       2.22127653      13.86628308      87.18277163       1.05491307       0.05898686       1.25485546
Na      -0.33114983      11.49947336      89.06805569      -0.36767125      -0.01409465       0.00279516
Na       2.48317243      14.50764759      92.30576645       0.25800365      -0.99187410       1.27039534
Na       0.70819944      12.12474648      94.92863665      -0.79418118       0.14477717       0.52280849
Na       2.11704974      14.86767965      96.64673669       0.30430767       0.28524983      -0.93784195
Na       0.02979737      18.11307782      72.04271461      -0.18689238      -0.38714438       0.83338391
Na       2.87339063      16.56064034      74.48454958      -0.17528240       0.39838154      -0.14039421
Na      -0.95407462      15.94314944      78.02537187      -0.89354627      -0.47468363      -0.13095450
Na       0.86636024      18.39579544      79.61371127      -0.15466371      -0.95705614       0.80036888
Na       0.36700840      15.14434781      80.83555100       1.69163997      -0.91339274      -1.83303499
Na       1.10789926      18.03907181      83.72804994       0.62212306      -0.68309215      -2.13833081
Na      -0.58405894      16.42730428      86.29350001       1.35932409       0.66489313      -0.69090938
Na       2.09415852      18.68772944      87.43775844      -0.82256348      -0.30187021       1.00312210
Na      -0.05382588      15.92550530      89.84023952       0.10224539      -1.71495199      -1.92775991
Na       2.49546961      18.31615470      91.98480459       0.66353558       1.57771491      -1.47299745
Na       0.21506487      16.64608058      94.35033826      -0.20934666       0.96645352      -0.42623245
Na       2.48472772      18.84182742      97.19398186       0.66056368       0.98783909       0.99826436
Na      -1.86244086      21.85196092      76.15842115      -1.11702897      -0.08137242       0.06621210
Na       3.49858177      22.15400605      75.95381620       0.83098381       0.33793605      -0.73292937
Na       2.44696761      21.88257984      80.43265846      -0.97853532      -0.25374764      -0.77054514
Na       0.17991724      24.33191173      82.01267899       0.94114988      -0.70438609       0.20047364
Na      -0.33974183      20.87480352      82.38456510      -0.53910502      -0.24335623      -0.09383237
Na       1.82862823      22.49483849      84.09686347       0.32906230       0.49301167      -1.83216939
Na      -0.71324911      20.12402440      85.72783894       0.20818708       1.44120659       0.71448593
Na       2.24822434      22.29646316      87.77850607       0.04731063       0.03566236       1.58226176
Na       0.35713243      20.72833593      90.09955962       0.04667701       2.02357863       0.68640290
Na       2.17883144      22.09435172      92.57598330      -0.25019745      -0.03516735      -0.16914144
Na       0.74802606      20.15629148      94.74537915      -0.22581463       0.95397377       0.35956003
Na       1.94284336      22.51846351      97.08105833      -0.26486830      -1.31756855       0.47105046
Na      -2.86102501      26.93083883      72.97088848       0.70141442      -0.40200453       1.04486707
Na       6.14965163      24.14725633      70.96075302      -0.11701390      -0.01892882      -0.81389068
Na      -1.69881050      27.59650509      75.80729206       0.54336546      -0.13206696      -1.97509166
Na      -1.55654824      28.28944620      80.82875324       1.19028852      -0.57761147       0.30291646
Na       4.09066422      24.17970441      82.31425902       1.36299720      -0.18466343       0.26664040
Na       3.92679731      25.03873759      86.23009423      -0.22223345       0.10951685      -0.29156444
Na       0.32382168      24.29496144      85.87481637       0.04496352      -0.42109178       0.31123085
Na       1.60129909      27.26886997      87.29455706      -0.60200251      -0.17959211      -1.66804971
Na       0.28609671      24.76765473      90.05112745       0.09169019      -0.89546006      -0.84032521
Na       2.24043879      26.53405912      92.46504252      -0.13291371       0.59416659       1.09360034
Na       0.08959667      24.53367440      94.72325384       1.20026969      -0.74865403      -0.26709804
Na       2.00409191      26.47450623      96.79166760       0.27304134       0.21285441       0.03841502
Na       1.32861477      -0.44913630      75.55482709       1.06457167      -0.03942948       0.64957816
Na       6.87493506      -0.53572563      70.09411599      -0.02164542       0.80837765      -0.33594171
Na       6.21138299       0.51276318      77.51783274       0.19213184       0.53995649      -0.57538252
Na       7.34590841       3.14025490      79.47913016      -0.43630521      -0.50402245       0.15859076
Na       2.92061877      -1.68178773      84.02635871       0.22386971      -2.72188878      -0.82528543
Na       6.86551239       1.87821656      83.26145008      -0.72022445       1.11383476      -0.75586970
Na       4.60452386       0.59867239      85.81467587      -0.47222382       0.03442775      -0.57302418
Na       7.35540330       2.09825253      87.89066792       0.59141022      -0.21174386      -0.92773880
Na       3.75663837      -0.41012541      90.17544910       0.76740964       0.38376071      -0.42849739
Na       6.14430896       1.83396088      92.85680209      -0.39982035       0.42959807       0.72831200
Na       4.37556116      -0.76018526      94.95482607       0.30107228      -0.58032220      -0.03070028
Na       6.15825724       2.26029487      96.19751650      -0.05023778      -1.01411680       0.86927035
Na       7.63118360       2.34008111      70.03325049       0.76642752       1.20502790       0.87555109
Na       5.80847963       7.65550155      76.69641098      -1.07756969       0.60402616      -0.03875793
Na       4.37289425       0.30022209      73.17550892       0.30986911      -0.17530076      -1.82226514
Na       2.62497621       7.35941260      77.56193712      -0.62891886      -1.16372077       0.43171436
Na       4.11709914       4.01732958      79.29376869      -0.31997402       0.14691307       0.48398059
Na       5.81435772       5.28038695      82.29682301       0.41661730      -1.54233945       0.19054847
Na       4.57977238       4.24739685      85.78870679       0.59588680       1.27845831       0.26995831
Na       6.18685372       6.31221578      87.57108785       0.14048289       0.32153418      -1.09248388
Na       4.45061550       3.15034496      89.19324880       0.70934780       1.32147095      -0.32661679
Na       5.37263598       5.19721599      91.87650124       0.37265214      -0.81783934      -0.91753322
Na       4.29172859       4.48687942      94.75090196      -0.14563432       0.30191742      -0.49942320
Na       6.42899368       6.21450645      96.81306719       1.20919379      -0.46019998      -0.23543479
Na       2.11152774       8.28236458      70.34583446      -0.21990029      -0.63008659       0.27914765
Na       3.99369082      11.26714959      78.26641859      -0.31539928      -0.25154373       0.72852440
Na       1.79089036       8.70227821      74.30348592      -0.21267026       1.29781124       0.32575028
Na       6.86485813       5.34997958      77.56664926       1.30416799       1.00149802      -0.29809041
Na       4.85127178       8.02884212      79.96492091      -2.03323064       0.81992790       1.17143947
Na       6.20585188      10.66989572      81.86984011       0.57761792       0.70134673       0.72809727
Na       3.77207303       7.57253104      84.49165142       0.83960840       0.38595858       0.78123512
Na       6.69250582       9.85255640      87.26919358      -0.47826976       1.15115232       0.49456170
Na       4.68299589       8.18804362      90.31862630      -0.90922587      -0.51608234       0.67264740
Na       5.73020590      10.85999439      92.63005397      -0.99841408      -0.95369782      -0.38504646
Na       4.18850597       8.12081462      94.52484041       1.18510655       0.13663077      -0.75890265
Na       6.00505307       9.75185163      96.86804882       0.20564037       1.87304927      -1.76211639
Na       3.80004083      10.64814751      72.92176855      -0.46188117      -0.61090833       0.02130698
Na       6.34160524      15.35934180      73.65279460      -0.19198924       0.46533552      -1.16071972
Na       0.77439734      10.74394320      79.38982045       0.93160318      -1.49421513       1.07150758
Na       4.67477823      14.53954013      78.36083326      -0.53786341       0.37404144      -0.37013049
Na       2.94104594      13.08964220      80.99349508       0.36601398      -1.74839358      -0.21314264
Na       6.11851150      14.35015698      83.48945789       0.01272056      -1.36015783       0.87641885
Na       4.01940658      11.77554943      84.72464797      -0.21677223      -0.21318928      -1.52688440
Na       6.10409465      14.26701470      87.25479290      -0.29086278       0.03998595       0.92103031
Na       3.81054471      11.86243583      89.61359387      -0.16667500       1.54899652       0.45213903
Na       6.36637572      14.48829900      92.23381468      -0.02448572       0.54383678      -1.04266775
Na       4.39798864      12.54611801      95.27001467      -0.13204248      -1.12279145      -0.25824340
Na       5.89152498      14.25314561      97.06978037      -0.90714192       0.39242764      -0.15122689
Na       3.62111279      19.31480765      72.95395343      -0.00961434       0.26081643      -0.57046894
Na       7.77981576      15.18618338      76.25664683      -0.54267655      -1.61741261      -0.56705391
Na       6.50996238      17.54881180      78.18407882      -0.05182745       0.58643424       1.04833619
Na       8.30491606      19.62654936      81.13250818      -0.09149523       0.15628691      -0.08928498
Na       3.62406353      19.22489320      78.13249590       0.23281976       0.20954755      -0.56631506
Na       7.03981196      18.23147921      83.63572182       0.06343759       1.16380665      -2.47047781
Na       4.07193179      16.23892997      85.05392129      -0.26362540      -0.60045398      -0.02572117
Na       6.66165421      18.20899074      87.92247651       0.26579281      -0.23590311       0.80056610
Na       4.01320037      15.93029952      89.48713597       0.92805088      -0.50068531       0.66929795
Na       5.86344013      18.33430928      91.66482843       0.19315898       0.90984362       0.57574195
Na       4.75864329      16.68248622      94.94097904       0.81433473      -1.37875874       0.56891020
Na       6.64892011      18.75382470      97.43550981       0.57576433       1.52400845      -0.16013635
Na       5.41607079      19.54013246      70.11617110      -0.32639200      -0.24796869       0.86966118
Na       6.20530302      21.88215143      73.61547166       0.27902355       0.31488351      -0.48307211
Na       5.12529360      18.80575175      75.42362019       0.88414872      -0.65137679      -0.80038737
Na       5.20648247      22.93372209      78.85241368      -0.69641275       0.37010917       0.53253992
Na       5.57959146      20.82282885      81.62445331      -1.41118196      -0.29970710       0.98448851
Na       6.06364340      26.12372322      80.21698884       1.23683411       1.37469019      -0.02589205
Na       4.48242206      19.89955722      85.12534869       0.33230482       0.50150014       0.53760746
Na       6.67104790      22.23672549      88.04271207       0.16062404      -0.64336887      -0.93577412
Na       4.06812613      20.04342034      89.88232466       0.26008406      -0.24923848      -0.18769225
Na       6.44791827      21.84065684      91.97954746       1.23450625      -0.26525162      -0.31632141
Na       4.67011158      20.14147192      94.62853291       0.24065758      -0.52060533       1.73075198
Na       6.53005537      22.32537437      97.04543913      -0.13290165      -0.24432895      -0.74531827
Na       2.14308956      25.36723062      74.62683296       1.29570370      -1.54694404      -1.07333545
Na       8.33776992      25.79577122      71.96201545      -1.45846597       0.88898050       0.14537737
Na       1.70582902      24.27426405      78.42033217      -0.67902479      -0.28680702       0.19198051
Na       3.65494015      26.67751422      77.94849321       0.64871710       0.22686602       0.12008700
Na       1.54201038      26.93535873      80.74025527       1.18172910       0.71912903       0.00049019
Na       6.62392056      26.97484487      84.06782747      -0.18842385       0.13570634       0.30603587
Na       5.81228561      22.54402478      84.86274385      -0.02788137      -0.88198756      -0.01793609
Na       6.40839735      26.60047029      88.02107201       0.76942180       0.21924740       0.38415161
Na       4.02809143      24.09822445      90.28655686       1.23712122      -0.38511449       0.90611427
Na       6.03650671      26.39796898      92.47249360       0.17619334       0.25124873      -0.13823207
Na       4.36436784      23.85384820      94.52710496      -0.10004646       0.18602685       0.23587867
Na       6.36889138      26.03221266      96.98768950       0.04003166      -0.63977216       0.23878748
Na       9.75255972      -1.48511713      68.64539968       0.32929485      -0.23688942      -1.09520163
Na       7.50544002      -0.12374839      74.70644441      -0.60436873      -0.42122246       0.26790302
Na       4.89657977       0.36134289      81.24004065      -1.23317060       0.17764288       0.99270142
Na      10.16581422       1.64789061      79.19372390      -0.03097551       0.91471854       1.18165950
Na       8.60812490      -0.38292225      81.37234604      -0.53766964      -0.56693859      -0.81858129
Na      10.89130787       2.17264928      82.45451446      -0.38305741       0.43376870       0.22752820
Na       9.09995252       0.23952507      85.43933559      -0.20938497       0.50795724       0.97339825
Na      10.33938391       1.84705690      88.76554781      -1.81186431      -1.55059748       0.38419241
Na       8.03389161       0.00289512      90.64669024      -0.56873907       0.42230542       0.15842093
Na      10.83319677       1.47693521      92.25736967       0.28660791       1.07408227      -0.14492095
Na       8.62565790      -0.17586748      94.88662697       0.03101551       0.16780870      -0.18853132
Na      11.07392417       1.79635961      96.99742054       0.33908898      -0.06055194      -0.28483386
Na       5.76363209       3.80076666      72.55854394       0.75003041       0.24707227       0.84768767
Na       2.10412811       4.08045673      73.74531194      -0.11684683       0.45109219      -0.92579730
Na       8.37886602       5.33235129      75.08048736       1.88753976      -0.56402925       0.02440711
Na      12.29483752       5.07358524      75.80392901       0.46457458       1.43047140       0.55881704
Na      10.29153165       5.24253558      81.15353566       0.24531533      -0.18407877       0.36131972
Na      13.68990140       4.44476723      82.59008055       0.47066123      -1.12795406       1.04182045
Na       8.67150143       5.14724264      84.77321899      -0.39783109      -0.55816756       0.09213682
Na      10.26519698       5.85185019      87.91339087      -0.41170966      -1.99003589      -0.73751874
Na       8.28827103       4.25803058      90.62440613       1.15296299       0.51867335       0.73424847
Na      10.31322434       6.63632175      92.51232502      -1.33479740      -0.02791712      -0.34171064
Na       8.30659761       4.40265652      94.42100407       0.56364138       0.02191746       0.57908098
Na      10.13778939       5.86987525      96.61306670      -0.22659874      -0.10181071       0.15703602
Na       4.68272396       7.05636426      72.09631360      -2.12859779      -1.53268618      -0.00534034
Na      12.00375535      10.55539371      73.60760134       0.42409384       0.35066120      -0.21178632
Na       3.44736919       6.53574111      74.71176094      -0.81376444      -0.30987642       1.45798689
Na       9.77050588       5.38686481      77.97898321      -1.07716381       0.93876670      -0.62558287
Na       4.86829161       3.15278519      76.06884769      -0.37012563      -1.64696237       1.26816896
Na       8.13797601       7.41187130      80.06866413       0.94715653      -0.16055966      -0.55628317
Na       7.43047063       8.23263891      83.65434183       0.82414118       0.57545111      -0.22781102
Na       9.84542824       9.17042867      86.88509016       0.22166995      -0.02372586      -0.60665566
Na       8.45508461       8.22887230      90.08245744       0.59982001       0.07218395      -0.05546478
Na       9.63605443      10.60816632      92.67986386       0.26467545      -1.19595004      -1.36816347
Na       7.57039663       7.85196910      94.09750187       1.13220122       0.21108764      -0.22843172
Na      10.29575467       9.77730015      96.78638035      -0.52211197      -0.00193323       0.55832000
Na       6.44265524      11.19792447      74.95204643      -0.70972689      -1.10426497       0.20929440
Na      11.83947028      14.54930048      74.55446175       1.46141766      -0.85506623       0.04105964
Na       4.20599326      13.40305097      75.64247410       0.65995822       0.03908466       0.31387396
Na      11.17787687       8.22652212      78.50851133       0.59251980      -0.78574119      -1.14548049
Na       6.63741305      13.14487171      79.98165238      -0.15174949       0.48309157       0.27740319
Na      10.66220284      14.39375110      82.54830515      -0.70727498       0.06796599       0.23291566
Na       8.90374162      12.34861279      84.49320432      -0.29977378       0.75800110       0.60108723
Na       9.92783714      13.10914251      87.55829122      -0.60638752      -0.35721536      -0.22407001
Na       7.51956286      12.06409268      89.74522844      -0.27021110       0.26439809      -0.07764209
Na       9.80735382      14.21384130      91.38621107      -0.50514588       0.19551387      -0.32537747
Na       8.13781469      12.66935696      95.26090446       1.03012724      -0.52160982      -0.22591348
Na      10.24828425      14.33729229      97.45563696      -0.16369835       0.13929199       0.03103420
Na       8.05823637      17.40164601      71.78725643      -0.40081571       1.23975225      -0.38338152
Na       9.91815948      18.85945905      77.59851428      -0.00875366      -1.34592063       0.69117291
Na       7.03643895      10.21350148      78.37406175       2.08598969       0.02178362       0.77709302
Na      12.54089295      19.88778374      80.01058161       0.21867996      -0.12585444      -0.95519715
Na       8.10887677      16.10965603      80.87856280       0.07638786       0.00192016       0.99032702
Na      10.50925921      17.92474910      83.48740682      -0.00124798       0.01372512      -1.49967584
Na       8.32273470      16.00956623      85.54628377       0.02143490       0.33480225       0.03681249
Na      10.73967328      18.73146051      86.72168353      -0.20779394      -1.01569919      -0.14443642
Na       8.91418735      16.45276860      89.35384296      -0.19610580      -1.79545177      -0.87745735
Na      10.41105032      17.98655040      92.42896423       0.30257119      -0.27601458      -0.86407511
Na       8.20872013      16.07601154      95.20605699      -0.57541664       0.01974786       0.08387639
Na      10.17258757      18.20797901      96.99130262       0.48567676       1.10736741       0.15419975
Na       8.41724556      18.07144232      74.80310799       0.93918685       0.42364832      -0.75898223
Na       8.57572621      20.28992739      72.44713869       0.51511596       1.17023262      -2.24349540
Na       7.81645631      21.18748432      76.74437539       0.54010808      -0.10259406      -0.02305275
Na      10.48956887      22.27368985      79.74935908      -1.17756379      -1.20666071      -1.12354336
Na       7.44871714      25.24902450      77.38301060       3.11947538      -0.22594519       0.89270051
Na      11.13091672      22.85435039      82.86026411      -0.02273299       0.60818191      -0.37492139
Na       8.77478862      20.79822289      84.75818899       0.89758878       0.89304392      -1.79400022
Na      10.93999117      22.08014185      88.39396320      -0.03590985       0.32149259      -0.65269832
Na       8.61641136      20.45309535      90.36556200      -1.42445385       0.43253562       0.13249884
Na      11.11739088      21.80902306      92.35827623       0.46347816       0.83626033      -0.78266272
Na       8.32278235      19.67716851      94.26801560       0.67833843       0.25504856       1.23774070
Na      10.33597016      22.11378857      96.31997423       0.39742505       0.49484265       0.79357692
Na      11.55730540      25.69478753      73.28384018      -0.40126529      -0.01820911       0.72692204
Na       9.35911072      28.07423004      77.03594812      -0.14307199       0.40642166      -1.08395882
Na       8.79105835      23.57123807      74.90267220       0.17181870      -0.88925855      -0.14277622
Na       9.93902329      26.21360394      79.71613531      -0.08992995       0.42420459       0.17106365
Na       7.53331402      23.53188019      81.79591644      -0.41066413      -0.64154437      -0.40342502
Na      10.50440387      26.55226210      83.36894040      -0.49652494      -0.12716045      -0.57975822
Na       8.15960877      24.64717444      85.75058019      -0.25586670       0.54052238       0.14019204
Na      10.00364545      27.13816281      88.12336978       0.32422653       1.06266132      -0.11440298
Na       8.68188949      24.11613991      90.17894391       0.34923434      -1.09942282       0.42166280
Na      10.74497435      26.28804079      92.86061672       0.79758951       0.41764669      -0.81058992
Na       8.68339755      24.05556221      94.26195211      -0.12741163       0.01868360       1.42623939
Na      10.90349072      26.14699601      97.33910003      -0.44332337       0.54991974       0.52761153
Na      11.56189012       0.00022592      74.37967349      -1.03895031       0.37353481      -1.63814860
Na      14.45149661       3.56473457      73.89013436      -0.63165452       0.86403942      -0.00736075
Na      13.12111793       0.08159381      77.50388687       1.54101528       0.10795740       0.17236348
Na      12.97759380       3.89058462      78.63543719      -0.77485854       1.21793934      -0.47444728
Na      12.42761612      -0.18783223      80.87253479       1.09683266      -0.48691061      -0.43066243
Na      14.75797797       1.15733582      83.15091620       0.26818492       0.39035605      -0.10597113
Na      12.66696496      -0.31421586      85.34026089       0.01911416       0.91832805      -0.57520642
Na      14.59576276       1.54439295      88.15084434      -0.90272775       1.01812517       0.15284643
Na      12.51994050      -0.47453024      90.59170924      -0.66548252      -0.14311407      -1.17423807
Na      14.62931162       1.98032907      92.55847136       0.18560149      -0.11926766       0.71995680
Na      12.47223268      -0.45657901      95.02578614       0.64811757       0.06656363       0.35268730
Na      14.88498707       1.73122942      96.99065760       1.04601692       0.24291899      -0.51799839
Na      15.66165109       4.38690290      71.00877408      -0.40813451      -0.50391811      -0.09473997
Na      13.17909188       5.90486100      72.78181516       0.93091484       0.71011959      -1.75389803
Na      10.98350878       3.38343318      72.97357867       0.40084070      -0.81657566       0.39437174
Na      14.90731817       7.66589000      77.04705439      -0.30884454       0.81384830      -0.16439927
Na      16.35174436       5.04869466      80.20634813       0.16561649       0.44917988       1.72174738
Na      15.98446287       7.58842301      84.38355224      -1.50697724      -0.16470590       0.44644961
Na      12.08495697       3.39044525      85.61978598      -0.02876017      -1.16266872      -0.71817222
Na      14.17250696       5.96998562      87.42929727       1.28694621      -1.48049075       0.78833065
Na      12.29975920       4.06770394      90.64400367       0.99329153       0.15393242      -0.41739581
Na      14.45647117       5.62598497      92.44139295       1.27011169      -1.08072090      -0.84764052
Na      12.23894969       4.23358572      94.37323042      -0.62155518      -0.77767111      -0.01571825
Na      14.88895537       5.42515972      96.63581375       0.93476806       0.74705010      -0.73060984
Na       9.65193024      10.78654945      76.62324321       0.21987566       0.41131652       0.25664382
Na      14.26253398       8.67284362      74.00337786      -0.52833865       0.98058918       1.24874302
Na      10.42165876       8.27587898      75.29155378      -2.40583535      -0.96210790      -1.81445189
Na      14.73637834      11.10498368      75.70820207       1.08486076      -0.77408186      -0.88644073
Na      13.39392032       7.13634649      80.84170617      -0.40848044      -1.02631057       0.20061767
Na      14.37842508      10.23399580      82.63166888      -0.10692585       0.24655385       0.21090913
Na      11.33052524       7.45478606      83.99781724       0.28770738       0.08569504       0.19251590
Na      14.19460513       9.72859282      87.43119021       0.37803299      -0.81882989      -0.17274146
Na      12.62174611       7.45852106      89.90520708       0.75219746      -0.49896012      -0.55279569
Na      13.53887842       9.89005178      92.16114535       0.17395667       1.08083439      -0.09222243
Na      12.35333181       7.77787321      94.92555690      -0.54841406       0.61924909      -1.02754684
Na      14.85692444       9.62527413      96.33692742       1.21921653      -0.17131768      -0.41625491
Na      14.67309696      13.22150942      73.13311829       1.07922479       0.30868054      -1.74362833
Na      15.53778352      18.27924444      75.11786787      -0.98939690      -1.26365277       0.38846757
Na      12.50749275      12.18280484      76.99732189      -0.46209902       0.18555372      -0.24282895
Na      11.42739412      15.72809674      77.10003410       0.19182892       0.98001978       1.08214584
Na      10.60811126      10.64783309      81.76424712       0.36907368       0.94405197      -0.40626384
Na      14.54794768      13.91692134      82.56066640       0.17929927       0.92511947       0.31373759
Na      12.46947136      12.06526955      85.12817322      -0.38030955       1.48401702      -2.78657731
Na      14.03654558      14.19316892      87.47381252      -1.66003191       0.47112555       1.49232505
Na      11.74759744      11.04998895      89.54941952      -0.10024467       0.53483135       0.71316572
Na      13.52447070      13.62655784      91.72739106       0.30688439       0.91848321      -0.26375447
Na      11.75075336      12.55063056      94.54112721      -0.37978446      -0.12809494      -0.41731472
Na      14.37330744      14.11278772      96.58921715      -0.54773513       0.87062296      -0.47544332
Na      10.92030062      15.03041035      71.22745277      -0.64867133       0.78523790       1.21411964
Na      11.37173424      17.55178083      74.47458088      -0.11254962       0.86185550       0.07987684
Na       9.47935619      13.28259001      78.61020630      -0.01686631       1.44238165       0.01876148
Na      12.79803799      18.62285354      76.84311462       1.68638810      -0.39476460      -2.08981814
Na      11.56286879      16.74289017      79.76755696       0.59304298       0.35429401      -0.96423748
Na      15.11500108      16.95290263      78.14602719       1.30334991      -0.31665678      -1.26398663
Na      12.28278251      15.47245463      85.15983749       1.53369647      -1.21137717      -1.29224829
Na      14.48705364      17.96971291      87.13163183      -0.32598102       0.10451392       0.22858833
Na      12.43442963      16.18019761      89.28423349      -0.68319114      -1.02832950      -0.52030156
Na      14.10538713      17.65601359      92.23149257      -0.16604534       0.80191913       0.33014702
Na      12.21181985      15.86233610      94.34436992      -1.73653853      -0.83668357      -0.43132801
Na      14.40545215      17.93812704      96.94285849       1.11814416       1.35448958       0.78898611
Na      15.03896425      18.78264465      69.11130266      -2.16876730       0.48542434       0.63097338
Na      14.17657405      21.59613094      73.67473695      -1.11333558       0.42010176       0.69310627
Na      11.90473164      21.68244934      76.66414833       0.68796472      -1.06141813      -0.65382266
Na      14.62784471      22.13365320      78.60363165      -0.15105062      -0.40649022       1.47668862
Na      14.17047509      17.30396857      82.31515813       1.40034209      -0.47580901      -0.53705504
Na      14.98338320      22.12775941      82.21415337      -0.60232363      -0.83124567      -0.49167915
Na      12.89066013      20.44439454      84.65912992       0.00396281       0.59657586       0.95947221
Na      14.27798920      22.07707730      87.75533022      -0.55390593      -0.45073486      -0.36084041
Na      12.72018455      19.63427909      90.15084814      -1.08702229      -1.48503738      -0.30938299
Na      14.50421248      21.98911410      92.39607061       1.62283446       1.14984525       0.95018807
Na      12.40988523      19.52937993      94.68559480      -0.21817624      -0.31357323       0.18361884
Na      14.36426596      22.14752154      96.90647059      -0.33453943      -0.43759120       1.49431913
Na      10.97154322      22.11803757      73.25638983       0.92512918      -0.93726369      -1.95161750
Na      14.21918274      26.38197315      75.33492522      -0.42461983      -0.78616876      -0.71345136
Na      11.14957068      25.42590786      76.70422095      -0.18643577      -0.71603871       0.22482911
Na      16.98777384      26.64766485      77.37882642       0.24941766       0.26928369      -0.08563704
Na      13.69960501      24.89712906      78.76865983       0.44426387       0.03306086       0.51878317
Na      14.04700001      25.83273531      82.74495443       0.88480639       0.21518106      -0.04066105
Na      12.52106809      24.54564578      85.71971573       0.57129063      -0.39245954       1.88370031
Na      14.05648609      26.56315063      88.00067523      -0.81350471      -1.41049199      -0.71002479
Na      12.65778997      24.30064686      90.35322392      -0.34770626      -1.44978285       1.55235601
Na      14.69983902      26.31388480      92.48436491       1.73609810       1.26548960      -0.12116937
Na      12.77733202      24.31771881      94.72138233      -0.25717643      -0.31229286       0.31387406
Na      14.67745534      26.02636100      96.86712302      -0.26190453      -0.59128031      -0.44065609
Na      18.08692323       6.04617240      69.06446610       0.39488336      -0.35490921       0.54315867
Na      18.59770354       0.85311618      73.10643594       0.12570711       0.60785470       0.25589348
Na      15.51854964       0.46028051      74.59078928       0.29408318       0.63544431       0.79867053
Na      19.48049022       4.18919384      78.35172448      -0.15552075       1.53386644      -0.08140439
Na      15.90768286       0.06461968      79.62078230       1.30347285       0.03006662      -1.01349791
Na      19.48049364       3.63112755      82.17099540      -0.27686682       0.27242730      -1.02162178
Na      16.27441623      -0.85629887      85.45086604       0.46449566      -0.36602889       0.12858924
Na      18.41265930       1.62512091      87.64544736       0.32635913      -0.95679665       1.75905441
Na      16.64312603      -0.36329527      90.59490956      -1.07413939      -1.06627339      -0.12848153
Na      18.64805108       2.51777314      91.63552103       0.10659507      -0.96761141       0.43788803
Na      16.51163325      -0.00322280      94.70344761       0.03817529      -0.89052491       0.56677779
Na      19.00931172       2.35698497      96.74441123      -0.11209836       1.27601445       0.92364048
Na      14.17852361       1.33819109      71.22200613       1.26949796       0.78962323      -0.87381060
Na      19.61180397       7.68533703      72.24556886      -0.79318272       3.32895452      -0.55532387
Na      18.34525466       4.14671433      72.89450952      -0.07399929       0.70452677      -1.12164893
Na      17.23450085       4.51239204      75.88823576       0.69314899       1.26761871      -0.75684968
Na      15.16695450       2.62660465      77.00962218       0.27725707       0.40889733       0.32479693
Na      19.39194679       6.98602667      83.14369759       0.03809886       0.00691755      -0.53296757
Na      16.96522780       3.45160551      84.61411130      -0.57446920      -0.86113417      -0.81189552
Na      18.00918423       6.13677722      86.80326911       0.34374611       0.72413750       0.82842203
Na      16.65236388       4.39748795      89.70258529      -0.46116461       1.11498136       1.43101944
Na      18.90527405       6.05109142      92.63661677       0.01305724       0.02450677       1.07419610
Na      16.79084948       3.80615217      94.69146054       0.17140737      -0.62930727       0.40689398
Na      18.66301620       6.25281720      96.65721717      -0.29819358      -0.53001364      -0.12357710
Na      11.38630523       5.61963243      70.38660592       0.26102321       0.05824451       0.31071815
Na      16.78954032      12.72348719      75.20991923      -4.13055681      -0.91872459      -4.91591149
Na      17.12946385       7.07217690      74.23333770       0.83668439       1.08925102      -0.09806295
Na      17.14679401      10.81662092      77.63750774      -0.06802772       0.55606093      -0.74954213
Na      16.58277101       8.70288598      80.68020430       0.96810125       0.72780365       0.97171993
Na      18.36273286      10.24926325      83.50493697      -1.86598257      -1.90603892      -0.97017242
Na      16.25769085      12.33846872      85.40084456       0.16943894       0.34588827      -1.27028227
Na      17.73493315       9.85557547      87.35177615      -1.23856889      -0.27630289       0.84989484
Na      16.05766176       7.82677283      89.81906219       0.10637865       1.16978193       0.89827651
Na      18.18830475       9.99846589      92.28809795      -0.45410035       0.60561904       0.83950467
Na      16.58694996       7.80596391      93.98829028      -0.69683954       1.05689654      -0.32953603
Na      18.26704748      10.22034104      96.10448128       0.07847741      -0.47292868       0.07356916
Na      14.58743441      11.07481620      70.73589039       8.25070303       4.87865588       2.18056249
Na      16.53239787      15.24710653      74.31712602       2.15526450      -4.64585580      -6.78242056
Na      16.46497644      12.16141721      80.49582487      -0.36667825       1.06127037      -1.93004365
Na      22.35160082      14.98956304      77.65529627      -0.76678379      -1.04386582      -1.19019855
Na      13.98219497      10.34060196      78.97703808       0.55712789       0.98940517      -0.40686429
Na      16.75214130      14.96595182      80.48780424       0.47566037      -0.78577421      -1.80746239
Na      18.39486590      13.44098256      82.79919772       0.21184785       0.04802109      -1.98287972
Na      18.30014542      14.13370576      87.72487892       0.29579056       0.94572751       0.33253842
Na      16.00776614      12.52976567      89.53379782       0.00716000      -0.06856095       0.17866917
Na      18.14007405      13.74958120      91.73662215       0.38555368      -0.48011999      -1.24924133
Na      15.93830837      11.95774012      94.25567269       0.28582002       1.19294655      -1.28467623
Na      18.17599656      14.38876220      96.73190363       0.64517489       0.38824637      -0.99222307
Na      15.32500306      15.93894224      72.50381547       6.09210537      -8.53610864      -2.14760539
Na      21.95402700      19.28636662      75.29748377       1.39186458      -0.09046736       1.31516749
Na      17.50370568      14.31692643      77.39228212       1.85111750      -1.63905582      -5.51694107
Na      17.17389853      21.38465245      75.29499037      -0.30166042       1.08315932       0.21153575
Na      13.27207488      13.75519136      79.72451307       0.83655595       0.60755091       0.48344737
Na      18.80925026      16.70836807      82.82804579      -1.01848514       0.13647452      -1.70313473
Na      16.48663112      15.88532108      85.00093437       1.10230343      -0.52105906      -0.84033757
Na      18.09800656      18.52995371      87.52982902      -1.18658127      -0.48650703       0.14044888
Na      15.95894775      15.83575488      89.73056805      -0.16664051       0.05358431      -1.06655927
Na      18.38024465      18.33948987      92.46519076       1.12539835       0.52582887       0.46161988
Na      16.66937084      15.83720561      93.86372044       0.29110226      -1.19515826      -0.46000934
Na      18.64861056      18.13991039      96.58242194      -0.54252692       1.42726547       0.44516101
Na      14.97410863      23.42792908      75.84784086      -0.49831605      -1.23350605       0.44585422
Na      21.46358831      20.71767175      72.48630428      -0.32140647      -0.21845015      -0.54737681
Na      16.39621399      19.46485591      77.91468348       0.33927787       0.14113790      -0.48212941
Na      18.52741092      23.86378248      76.59499580       0.50500891      -1.07387655      -0.15614086
Na      16.68146783      18.68693768      80.96059557      -0.09475157      -0.08996772      -0.28512928
Na      18.58038402      22.46128990      83.15288820       0.77064762      -0.90712193      -0.20994085
Na      16.53406534      19.82401400      84.46000641       0.74148796       1.19504696       0.10978108
Na      18.25999754      22.06524333      88.11695849       1.59083406       0.24977969      -0.35360157
Na      16.28191595      19.99615321      89.92231259      -0.52912840       1.18944953       0.14215961
Na      18.34996050      22.34887701      91.87052167       0.82004149       0.13735410      -0.07214762
Na      16.36840505      20.32070308      95.15643540       1.07756487       0.07805851      -0.18110255
Na      18.89937174      22.17454077      97.32270854       0.53998521       0.09500939       0.08056296
Na      14.41710124      24.84526850      72.72196236       0.23553418      -1.16793861      -0.87562275
Na      18.28192231      24.86793528      70.48543771      -0.20392634       1.16509510      -0.30122061
Na      20.41593411      23.61650261      73.70304346      -1.55203493       0.08723327       1.19404859
Na      18.68997705      30.22584459      76.29590135      -1.15469628      -0.21892265       1.04595283
Na      16.53172698      24.71383406      80.42654745       1.07056496       1.23911021      -1.03304056
Na      18.04390088      26.31213022      82.95937520       0.44895450      -0.91812925      -0.68863191
Na      16.00872424      24.09209090      85.30358096      -1.37407825       0.45935637      -0.63452206
Na      18.19699511      25.74961451      87.66792949      -0.49399466       0.90308096       0.35812439
Na      16.58771069      24.31955633      90.27056331      -0.95453582      -0.80797879      -0.28298736
Na      18.58636322      26.01799655      92.17734161      -0.70170169      -0.54207135       0.95542960
Na      16.48719703      23.64553644      94.70239217      -0.52276739      -1.19278283      -1.38312559
Na      18.45914055      25.92275228      96.70445467       0.60760880      -0.07000499       0.00681511
Na      22.98655788      -3.14784012      72.21509862      -0.31974727       0.78609283      -0.07270979
Na      22.44323040       5.38994626      68.70151852      -0.09906372      -1.94550997       0.70748689
Na      22.68448474      -0.24085460      73.55829622      -0.14729752      -0.25557296       0.54805074
Na      20.82868483       3.69042868      75.27929622      -0.20356986       0.16655026      -1.30286726
Na      19.55071406       0.03147583      80.76298082      -0.62642501       0.22640730       0.13929662
Na      22.82614139       2.61532618      83.35422550      -0.46435153       0.68029866       0.27830805
Na      20.29834267       0.13979336      84.24890934      -1.25412313      -0.23830686       0.06636816
Na      22.38811054       1.30001029      88.20673836      -0.28455446       0.20038720      -0.60340779
Na      20.04137920      -0.62829845      89.65011258      -0.11394196      -0.82687958       1.21763287
Na      22.46932843       1.53179321      91.85187603      -1.40136564       0.41601849       0.12023810
Na      20.01485020      -0.16854973      94.42828161       0.71965345      -0.12523325       0.82481506
Na      22.61684812       1.82735319      97.02390679       1.37360816       0.78449926       0.23968727
Na      22.05878866      10.26412724      72.61169588      -2.40631251       1.70878073      -0.50500374
Na      23.41851725       2.12125451      75.89426679      -0.12737655       1.94769500      -1.11036644
Na      21.24945053       5.35888536      73.00451959      -0.21166417       1.76865489      -0.83742126
Na      24.41749709       7.75750485      81.18695791       1.28841800       1.32726897      -0.68547161
Na      23.40383751       4.70653483      77.20759751      -1.37535509      -0.48599241      -1.18438287
Na      22.22763651       5.48755754      84.00533064      -1.41502874       0.78330804       1.96022906
Na      20.42681770       3.67583890      85.79895062       0.08185320      -0.61447110      -1.05186032
Na      22.54098710       6.23750401      87.16519455       1.33446114      -0.47706193      -0.49148656
Na      20.90400264       3.98821333      89.29622667      -0.31643316      -0.18362821      -0.08856109
Na      22.12230025       5.98630216      92.13934756       0.25391603      -0.67188273       0.90391913
Na      20.54900833       3.61517110      94.58514279      -0.15205098       0.76151428      -0.91138891
Na      22.54853427       6.93218282      96.47609015      -0.66977605       0.48886665       0.14547323
Na      21.09886169      11.92566102      70.44435219      -0.76707748       1.67894003       2.49892460
Na      21.50862191       7.16826539      76.31127243      -0.39440379       0.66246957      -0.56758532
Na      18.38509328       8.18048971      77.00156154      -1.32045103       0.56499332      -0.56721322
Na      19.81881112      10.55793790      80.19162879       0.25992112       0.34551981       1.99809463
Na      20.64007914       7.65722095      80.00257042       0.72773918      -0.62014372       0.59327689
Na      22.35528062       9.84047002      83.09480001       1.12321860      -0.56024259      -0.19273375
Na      20.67746235       8.90229544      85.59867600       0.21359386      -0.19685793       0.04425707
Na      23.11940943      10.38024243      87.60225721      -0.65467605      -0.01242400      -0.14203510
Na      20.61005161       7.81235320      89.49135792      -0.07268243      -0.27405923       1.17429012
Na      22.50517194       9.62484049      92.02017161      -0.76592582      -0.44930350      -0.98101392
Na      20.59703250       8.48109416      94.52182061      -0.63859146      -0.79570640       1.79494006
Na      22.53679108      10.10334993      96.71417202       1.01326526      -0.11514758       0.46687812
Na      19.68355443      10.37188352      74.79501115       0.58182528       0.41853512       1.84988222
Na      21.88560002      13.08439866      75.54256563      -4.30274707      -1.31456066      -3.46127827
Na      20.06506674      12.52440712      77.24621294      -0.81015219       1.84817173      -3.45286170
Na      24.84340578      17.07250907      77.63805469       0.25788766      -1.66669161      -0.97769447
Na      20.40794069      13.67392895      80.60603679       1.27023494      -1.02190929      -0.18490548
Na      22.06447715      14.80440596      83.53628809      -1.46904259       0.96820129       0.07662513
Na      20.84263720      12.02026213      85.33442037      -1.65615121      -0.45847020       0.30833010
Na      22.64256360      13.75738060      87.81782646       1.10046383       0.57909390       0.74159574
Na      20.10684542      11.32465656      89.74392624      -0.79628645       0.32833526      -0.69817844
Na      21.93412759      14.45450420      91.97182960       0.08458515       1.48174024       0.80607884
Na      20.32458795      12.35907827      93.92456263      -0.72179892       0.22496936      -1.42415118
Na      22.99357165      13.90911101      96.54090576      -0.42887565      -0.59657060      -1.39320106
Na      21.29954208      13.95171272      72.70227040      -4.94114627      -1.42564608      -1.79138334
Na      19.73202226      15.48676041      75.59213962      -1.93746949      -4.44669028      -1.86258411
Na      18.52427495      18.77413840      74.60631091      -1.32346785      -0.34555463       0.12851882
Na      19.72896571      19.61483444      77.37264120      -0.01924477      -0.91193748       0.03613640
Na      19.62990208      16.94073765      78.69463505       0.29048030      -0.25485294      -0.47943921
Na      22.52209468      18.34953516      84.02674798      -0.05306049      -1.18607522       1.42117550
Na      20.47083733      16.28889314      85.97385683       0.36536284      -1.24985597       0.13298808
Na      22.42125422      18.46156013      87.70913880      -1.17140252      -0.24067053      -0.70909524
Na      20.36925683      16.09467999      89.75094633       0.05698732       0.85014169       0.72519825
Na      22.46474704      18.29483693      92.72231461       0.11912322       0.65676939       0.13082417
Na      20.14205166      16.20167914      94.33200842      -0.07087302       0.47500965      -1.97770545
Na      22.77424945      18.21319733      96.36909826      -0.74571469      -0.41646392      -0.11782316
Na      23.12639036      16.25376770      74.91513980      -2.43741974      -0.56946983      -0.65210561
Na      24.29171833      24.54417323      75.02216266       1.40551626      -0.08839586      -1.23393901
Na      21.94590287      23.23886871      76.33122852       0.40731218      -0.26042506      -0.84721446
Na      22.25350309      22.22236559      79.50127714      -0.19829970      -0.07858731       1.39220617
Na      20.19837689      19.69582376      80.80864318      -0.52494989      -0.17301553      -0.70364909
Na      22.13509409      21.82558615      83.54262415      -0.19940411      -0.64809742      -1.19006298
Na      19.95505196      19.87541489      85.38863884      -0.25296635       0.10497441      -1.32815134
Na      22.52173856      22.04044823      88.13186072      -0.24212784       0.01319208      -0.87464641
Na      20.51706176      19.87573113      90.27399088      -0.76089894      -1.19476074       0.95197538
Na      22.35829339      22.91427826      92.44068113      -0.48967001       0.38162509      -0.01068904
Na      20.49487893      20.60278712      94.54373649      -0.09469433      -0.51200927      -0.10817417
Na      22.84109845      22.36119885      96.94371656       0.26690775       0.51970887       0.36897086
Na      23.21211546      22.89103838      70.65258934       0.34929500       0.91794187      -0.83887107
Na      23.48393941      27.32858015      76.05676822       0.35642986      -0.40952954       0.75925466
Na      19.73425020      26.53128185      72.95742309       0.56459575       1.30577416      -0.87564654
Na      20.07018587      27.11213840      76.26157121       0.03911079       1.11778909      -0.53250856
Na      17.86502675      22.21090551      79.15775610       0.64391286       0.27845507       0.63376035
Na      20.09176390      24.88901952      79.22453424      -0.91613180      -0.60935938      -0.08801227
Na      20.24383614      23.39250012      85.83229025       1.27459550      -0.17117993       0.34499788
Na      22.34800082      26.04541597      87.80649166      -0.09398720      -0.22469806       0.09729607
Na      20.60653612      24.43617623      90.02514067      -0.02840016      -1.15339073       0.84766032
Na      22.38965887      26.20687341      92.11287082      -0.55630308       2.64801656      -0.62046107
Na      20.56594023      24.00388703      94.84251709      -0.26671769      -0.08172216      -0.16595158
Na      22.54673086      26.42803054      96.50049382      -1.77463970      -0.09890212       0.89971897
Na      27.67674880       1.00479790      73.65876892      -0.04984642      -0.44086978      -1.33728845
Na      25.15206474       2.39405083      79.75503433       0.88539244       1.52738248      -0.64905560
Na      25.55784854       0.35383294      77.85929121      -0.27492516      -0.39200084      -0.47954684
Na      21.27664076       1.24755529      77.99344392       0.29549776       0.00613003      -0.40966457
Na      21.25875267      -3.44402583      82.22786320      -0.67658342      -0.42997517      -0.14066188
Na      26.22879727       1.76687436      83.78974051      -0.38453837      -1.62848646      -0.25392075
Na      24.14561934      -0.34157304      85.27950412       0.22527321      -0.17785277      -0.83554677
Na      27.14779864       1.44580725      86.99314015      -0.88705604      -0.59840158       0.79591032
Na      24.92611454      -0.50227187      89.69439368      -0.27707805       0.07770130       0.20374236
Na      26.68785975       1.85503856      92.41281372      -0.20124985      -0.94596455       0.00994289
Na      24.52827654       0.10368896      94.67479429       0.67006489      -0.73590759      -1.33177790
Na      26.90939078       2.18472008      96.55281342      -1.24395068      -0.77813093      -0.86170086
Na      23.65669865       4.55657429      71.71112739      -0.64628924      -0.33602014       0.18326732
Na      24.00423254       2.38766458      72.87774933      -0.32733310       0.23660840       1.21939167
Na      26.22759827       3.00625171      75.63338256       0.58986711       0.06556424      -0.91433405
Na      26.25187330       5.33772494      78.57824923       0.73247104      -0.13740096      -1.41216643
Na      22.65689646       4.52854726      80.10264908       0.22614466      -0.34533421      -1.04922141
Na      25.68408369       5.05873069      83.31635527       0.49183523      -0.09823715       1.07718372
Na      24.09244924       3.30971460      86.54661104       0.00233019       0.00988756       0.24613188
Na      26.65727386       5.51430964      87.14583441      -1.61304890      -0.64816716       1.05245531
Na      24.41639440       3.97778025      90.06374254       0.21293360      -0.54790606       1.59872544
Na      26.66867387       6.59080601      91.88515039       0.32067694      -0.15846768      -0.77366285
Na      24.41043394       4.08177066      94.08788304      -0.73538285      -1.34851803       0.15740207
Na      26.45994044       5.76852470      96.80821106      -0.27504416      -0.83550356       0.46551997
Na      23.37423579       7.42659822      73.62405389      -0.39729923       0.88115493       0.27549377
Na      27.45938156       9.58583062      75.31373205      -0.67321186      -0.09107041       0.57560240
Na      22.18027827       9.87426966      77.91300830       0.40430079       0.27795436      -0.04944907
Na      27.90510220       8.11201060      78.24474028       0.35377509       0.19969586      -1.29584273
Na      25.22048161      10.58648789      79.36940925       0.82299271       0.26338418       0.26235325
Na      26.40927527       9.78916279      82.95390343       0.14435903      -0.09153983      -0.50945017
Na      24.33718333       8.02230460      84.81237839       0.14437872       0.20624874      -1.55372409
Na      27.11773358       8.98354979      86.61634538       0.54091810      -0.47290398       0.50051614
Na      24.48522822       7.85361736      89.69430585       0.36460980       0.00340395       1.55676825
Na      26.69960708      10.07286768      92.43790606      -0.96637502       0.96247961      -0.03258960
Na      24.36338466       7.71849095      94.12625854       0.06668449       0.21967797      -1.37967608
Na      26.58349087      10.40507260      96.16699304      -0.69769802      -0.14676989       0.09654944
Na      24.63911284      10.61310038      74.36924118      -0.47809999       0.89204371       0.60740001
Na      24.73902826       8.12509600      76.21646654      -0.50405886       0.74960786      -0.67774879
Na      25.05383770      12.69097826      76.98132975       0.47090952       0.42151299      -1.69363443
Na      25.14275518      14.56591779      80.12033002      -0.54261152      -0.57700160      -0.83249621
Na      23.33098527      12.06656490      81.35882317      -0.38193854       0.01105063       0.04332983
Na      26.49901666      14.77969855      83.39465440      -0.72899305      -0.68705886      -0.91271636
Na      24.82070620      12.08129838      85.39295897      -1.55269970       1.15334286      -0.76626098
Na      26.38668149      13.94823259      87.43312457      -0.50062267      -0.25351575      -0.31741433
Na      24.87431829      12.36481779      90.10276671      -1.10533263      -0.65962146      -0.94125355
Na      27.08167780      13.97849065      92.67782040      -0.79408782       1.24459291      -0.04074385
Na      24.07740072      12.08634056      93.45111756      -0.85205655      -0.25070618      -1.49306038
Na      26.83665352      14.37327052      96.55145045       0.56047808       1.22663241      -0.06663119
Na      25.59747879      15.38113306      72.39061361       0.40979946      -0.73926268       0.27078482
Na      28.73444604      18.00159180      75.65391000      -1.14062639       0.01550776       0.23886526
Na      26.35527407      15.05665418      75.52455485      -1.35631771       0.60352757       0.11692690
Na      27.47620979      21.48039092      79.40700400       0.25080730      -0.09707106       0.09417773
Na      26.36765712      18.17667113      80.26984359       0.72797863      -0.44413858      -0.38335868
Na      26.20517344      18.19057232      83.67044645      -0.00224677       0.88759488      -0.11558714
Na      24.42459041      16.50243021      85.92737932      -0.07086687       1.16150089      -0.30627762
Na      26.20340223      18.61973330      87.87859630      -1.26251479      -1.20123937       0.60523378
Na      24.39886871      16.22159605      90.39543164       0.13591756       1.12515664      -0.03068977
Na      27.15039410      18.07734795      92.11906481       0.69341259       0.07452476      -0.57683301
Na      24.64385798      16.18139093      94.19547597      -0.34264276      -0.26775439       0.20745150
Na      26.45149355      18.60203040      96.43510570      -0.50499587      -0.97867763      -0.77529228
Na      24.04285658      20.00367802      78.08832035       1.18179434       0.69479805       1.21839651
Na      29.58242690      20.87140319      77.44409569      -1.56321588      -0.43870702       0.49831757
Na      27.76757430      24.91608315      76.43625127       0.57175246       0.71714988      -0.34028341
Na      24.79583998      20.68481382      81.76073760      -0.03185766       0.48771449      -0.96546523
Na      22.66811128      17.65083514      80.19527519      -0.76919976       0.16418578      -0.03008798
Na      26.04637738      22.91359241      83.62155459       0.50350152       1.37349032      -0.36922887
Na      24.45389388      20.85155062      85.55379455      -0.07422070      -0.10891512       0.09434546
Na      26.77235081      22.11209989      87.96081894      -1.32357795       1.26239919      -0.35552756
Na      24.41203736      19.98575178      90.73990829       0.64182923      -0.41988419       1.36066590
Na      26.74594527      22.57868107      92.57874242      -1.41668208      -0.35205874       0.96448983
Na      24.88809292      20.51500429      94.39110819       0.56665531       0.44120920       1.06247609
Na      26.64742877      22.95295949      97.29272001      -0.89063370       0.97454114       1.02049905
Na      27.79008224      24.06112571      73.18437087       0.37626781      -0.12005352       0.21886389
Na      24.85423547      21.45772260      73.13330740      -0.12633168      -0.24880160       0.52609959
Na      25.25643946      23.17365523      78.10915865      -0.15620875      -0.78959241      -0.39803282
Na      23.09325157      26.70057529      79.06413652       1.27103687       0.86120579      -0.92163190
Na      24.76859957      24.41207727      81.01267230       1.22778036      -0.51911405      -0.75793018
Na      27.17550463      26.80704315      83.81920967      -0.55751807      -0.14887191      -0.30913413
Na      23.73804418      24.84518330      84.64778570       1.34895898       0.38894899       0.37702225
Na      26.76684807      26.03452552      87.62925862      -0.54396504      -0.47360263      -1.82102086
Na      24.49379700      24.19735758      90.06304833      -0.40999764      -0.30096793      -0.71614416
Na      26.67625573      26.48769638      91.87746782      -1.46090879      -0.33876437       1.10390195
Na      24.65502390      24.55062703      94.48259480      -0.06559199      -0.55405781      -0.55045823
Na      26.47722850      26.92591120      96.51632333       1.19392550      -0.72177864      -0.50868088
