2712
Lattice="28.6612 0.0 0.0 0.0 28.6612 0.0 0.0 0.0 100.8156" Properties=species:S:1:pos:R:3:momenta:R:3:forces:R:3 energy=-1497.8590681171884 free_energy=-1497.8590681171884 stress="-0.029005352261701846 -0.013979402207132908 0.016683042926149482 -0.013979402207132908 -0.036430288129583134 -0.01477880241800668 0.016683042926149482 -0.01477880241800668 -0.04689077736024694" pbc="T T T"
Na       1.93287585      -0.47289478       3.45308635       2.64508648      -4.02727563       5.04409498       0.81492174      -0.66501231      -0.78946520
Na       4.03546546       1.91572961       4.14083207       5.25153083       2.40176354       4.23732204      -2.16361947      -1.48365392      -0.93360124
Na      -0.04523490       0.39516092       4.75634353      -4.55173534       1.28394533       5.04510549      -0.05668573       0.01622960       0.69900020
Na      -1.63371872       4.06583158       6.23116046       2.05534226       2.99201793      -0.82248411      -0.00793287      -0.77824365      -0.49107947
Na      -0.50775625       0.60723129       7.75178626      -4.14950803      -1.14372439      -7.72662293       1.39687277      -0.60105247       0.90485651
Na       1.46806555      -0.14932106      11.74145892       3.87394425      -8.23048301       2.64331992      -0.09124973      -0.44486430       0.77463644
Na      -1.13318756       1.56891571      15.17040701       0.16264716       4.27921819       0.01652175       0.06876032      -1.15884755      -0.82441018
Na       2.24125221       1.44138313      14.69981601       1.19435322      -2.02843983      -0.40733302      -0.02579122      -0.04557138      -0.31163176
Na      -1.79894198      -0.90432140      17.47608981       1.23373404      -2.24946895       1.14068408       0.56807187      -0.15973745      -1.28490250
Na       2.21900925       2.11346193      19.28667235       0.51883853      -1.54619138       0.14014452       1.00265901      -1.06219449      -1.10330068
Na      -0.15253706      -0.63807121      20.56130921       3.06360237       0.41046601      -0.27485695       0.61666571      -0.09395094       0.09944368
Na       3.57511650       3.27814455      22.42669756      -2.10635017       1.63176472      -2.82458186      -0.20468632      -0.10213117       0.54463221
Na      -0.21323215       4.62821847      -0.51037839       2.06468945      -1.14829749      -5.24358255       0.27473915      -1.32383019      -0.86229197
Na       1.56655404       6.69452852       1.86247828       6.67071277      -9.62356744       1.36256366       3.59561782       2.68591320       1.38327301
Na      -2.40646989       4.49318145       1.49942669      -8.78125687      -5.86829655      -9.99520806      -0.26665193      -0.38560572       0.10275909
Na       0.43688558       6.36881176       5.58098950      -1.92130933      -0.13897309       0.22175287       1.40883530      -0.90220578       0.21744919
Na      -0.82872184       5.47889086       8.50668873      -2.32773154       0.81216040       1.02625385       0.39054240      -0.68556081       0.91339044
Na       1.34329264       7.99474448      10.67408198       2.17968968      -3.53712011       0.90588902       0.35606572       0.05033206      -0.20235418
Na      31.48645129      60.93530119      27.65951457      10.49999674      27.00458244      15.97150324       0.92022364       0.15167742       0.34160283
Na       1.00517350       7.00068212      15.89716102       1.83930941      -0.62218962      -0.53779470       0.11373022      -0.70471524      -0.62582619
Na       0.49510174       3.15681273      16.87142925       2.46924202      -1.19764896       2.49811058       0.31673568       0.33459113       0.82632468
Na       0.97217473       5.86905369      19.59716774      -0.84607318      -0.37070222      -1.60263441       0.61396757       0.09851128      -1.04942063
Na       1.01021194       3.32303328      20.71509757      12.21003674      -0.53777565      -1.90751560      -1.49847514       0.33157146       1.26917842
Na       0.81765434       1.92013487      24.07444360       4.49012753      -6.26337625       6.48316454       1.56888510      -0.46236089      -0.22319991
Na      -1.79692101      22.55082810       9.47935714     -35.31733431     378.84290398     244.45894312       0.23819226      -0.13381799      -0.65011413
Na       0.04941750       6.63179433       0.85920900     -47.21224770     -39.54098395     -33.79212532      -3.39331056       1.09365139      -2.66292219
Na      -0.43964802       8.12692923       4.10945437      -2.20408441       1.15077736      -1.69255450       0.25012556       1.11989829      -0.31169580
Na       1.81625357      10.09656944       6.14624752      -0.80382141      -0.86819845      -0.88680148       0.14968179       0.05321680       0.37692589
Na      -0.65070529       8.05754109       7.89257788      -2.57364645      -2.58431088      -0.96754793       0.42020498       0.96936181       0.32095952
Na       2.48893834      11.71824942      11.17034704       1.51380974       3.82000487      -0.14569223       0.23489488       0.06551578      -0.61130047
Na      -2.00952890      11.12114613      11.00257142      -0.81179448       1.17866870      -4.39083953       0.19899199       0.05773362       0.05401046
Na       1.45229028      10.86496965      13.68392518      -1.93674238       0.64398500      -0.46316985       0.96430843      -2.24507796       0.88004132
Na      -0.44437905       8.47240647      17.52484586      -3.52548712       3.30699763       0.12954382       0.41777789       0.65194487      -2.33502797
Na       1.76503678       9.98910756      19.59043355      -6.98988688       0.70141204       3.98757221      -1.16312379      -0.30661047       1.42207154
Na     -10.41932624      17.82036239      61.26544344     -14.51763292      -9.41497577     105.91213318     -15.17967994     -16.78159860       5.56858066
Na       2.12273058      10.38965616      22.93557912       0.33962412      -1.14776145       0.42479565       0.29188957      -0.53678208       0.09880338
Na      18.85067765      42.09825635      -8.12097573      58.82581974      87.27790896     -13.45755110      -1.32433398       1.80386521       1.92752485
Na       2.92511349      13.66189136       1.99318068      -0.14246397      -1.66463092       1.52154573      -1.56518706       0.29596593       1.25418927
Na       0.99995161      16.74056865       2.77947409       1.18561840       9.49053825      -2.06205677      -0.24186132      -0.45765384       0.99434586
Na       1.95859646      14.20828474       6.59446314      -2.66570195       0.09680888       1.25624429      -4.91448084      -0.99526293      -4.36158814
Na       1.17532420      14.71011835      12.85017013       5.37364340       3.36281037      12.03585198       0.49634032      -0.14113636      -4.17366037
Na       4.06419605      14.87923081      10.65134285      20.49546398       4.05925076      -1.13008549       0.30059777       0.03994731       0.68434807
Na       0.32260921      12.61359194      13.58265114       3.28495470      -9.82298766       6.23434377      -2.32316166       0.35070490       0.22524211
Na       2.12055563      14.86202029      14.81149925       0.79015433       0.37094666       0.55889673       3.84379901      -0.54362451       1.91872642
Na       1.98661946      12.07934502      16.97980766      -0.17890194      -1.40045617      -1.79245698      -0.95491925       0.18571539      -0.24835420
Na       3.24423326      14.58091271      19.18835037       1.86704541       1.20257051       0.13394976      -0.91229220      -0.67457591      -0.60461328
Na       0.76645525      12.75920797      22.29535250       2.24073279      -1.33806545       1.64791249      -0.26983749      -0.44256947      -1.05330464
Na       2.53356571      14.28501735      23.48850458       2.03791912       0.45892776       1.23194925       0.64504640       0.50019343      -0.00179975
Na      -1.22003788      17.69193346       0.34651290      -1.57225405      -0.77690152       2.47531975       0.09203021      -1.89241041       1.41577892
Na       1.59278821      16.57525900       0.64326535       0.61699371       0.60857685      -7.80493299      -0.29307849      -0.51990954      -1.90953312
Na      -0.33545465      17.13869345       4.96715801      -2.52254499       5.23561380       6.16848496       5.63808475      -6.44564132       1.77515301
Na       2.07534070      18.57848623       6.52733573       2.45016976      -1.54061358       0.85678893       0.01489723      -0.22871963       0.06381362
Na    -322.53163973      76.97625433      15.42089872   -1112.04360928     202.14528519      31.75538413      22.04175538      10.58370079      -5.70661317
Na       2.24907488      18.56612290      10.87409458       0.47292883      -0.12243245       0.46089955      -0.43726051      -0.91656819      -1.57172623
Na       0.18246887      17.06611845      12.89024635       1.34170962      12.71438619       0.12670091      -0.15130463       1.06634591      -0.33795615
Na       2.87097608      18.10746131      14.51283477       0.98665275       0.61735724       0.79852079      -0.31914317      -0.47521947       0.40990884
Na      -0.27223659      15.97479054      17.09795869       0.05815148      -0.28710175       0.25103709      -0.39926648       0.81742378       1.40236034
Na       2.30120869      17.75343189      19.06625546       0.07687992      -1.53679125      -0.76497334      -0.12287501       0.14771939      -0.22331865
Na      -0.72230874      16.16443412      20.44903839      -1.89966424       0.92625465      -0.59606010      -0.26949861      -0.01168916       0.08518920
Na       0.90762265      17.65399063      22.76399636       1.07121334      -0.00100277       0.46218264       0.19836348       0.26844908       0.39719333
Na      -0.31083658      19.97824126      -0.56212996      -0.18946772      -0.76925273      -5.30485884       1.64232673       2.74818382       0.88416244
Na       2.97103829      18.64782216       3.58331144       2.29510066      -2.31653845      -0.02855919       0.29617826       0.14669959       0.00725467
Na      -1.41254116      18.32856154       4.66393458     -77.06425317    -105.49809286      34.87900249      -2.98927706       6.36136930      -3.01675864
Na       2.14590562      22.60758347       5.65347920       0.88500763       0.13218277      -1.77721300       0.55140250      -0.17138641      -0.65775388
Na      -0.16739022      19.94059189       8.16680088       0.30311102       1.40824355      -0.45971142       0.14415458       0.42437271      -0.04344126
Na       2.80076108      23.14383316      11.50658748       1.62075755      -0.44412241       0.60724942       0.25703047      -0.31950803       0.18905712
Na       0.02991064      20.08515625      12.85299995      -0.51454636       0.14631028      -0.31024300       0.25374581       0.23489952       0.03978490
Na       2.10844151      22.35662058      14.58592739      -0.26375889       0.28380897      -1.27713845      -0.73872817      -0.05724652      -1.78696075
Na       0.71905572      20.34549372      16.55754977      -0.74238838       0.47792720      -0.91081020      -3.94501077      -1.65447423      -0.17563125
Na       8.90854960      18.95559919      23.50545223      10.28066101       1.31912756      -1.91320770      -3.29206279      -2.06196032       1.21560615
Na       1.07387173      20.60734472      19.98442862       1.61084944       0.96071507      -0.94594447      -0.56357011       0.02909292       0.00895630
Na       1.11829386      26.82544126      27.12627425       1.25660119       4.01500264       1.83774879       1.69134225       0.90708560      -0.77940835
Na      -1.16462686      25.11199972       0.00913690      -8.61778906      -4.69514964       6.95538306      -1.60866738      -5.29593763       3.28877042
Na       2.58391869      23.56055622       2.13584859      -2.36738911      -0.13455518      -0.50604215      -0.27775937       0.19654517       0.05865053
Na      -0.76184295      24.77804737       3.94980326       1.17688256       1.00129378      -0.41631471       0.25075725       0.67483459      -0.01301499
Na       0.70726748      25.95667389       7.18969022     -22.58000500     -17.12109344      10.53349004       1.36850993       0.20358857      -0.43955370
Na       0.46476581      23.70845005       8.77526768       0.94515490       2.34041749       0.15465741       1.33098648       7.94028622      13.57381110
Na       1.58437382      26.03143000      10.28061537      -1.37830504      -2.06740800       1.23071496       0.03456084       0.00543632       0.02394871
Na       0.05348174      24.66827128      13.00770043       0.51598730       0.34033624       0.82055190      -0.47355542      -0.19900124      -0.37498501
Na       2.36791411      25.82149675      14.04979078      -5.77144036       0.26933728      -1.68816289      -2.70738159       0.08372958       1.02179727
Na       0.24420776      24.26566478      16.91624851       2.48896283      -0.48526495      -0.46543953       0.71442391      -0.09590686      -0.18378653
Na       4.29193622      28.00416354      19.10750399       9.07808312       7.15553292       2.02758264      -1.57952943       0.30437842       0.01477794
Na       0.48194826      24.01671840      20.25291640       2.32909569      -1.52274903      -2.30000009       0.76662612      -0.38778558      -0.71414618
Na      -0.52002938      25.22130052      22.15500775     -11.36039287      -5.65823278      -1.74995349      -0.54482290       0.51326035       0.82883739
Na       4.36236643       0.35708124       0.01137446      -1.52645328       2.33370730      -1.42204958      -0.36411845       0.74917708       0.26273203
Na       6.39258316       1.63003882       1.98389113      -1.56595913       0.84599461       2.64765164      -0.74383011       0.92340770       1.03148391
Na       0.78904349       3.77452980      14.06705480       2.13648031      -3.15595387       1.94882479       0.91204286      -0.69427571      -0.44540782
Na       6.80958896       1.03322952       7.13446876       2.33901931       0.12813985      -1.97928642      -0.34701466       0.83288602      -0.29377949
Na       3.58395766       0.20086397       9.69279334      -5.42663705       0.74658290       3.46053917       0.23608887      -0.08839620      -0.65631456
Na       4.04425888       3.36072941      10.58121948      -6.45244989       1.71827149       1.13627351      -0.23061654       0.07037665      -0.10073978
Na       4.25492867       0.23437869      12.68424091      -0.35260697      -0.07218588       0.53589146      -7.01672555       7.54338159      -4.16979210
Na       5.77097672       1.91742961      15.59832703      -0.62546810      -0.26132575       2.19265302       0.03470705       0.33734306       0.01219138
Na       3.73221173       0.02238420      16.46450316      -0.05833133      -0.48614208      -0.93428303       0.02261707      -0.70644043      -0.37790771
Na       5.76994092       2.74463492      19.21681387      -1.07690502       1.10177396       0.16337686      -0.04474381       0.03911077      -0.17235743
Na       4.45607874       0.52031862      21.45143485       2.13239353       5.69080492       0.27180825       0.06718380       0.01929403       0.47280842
Na       7.13783138       2.09426646      23.37044338       0.11953486       0.51989055       0.04007288       0.57141724       0.11399594      -0.23486334
Na       3.86714463       4.08900524      -0.03160401      -1.83138122       1.50019936      -6.46694917       0.04838784       0.00926512       0.15863805
Na       6.06189280       5.50647852       1.63270304      -1.35027333       0.81720595       1.44886923      -0.72571540       0.97652189       1.12780087
Na       2.16803366       4.91356051       2.75931322       1.12569615       6.87782816       3.99332953       1.02006178      -2.75839000       1.33281004
Na       7.48296217       5.66662164       6.75752047       5.17486545      -3.07280504       2.84319580       0.15335291      -0.00466114      -0.44732229
Na       6.67675786       6.70995738       9.56940946      -3.99625434      -2.30916421       1.29982134       0.29571396       0.66907360      -0.10307164
Na       5.59254291       7.09217648      12.17846267      -1.61720293       0.30821435      -1.88421510      -0.19587797      -0.14120109       0.13083572
Na       4.90913312       3.96808265      13.55213020      -1.22186699       1.67574107      -0.04264500      -0.22781522       0.17584296       0.09642064
Na       4.64653644       7.11399704      15.90139395      -2.02894105      -1.06396275      -0.71798080       0.42868282      -1.01555459      -1.00749270
Na       3.61078801       4.67797583      17.24096751      -0.98045300       0.33812814       2.74033539      -0.14680284      -0.47820564      -0.14375446
Na       6.08014404       7.45603329      18.74490276      -2.17557868       3.39886388       2.58014661      -0.51532123      -0.23645328       0.55878697
Na       3.80556502       4.82820391      20.51409849       0.62442101       1.82606128      -0.52014580       0.35279998       0.67673699      -0.43059113
Na       6.27116701       5.34034642      23.29626499       1.84911431      -1.08407926       1.22690938       0.07855087       0.64056718       0.04188674
Na       4.04113286       8.57442856      -0.23159480      -1.20006753       0.70221677      -0.45212550      -0.16017122      -0.24068465       0.11530538
Na       6.09245537      10.16977900       2.46417056       1.02296543       0.69986994      -2.61236689      -0.29169472      -0.77155968      -0.82542773
Na       3.24078259       7.98859481       4.58924796      -0.25695805      -1.23629021       1.10545644       0.54213866      -0.07871411      -0.24382693
Na       6.04359485       9.90587008       6.30785986      -0.92658748      -3.47659584      -0.24465328      -2.62590671      -0.53431583       0.89740805
Na       4.09466577       7.77304322       8.34798339      -0.93790559      -1.31784673       0.52531099      -0.34330681       0.16434579      -0.08105750
Na       5.97301544      10.39316890      10.40735421      -1.75854170       1.08047226       0.13773182      -0.38132084      -0.45264987      -0.58697109
Na       3.20227423       8.60902858      12.85644320      -3.35344912       1.88239161       0.74460333       0.20867740      -0.03017068       0.32758168
Na       5.59348003       9.60386974      15.71599343      -0.35637731       0.04550514       1.88151004       0.69921069       0.53466197      -1.51848384
Na       2.85431870       8.61806804      17.01167531      -7.80903248       2.43342090       0.78434671      -3.81163108      -3.28060370      -4.45302497
Na       5.80017105      10.64926774      18.00463156       1.14638132       0.25755098       2.44504988       1.08251917       1.19339204       0.59756970
Na       3.81053867       9.38325341      18.22673389      21.18978308     -47.42936986     -43.31629391      76.68102244    -113.24507251      -0.77118969
Na       6.14984266       9.78039277      22.37200733      -1.43206860      -1.01835944      -2.37277684      -0.45870909      -0.13711295      -0.48822500
Na       4.34107584      12.88297228       0.43382281       3.58166863      -3.15619316      -4.57319192       0.44541869      -1.37421085      -0.96684266
Na       6.57090533      14.05508011       2.16342857       0.99441896      -1.44284387       1.17055723      -0.33257317       0.49748130      -0.39991469
Na       3.37405419      12.02310953       4.57332690      -3.97010194      -4.10493567       0.86499212      -0.27954966      -0.56385304       0.06353593
Na       5.90972554      15.86272849       4.67355404       2.55677305      12.01931178      -8.57824120       1.31736043       0.76647408       0.12672416
Na       4.23170997      13.06999005       8.88268660       1.98729916       1.90908480       0.89192080       2.38313762      -3.51355580       0.71123132
Na       8.80981249      18.77220975      10.49888478       1.71134768      30.20673821      -4.02861895      -0.95488687      -5.74169512       0.44095584
Na       7.19603859       9.65606626      13.30210993      -1.30396333      -0.06846834       3.63752791      -2.43422527       0.59854710       0.87959867
Na       6.41859237      13.75836383      14.75913089      -0.29993918      -0.04784457      -0.38331348       0.03246361       0.01674477       0.08368918
Na       3.96151164      12.65513887      15.64518375       2.15896222       1.13356926      -3.90906869       0.56894422      -0.16367003      -0.58690360
Na       6.19763727      14.28344552      18.66030682       0.67296152      -0.08691874      -0.67967607       0.37276870      -0.60792076      -0.20107552
Na       4.41616436      12.52604345      21.21215999      -1.63294665       3.54294825      -2.72730529     -10.41432475      -8.29705593      -5.22777017
Na       6.65568068      14.48667312      23.40243225      13.72556302       2.34013398      -0.25232805       2.36913575       2.32339440       2.96520742
Na       4.12001827      15.85474351       0.51408235      -2.33883845       2.47220910      -0.38202979       0.99400297       0.60982509      -0.04381847
Na       6.45045363      13.53284632      -1.15051777       2.25387088     -21.35828418     -17.35948678       0.10538098      -0.04708199       0.13770861
Na       3.86313369      14.81555665       4.53497370      -3.96093572      -1.06756958      -1.72726014      -0.86156812       0.26086606      -0.10874906
Na       5.51135307      17.85507132       7.12272213      -2.47068304      -2.46654699       0.78749265      -0.20859149       0.72011804      -0.24136344
Na       3.65000164      16.25703932       8.45172043      -0.30469901       0.91708221       0.07944230       0.74741108       4.52226317       0.91626605
Na       5.92821472      19.29786268      10.69030511     -11.17928613      10.53948561       5.54185998      -0.92634863      -1.57355543       0.19964464
Na       4.39599583      15.61414042      12.87717622       0.88599030      -2.97230096       0.95770718      -0.91028881       0.09144203       1.72329787
Na       6.06955677      18.34552949      15.78174682       1.09896320       1.69975881      -1.16252342       0.34029785      -1.20331871       0.16724614
Na       4.54447059      15.77431025      16.53807102      -0.14112758       0.29267591       0.48670740      -0.20335993       0.21780066      -0.19384711
Na       6.34055734      17.99424335      18.62394139     -15.57732887      -5.46531033      -7.89942181     -14.65379429      -5.97387997      -4.22809810
Na       4.40559092      16.16697808      20.87374557      -0.58985257       0.17131732       1.32492463      -0.65404217      -0.44573772       0.75782181
Na       5.97958347      17.95520216      21.33081666      -3.02373911      -1.70277593      -7.53119154       0.36898371       1.23978662       0.72132364
Na       2.14126949      19.36174645       0.47486915      -2.82869226      -3.70476584       2.05251513       0.57828520       0.10640375       0.23735696
Na       6.05294042      22.20267882       1.63991240       0.15946645      -0.50733489      -0.25377687      -0.10082355       0.19077797       0.05252802
Na       5.27079161      20.60813479       4.77386058      -0.35103953       1.37245371       0.72147846      -0.73774872       0.27168483       0.51661392
Na       6.42782394      23.83277330       8.15353998     -18.98426937      43.43229571      22.46985879      -2.58636519      -1.96158541      -1.97898734
Na       3.55097468      20.93146637       8.46102319      -2.52915077       1.35534677      -0.40189283      -0.81569269      -0.13642249      -0.16033556
Na       7.14569903      21.21236219      12.07305474      15.99459533     -23.92902702      10.97933169     -11.55502030       5.09373215      -5.79053916
Na       4.41784842      20.28310387      12.97349933     -12.15270966      -4.64075684      -5.80204221      23.65875624       6.75432633       4.85418148
Na       6.08624274      23.52578249      14.45084533       8.34985455       1.57363458       0.81284619      -0.98519219      -0.33703155      -0.25391421
Na       4.00920040      20.07898847      16.84269934       4.21555979      -6.57721561      -0.61521404       4.58689511      -2.60205116       1.07917244
Na       6.34969686      22.62959500      18.47499956       0.29385178       0.93221487      -0.38089801      -0.52550491      -0.18524494      -0.12668950
Na       3.89934860      20.51276033      20.20617423      -0.28924643       0.47572750      -0.47710519       0.49410773       0.23119356      -0.08415845
Na       4.78176841      21.62178670      23.09118698      -0.91493906       0.97894201       0.93427798       0.59920082      -1.00302181       0.37413555
Na       4.99182454      26.53972405      -0.14228313      -3.41122058       1.75221583      -1.80822844       0.32303705      -0.85956913      -0.75987146
Na       5.64508027      26.83428856       2.32911360      -2.40031828       0.64846196       4.55761100       0.00477783       0.22018377       0.38061914
Na       4.60232224      25.29643274       4.55456424       1.31185535       0.45577089      -2.19727424      -0.07213475      -0.34340559       0.37486418
Na       6.31407146      27.01162218       6.90326194       0.03112552      -2.22396118       0.39311948      -0.16919278      -0.45944309      -0.10037436
Na       3.93789165      24.16554551       8.43942688      -1.77550720       0.16271582      -0.55467696      -1.04949577       0.41813895      -0.10926453
Na       5.10141247      25.67615258      11.29793019      -8.54715596      -1.23271288       0.32395283       0.13959760      -0.24923852      -1.07442145
Na     -22.12162860      65.83059166      -6.94727831     -14.14044926      20.74358738     -25.16439830       1.45904569      -1.32338144       1.27097599
Na       6.29055234      26.64182720      14.80919647       2.61920395       0.57005295       2.02212439       4.52934320      -3.03571904       6.94137678
Na       6.38255311      20.31063416      14.46660915      18.91364548     -41.48838735     -25.67491340      -1.27316565       0.79569298      -0.70502236
Na       6.14048742      26.79969128      18.87148101       3.57502490      -3.70438506       0.07042228       1.59196893      -0.90881571      -0.07630698
Na       2.51948310      21.04905202      16.67043469     -13.07548585     -14.08223224     -14.81260465      -0.54600751       4.32583917       0.60714671
Na       9.72371216      27.32605401      21.24546123       7.13397068       0.52094244      -3.26638033      -1.04816276       0.30902929       0.52362701
Na       7.64321361       0.41614366       0.58757299      -5.28898308      -0.49729809       6.01481451       0.91822443      -0.26271444      -0.85820331
Na       9.78963028       2.89189641       2.03303741      -0.08937334      -1.25647496       3.53487620      -0.83271275      -2.84058866       3.31457589
Na       8.56273021       0.83537084       4.69320954       0.22652183       2.27814740       0.48543238       0.17152003       0.15768957      -0.17809281
Na       5.05507999     -15.20176643      38.77307775     -21.90400481     -16.38297047       9.56522438      -6.09437761       0.54866149      -1.13727352
Na       7.94062940       0.49095814       9.44791776       1.00800161       5.52824541       2.31021088      -0.13931886      -0.45786912       0.23803125
Na      10.80569742       3.86014362      10.89779219      -0.82194256      -3.38969861       1.34484870      -0.45993294       0.51278382       0.00176900
Na       0.03841941      -1.70588296      -0.71995463     -37.28124818      -7.02559637     -94.51679823      13.77573427      10.17445190      -1.30872988
Na       8.11395531       5.80050214      13.55527722       4.01469139      -0.22531740      -3.81828734       0.00054565      -0.60891356      -0.04328543
Na       8.00293102       0.21950609      16.55433433       2.56295085       0.00091793      -0.11830711       0.11310188      -0.11040303      -0.01300468
Na      10.17290787       2.50953623      18.32977612      -1.02221706      -0.24010522      -1.31309695       0.17125674      -0.15122479      -0.02292981
Na       7.95807621       1.03819050      20.09698290       0.55351806       1.55879661      -2.60843783       0.05098975      -0.25948410       0.05770197
Na      10.46633183       2.32547016      24.40625187       2.68464336       0.16144635       2.23016439       0.23354051      -0.25356888      -0.01208725
Na       7.54348251       4.20854511       0.35325237      -0.98851091       0.92132650      -1.31379820      -0.26890614      -0.51532970      -1.09752155
Na       9.43984439       5.46705198       3.45912488      -6.44137232      -3.34273137       6.82050178      -0.59296402       0.39872151      -0.17624734
Na       5.58081479       3.05401482       4.86787578       3.43636352       1.87490207       1.65741116       2.11619173       1.92363915       0.87521150
Na      -2.53883612      -0.79054183      10.25641248     -47.55513660     -16.27965797      14.55118667      -4.79419828      13.01937061      -1.69894975
Na      12.67962592      -1.71363683      11.39806609      17.48018001     -25.91450531       5.85548150       0.21695092       0.81183039      -0.55289912
Na       3.53870252      23.37698242      -2.23273603     -34.24222175      66.50220913     -55.70687872      -3.91678194     -22.85151809      -3.86674947
Na       7.29610957       4.11815040       9.85447979      -0.50540929      -2.12071234      -2.95981658       0.25388968      -0.78450732       0.20165740
Na      10.73217149       6.75486507      15.12577785      -0.96062755      -0.40811322       1.46704005      -0.31545347      -0.92131576       1.32710255
Na       7.77113947       5.54534937      17.20084042      -0.32953026      -1.09582002      -0.76410806      -0.79815697      -0.56814967      -0.67100908
Na       9.82028834       5.72198336      18.39925286      -1.11380983      -2.36368686       0.02285486       1.16340988       0.01800947       0.59798268
Na       9.03703993       4.07187358      21.02232224      -0.91924756      -0.84128220       0.46004505      -0.24326847       0.12439209       0.20383935
Na      10.53314926       5.24591861      23.92167641       2.70436262       0.48688260       0.81914072       0.25483307      -0.03987783      -0.47953109
Na       9.79593969       4.26487783      -2.31672511       4.71057332      -8.84089924      -6.89283001      -1.20726686       0.90785741       0.05552107
Na       9.87496864       9.74605616       2.36400350       2.26789020      -2.89956074      -4.29070271       0.12760118      -0.24495051      -0.53204757
Na       8.19436914       8.31329004       4.58790606       0.66508038      -6.60337393      -1.78662711       1.63517278     -13.65881716      -7.45103319
Na      10.10268138      10.63167124       5.70962593       3.12101214       1.07362205      -3.99440032       0.97266835       0.73872792      -0.07920893
Na       8.39428027       9.73117317       7.55718964      -0.07848874       2.23366602      -4.45553189       0.66066725      -0.77554425       2.42690036
Na      10.16540871      10.69891020      11.09595699      -8.12881389       2.10761526      -0.27631173       0.05301506      -0.01233635      -0.37460453
Na       8.64425834       8.55062512      12.17790180       4.60297073      -4.23780921      -7.83802796       0.23552271      -1.04382465      -3.15862380
Na       9.87975707      10.44020501      15.09434635      -3.07968155       0.28595778       9.48012509      -0.77802933      -0.03591410       6.01334755
Na      10.19474034       8.60190245      18.89340075       1.63786732       1.42995940       6.20696889      -0.34138091      -0.28011999      -0.10593557
Na      10.27119417      10.80754937      20.48636491       0.41206079       5.36680281       5.45580321       9.48112094      -3.18338464      -0.31425028
Na       7.70675465       7.56435904      21.01201749      -1.61429486      -0.86253660       2.17203312       0.40107597      -0.23428385       0.49893091
Na      10.61580226       9.14746844      23.18027957      -1.70778712      -2.47958869       0.24468724      -0.78165545       0.14708381      -0.10676473
Na       9.36471604      13.11891963      -0.88006360       0.32851245       0.01646408      -5.75833305       0.00967831       0.10655378       0.80504958
Na      10.80539452      14.24385707       2.73525779       3.80891785       1.07911440      -1.80627913       1.50873311       1.75986826      -0.42659885
Na       6.13082302      12.07114759       4.06797777      -0.95860659      -0.03712858      -1.71964084      -0.02151466       0.51492732      -0.17950929
Na       9.85378054      13.88118884       6.38164634      -3.21656451      -3.94955876       0.88300231      -0.60556342      -3.34263761      -0.18964122
Na       8.28264900      12.46208169       9.18086381      -1.64126510      -1.26908146       0.83973410      -1.88092970      -1.64264949      -1.33621425
Na       9.37593840      13.96466476      10.08233758      -4.91698461      -2.87424435       0.96605510       1.44679388       2.49952989       1.38237444
Na       6.94065756      12.51945214      11.90493116     -10.75425945       2.26739278      -6.05587078      -0.38589059       0.89270086       0.09316300
Na       9.32874618      14.29287388      15.16395570      -0.20894924       0.69549231       3.43521274       0.71694802      -0.96430841      -0.53802284
Na       8.81547941      12.33484509      16.90628290       0.56354098      -0.04689474       1.57289244      -0.82993484       0.08792691       1.19424653
Na       9.72163011      14.50727689      19.91905197       1.61759464       2.79800768       3.02117602       0.64637007      -0.15038828      -0.45917228
Na       8.07350718      12.31727320      21.59371185      -2.08281079       0.67067441       2.35918496      -2.09445755       2.06677843       2.52473935
Na      10.18148347      14.92396026      23.81722256       0.17632604       0.23693328       1.76398589       0.01418441       0.84831638       0.13974293
Na       8.71999671      16.45564381       0.75640742      -3.60497183       0.92340117       0.54194565      -0.16191971      -0.17709081      -0.27108447
Na      11.07731822      17.46663335       2.53956705       2.78717403      -0.84996068       1.48561236       0.27006259      -0.31305588       0.17103177
Na       9.09630220      13.23079627       2.60431297       3.81156385     -19.99895829     -11.54574256      -1.91675010      -1.78941202       0.22417873
Na       8.08107913      19.56883256       6.56490497      -5.97631970       1.21029612      -0.43466291      -0.28665745       0.15793235       0.60267371
Na       7.58748320      16.30982220       8.14764921      -5.15469900      -0.09253706      -0.35840582       0.09068914      -0.35301310       0.52530475
Na      11.05350545      17.49953518      11.27213862      12.10704101      -1.88878537       5.64585362       0.57030558      -1.42398100      -0.30253869
Na       8.08524690      16.00519243      13.14947753      -3.59782682      -2.36998944       2.35876566       3.50683497      -0.93189596       1.96300414
Na       9.23044253      19.06885687      14.10711542      -2.81631766       2.88742810      -0.49598251       0.08097815      -0.10890578      -0.17296006
Na       8.50921111      15.79031801      16.96104602      -0.35667297       0.73121298       1.04797298      -0.96380956       0.47305165       0.93305467
Na      10.54328923      18.90944112      19.34184566       9.70734425      -0.36181735      -0.65999083       0.99709632      -0.70859504       1.48806843
Na       7.44565690      15.55561600      21.00094456      -3.05082054      -5.31159453      -0.81872271       0.46659772       0.34480877       0.16918676
Na      10.64840789      19.76126279      23.56522241       0.15132695       1.30125644       0.16040208       3.72108221       1.43584036       0.84469321
Na       9.53800573      19.67069616       0.55860290      -1.36899097       0.05959713      -2.68340798      -0.13280844      -0.27964566       0.11115446
Na      10.20480957      22.65874421       2.38395459       1.68970571      -0.12584965      -0.92098650       0.26553858       0.33081596       0.48746031
Na       7.74716070      20.49980416       3.86270464      -5.76372427       2.78778781      -4.81879819       0.63226144       0.04255053      -0.49761259
Na      10.48177035      21.70421060       6.77995477       2.06455563     -12.93329426       6.49082422      -2.08560858       1.39679036      -2.25378538
Na       6.01238251      21.27948054       9.05185315     -12.77744648      13.15793983      16.32950471       0.48778126       0.16693886      -0.38831378
Na      10.15527437      23.83318340      10.91885497      -0.28705645       0.81399316      -1.65213890      -0.77415753      -0.76324700      -0.46615703
Na       8.20125679      20.86339306      12.59907023      -0.42989064       0.02758663       2.84053925      11.86908111      -3.28551455       5.96832775
Na       9.62941920      22.89012998      13.70795348      -2.51005698       0.30268561      -2.20990623       0.09023376      -0.43723174       0.53532091
Na       8.23977349      20.82593739      16.30411496      -2.43292283       2.40140799       0.68656799       0.11306987       0.45216117       1.01201709
Na      10.01792453      22.81142725      18.96177971      -0.11943854       0.14033266       0.91084477       0.16991764       0.35517125       0.11790165
Na       8.07878833      20.54369807      21.39431890       0.15608583       0.71350865      -0.29904328      -0.22647914       0.32342818      -0.68576997
Na       9.78414548      24.78535233      23.14364698      -3.65741171      10.39055782      -0.05448241      -0.39864548       0.00770423       0.77387346
Na       9.02825849      22.51633748       0.09370539       7.58327783     -11.15768166       0.91527058       0.31993961      -0.97389459       0.36303104
Na       8.65848316      26.64505871       3.11550334      -2.99329275       0.64060824       2.31387808       0.23365840      -0.17236117      -0.07636097
Na      10.17781806      23.59071327       5.33047750       1.60007129      -0.17004253      -6.88130921      -1.26224335       0.12505583      -0.78452757
Na       9.67855486      26.08182420       6.44319472      -0.27664590      -1.18293057      -0.84750296      -0.45919671       0.54058933       0.22289764
Na       7.92220353      24.72541580       8.75978471       1.74634061       3.47902952       1.18242920       3.67464739       2.16141976       1.56304904
Na      10.26760713      26.61591889      10.31457667      -2.32227329      -1.03090392      -2.08572319      -0.51699362       0.31574846      -0.55580830
Na       8.01052798      25.17277192      12.77115980      -2.26280017       1.87932259       0.43426734      -0.55275628       0.14518655      -0.79200755
Na       9.81662902      26.76086928      14.03589716      -0.70071192       1.52915535      -0.83647510       0.01402233      -0.10201755       0.74143474
Na       7.74990382      24.90122925      17.01926777      -0.07603953       0.63173196       0.48649153       0.53573240       0.03962427      -0.08801188
Na      16.50164810      30.02728534      12.14442326      -1.27661771      -2.31155378      -3.67282251      -0.72161305      -0.01994988      -0.23712207
Na       8.07621916      23.95610185      20.90123733      -1.98043167      -0.37186251       0.08742007      -0.65636519       0.38484224       0.12222141
Na      14.46392541      28.91060297      25.96134414      -4.44450100       3.24823155       8.40492444      -6.84063182       0.30633441       7.35216560
Na      11.61193995       0.25331993       0.49423548      -7.58198329      -1.44160016       3.42454947      -1.41763998      -0.30192118       0.67509886
Na      13.00512409       2.77253493       2.12918841      -0.62634036       0.58408903       0.81023253       0.40837370       0.17082758      -0.01137819
Na      12.06637013       0.78672354       3.98582354       1.15995310       5.40616829      -0.41592384      -0.09433658      -0.27500955      -0.28128922
Na      14.46318766       1.99350043       6.18772923       0.21947542       0.87291900       2.53122357       0.06337680       0.03540701      -0.04387435
Na      12.73855364       0.25260435       8.54448261      -1.70669661       3.27903033       3.76742028       0.03724000       0.31073417       0.69147783
Na      13.55887863       3.15866269      10.04475930       0.22744234      -2.33579657      -0.40849421      -1.96368434      -6.50647000      -4.05103627
Na      11.54579885      -0.16762212      12.90554452      -4.68050645       0.10229774      13.89877912       0.32409959       1.14952196       0.99036762
Na      18.99872967       0.53634510      13.37924472       9.27170719       0.91536709       1.38202261      -0.98405788       0.37177655       0.61009671
Na      14.26792537       0.43836911      16.19707076       9.55056312       2.64140116       0.55165417      -1.01264170       3.11532235       1.04450297
Na      13.84235904       2.03300084      19.31702609       0.19261847       1.56869023       0.59397136       0.23423062      -0.08828277       0.07802331
Na      11.61622829       0.73260897      21.63229649       0.95735363      -2.34543381      -0.47295726       0.21949513       0.22213533      -0.00885488
Na      14.53782123       1.31246955      22.80527220      -3.47284217      -0.68087354       2.20554890      -1.11264101       0.61561186      -2.25347432
Na      12.17450906       3.58098970      -0.62156106       0.69636095      -5.01086712      -3.66092237       1.63520987      -2.36927280      -0.85655131
Na      13.80665365       5.75364110       2.76049844      -1.14454805      -1.02581725       0.30602749      -0.52793973       0.07543845      -0.33484062
Na      11.43467433       3.80611524       4.49403097      -1.80992537      -0.03709831       1.84181321       0.29238749       0.00093525       0.70186151
Na      14.02936591       5.94011098       5.98567092       0.24634429       0.58121607      -3.42877309      -0.57867757       1.02971714      -0.52101706
Na      12.75671549       4.84488654       8.02438695       0.79540865       2.15289535      -1.95631871      -1.33640213       0.07289949       0.00019863
Na      13.96992820       6.61895505      11.14554937       0.91927582       2.15692318       4.14045312       0.56669398      -0.06969300      -0.97296703
Na      11.88171452       6.34341547      12.73066645      -5.11399823      -2.93246711       4.30959258      -1.15807564      -1.86414984      -0.20295915
Na      13.54624460       7.58464108      14.77649615      -7.74557995       3.88667466       2.18237016      -0.11173285      -0.84527479      -0.31053540
Na      11.00470801       4.08371850      15.40595460      -5.63344099      -2.03492532      -5.58740959       0.14769007      -0.44840141      -0.08106139
Na      13.39635051       5.83974218      18.43936185      -4.04089244       0.01763017      -4.17696736      -0.14559178      -0.08419133      -0.22062631
Na      12.34061091       4.22541219      21.11570236      -0.28802530       0.10763355      -1.76938048      -0.11986332      -0.53446354       0.16562066
Na      13.62669116       5.65519346      23.65326781      -1.64530773      -0.21982116       5.98369291       0.59296175      -0.04167277       0.64889466
Na      12.35120883       5.71915281      -0.67889420       3.70111076      -1.76374140      -4.98572888       0.53615206       2.65312978      -0.20557945
Na      14.26319230       9.92779102       2.91846553       3.21715929       0.32513003       0.18140900       0.16492307       0.13939661      -0.55860883
Na      11.24967836       7.55828105       4.98941865      -4.41685799      -2.56086775       1.88899322       0.40765201       0.00516934       0.05984468
Na      14.80217437       9.77602677       6.26903856       0.27437566      -0.88121843       0.72645360      -0.50909086       0.62190717      -0.43630433
Na      12.40878747       8.45385583       8.14882720      -0.96169826       1.01248375      -0.10037214      -0.49036149       0.11806957       0.26848982
Na      15.15803052       8.57275270       9.44209513       2.91728268      -8.71684633      -4.53892942      -0.76465533      -0.54747027       1.13905642
Na      12.76953064       8.44998555      12.22300382       4.21801339      -0.49909046      -5.62209459      -0.47586843       2.20633786      -0.83927288
Na      14.88535186       9.54763279      15.35905337       3.76319999      -0.85963321       2.42724891      -0.70650568       2.73365395      -0.71133171
Na      12.24296780       8.37122872      16.83027748      -0.90155142       0.46191618      -0.42645753      -0.21637427      -0.02986124       0.28060852
Na      13.09155641      10.15632336      18.66145252      -0.72858086      -1.15067106       0.38971175       0.95098116       0.21921435       0.81650504
Na      12.29104379       7.44768457      21.50589746      -0.65685856      -1.84864968      -0.48533007       0.25634234       0.37517922      -0.03533528
Na      14.46982994      12.04544676      23.98382978      -0.62969277       1.65854659       3.89807990       0.34436979      -0.35948095       0.57403361
Na      13.18540462      13.35607930       0.37144179       5.64826960       4.19064764      -0.34638994       0.26751807      -0.19889188      -1.83243824
Na      13.89351842      13.99395125       2.37065124       1.03392993       3.22810925       0.12903234       1.70794341       0.87818358       0.87841602
Na      12.37311998      11.22112466       3.98845547      -9.16398128      -3.90573837      -4.78062695      -0.64426893      -0.85406100      -0.07958721
Na      14.67729670      13.74533652       6.88976711      -2.45608729      -0.41623488      -0.40764096      -3.92054456      -1.14340942      -0.77972637
Na      11.10842461      11.91409274       8.66164342      -1.72520317       2.25643350      -0.30715526       1.08192528      -0.10502436      -0.47904429
Na      14.54785044      14.50379246       9.86506592       2.43436585       7.80312697      -3.86377592       0.84521924      -1.33711281       0.94774315
Na      12.39053612      12.49054187      12.49253958       1.45317327       3.92188584      -2.04308530      -0.31280460      -0.29900655       0.14219309
Na      12.95577813      13.36678644      16.34710281     -21.82925887      -9.29682472      18.34259548     -11.67653496      -2.50148513      -1.81385999
Na      11.64463882      11.79839377      16.85838737      -0.90077366       0.50035258      -3.32899977      -0.97194370      -1.45918797       0.69125028
Na      12.20688592      14.94483509      17.05302421       0.12513936       1.26484664       3.81799166      -1.01838996       2.97056750       1.85926982
Na      12.15538036      12.57633651      21.05584391       0.85344135       1.14964223       0.49088103       0.22334019       0.11325438       0.56501879
Na      14.28732832      14.87360569      23.02640057      -1.22565259       1.92986953      -0.15245976      -0.53843979       0.41275555       0.41428119
Na      12.50336416      16.22884563      -0.30190480      -2.33970126       0.99719511      -1.36489776      -1.21935235      -0.52999413       0.43511989
Na      14.34538796      18.76858685       2.12448143      -0.34051242       0.13885357      -0.69764528      -0.06309676       0.12062755       0.25059353
Na      12.62274803      13.50521306       4.42279042       2.18088785     -10.19162059      -2.03287084       0.21454083       0.95694957       1.99489305
Na      10.67395979      18.61240298       7.20374858      -1.43505034       2.77848715       2.94272162       0.14672223      -0.94733619      -0.08687371
Na      13.20851282      16.03900950       8.78500821      13.31257447      -5.43874687      -8.02729824      -1.16230538       0.96288206      -0.82098700
Na      14.52008481      22.57200112      18.30553827      -9.35854588      16.33876252      30.65742375      -1.28326297      -3.16573905     -10.22023527
Na      10.24107843      16.70071140      14.44657333      -1.52862098      -1.84486754      -0.51678075       1.17542571      -0.03294397      -0.81427376
Na      13.98664446      17.11959926      15.61749474      -1.50440103      -3.27748326      -1.24331926      -0.14537374       0.09747924      -0.81389976
Na      10.81600227      17.33925919      16.83322857      -3.14210940      -1.04407737       5.14753199       0.26426452       0.77345774       0.78519051
Na      13.46135327      18.18494099      17.73754872      -1.94587697      -0.51646698      -1.28542062       1.03149900       1.96143871       3.68181107
Na      12.06626378      16.83199107      20.83771962      -0.53277031       1.43698837      -0.65920052       1.79943133       1.97447729       0.46883984
Na      13.58563106      18.62447632      24.07145272       2.17248378     -11.35351994       8.14573680       0.79013637       0.66528763      -2.28038923
Na      13.78099031      20.66543183      -0.47316173      -0.46732573      -1.05555407       0.62337234       1.38839206       0.25245130       1.49805507
Na      12.99196913      23.31262125       0.83666447     -12.63517515       3.15194771      -4.35085905       0.39066908      -0.22392918       3.16822625
Na      10.80579460      20.03897898       3.73767944       1.53789442       0.62184776       0.56473347       0.41604134       0.11490192       0.42059477
Na      43.53128168     -13.02288825      -8.51710785      33.96948431      -2.92543558     -21.68430240       2.96822938      10.11650820       7.32211257
Na       8.97969927      20.47857317      10.05634402       1.14361422       1.65866800      -2.23050796       0.75268222       5.40138478      -2.02545590
Na      12.98337067      23.16693490      10.10589949      -3.23964758       6.02134924      -3.18289705       0.94377275      -1.02935047       0.34738554
Na      11.40690557      19.81673501      11.95764369      -3.66804137      -0.99652001      -1.62902633       0.61430861       1.05190651       0.40556744
Na      13.29814009      22.17488508      13.50347034      -3.48463741       0.45216163      -0.91942938      -0.81232105      -1.27519125      -0.15145715
Na      10.94365068      20.42387922      17.48624470      -1.10376265       2.38687458      -0.39943698       1.33563271       0.55532092      -0.25037850
Na      14.59440688      22.82328173      19.66102729      -1.66762775       2.54911492       2.34139282      -1.12101697      -0.41035143      12.48007083
Na      11.57599336      20.54906065      21.12709054      -0.71091182      -0.72386328       0.44129340       3.54809064      -0.22774725      -0.97255189
Na      13.80900743      22.22486926      22.91597246      -3.00890083      -0.63194481      -1.20332557     -20.68498029      12.32853834     -34.60109909
Na      12.37740034      23.67205355      -1.28026481      -1.35291006      13.44740627      -8.51978409      -8.45235076       4.89819761       4.71229010
Na      44.08393656      29.26138338     125.31342685      75.33522225       0.34055334     326.02734639      -1.53063218      14.68400942      -9.73701767
Na      12.48353955      24.58068017       5.03654952       2.27372954       0.17979815       0.70277515       1.05868665       0.14290216      -0.33846117
Na      12.17726607      27.76779180       6.22610404      -4.41191247       1.11179944      -0.33004717      -0.01040500      -0.45610765      -0.30642003
Na      11.95687327      24.33587165       8.31164720      -0.10006968       1.18436559      -2.21017963      -0.30379675       0.75463816      -0.90683419
Na      14.65804155      25.67725046      10.97804417       0.41002487      -2.75610478      -1.72702534       1.53936257      -0.08274961      -0.62261802
Na      12.17395187      24.68530189      12.48270776      -0.48613349       0.05606836       0.85650432      -0.54752967       0.01832209       0.63607706
Na      13.88612862      24.56197178      14.99835872      -5.23041762     -15.36946582       6.68962206      -0.52090065       0.66635128       1.20577373
Na      10.15822316      27.27865512      18.38760973      -1.92594751       3.90593027       3.69561108       0.23844120       0.05073257      -0.64405879
Na      14.00742091      26.61219152      19.74902158      -1.07287271       1.12482946       1.23939054       0.21585296       0.49012264      -0.63572090
Na      11.50293976      25.51273278      20.67772424      -0.60413810       1.28393472      -0.33761002       0.44161676      -0.79028420      -0.13644484
Na      15.15581110      26.66511843      22.77830201       1.46299056       2.74293899      -2.61950498      -0.07885802       0.25739493       0.31455549
Na      13.75378821       0.95328206      -0.34869017      -2.31852631       3.09643721       4.44857285       1.44532161       0.21182286      -0.35927440
Na      16.08258269       2.23826559       2.42170229      -2.12014537      -2.65113936      -0.19402395       0.05714809      -0.44149692       0.42999911
Na      16.10108118      -1.30869621       3.64206098      -3.65213569      -2.95084727      -1.55915302      -0.59338450       0.39621454      -0.11033928
Na      17.95796696       2.80987778       5.85024585      -1.64127614       0.90317000      -0.20118432       0.03677644      -0.61645821      -0.15787051
Na      14.81513140      -1.35304070      15.55968401       4.79949685       1.24146027      13.27371506       0.71692560      -2.19544714      -1.68136143
Na      18.14601293       3.98293434      13.30657883       1.45306863      -2.21216237       6.72252071      -0.24066247      -0.77270517      -0.71742715
Na      20.09716061      -6.52821570      11.33953468      -2.97671230       0.90858234       2.21222800       0.78115290      -0.05845683      -0.30488012
Na      18.23869383       6.06805366      14.52353116      -4.97838350       6.06738715       2.30751488       0.76148743       0.76815562       1.02093660
Na      17.88881100       0.73742558      17.63199883       2.19930109      -1.48865972      -1.50001603      -0.07890948      -0.78194811      -0.94306551
Na      21.07174062       1.16506088      18.00493505      -0.55383066      -0.43400442       0.80872442      -0.01830040       0.02726405       0.21643417
Na      17.72491150       3.08654912      19.40275528       0.87066142       0.00892559       4.01043150      -0.31048418      -0.32634301       0.36698010
Na      19.37521861      -0.61214136      24.27869648       3.55335846      -4.48979316      -0.12719366      -0.85556831       0.07210292      -0.17634135
Na      16.62197628       3.95130124       0.34668376       0.25617994       1.22249527      -2.83922093      -0.13450506       0.20863166      -0.77393200
Na      17.75418358       5.91792656       2.51666261      -1.81381420      -1.29712776       0.84660978       0.39616884      -0.26780333      -0.23523187
Na      15.87222310       4.90335522       4.57983887      -0.92468179       0.58991989      -1.07161409       0.02265320      -0.68921781      -0.41692012
Na      18.34577130       6.13333728       5.43456774      -0.02552041       1.15932309      -0.12821468       0.80737677       0.42123178      -0.13909805
Na      15.50936671       4.65787915       7.69332779       3.10755060      -5.74251552     -10.10268541       0.47611285      -0.61518881       0.75503848
Na      18.09949205       8.02734813      11.59154357      -0.16515927       7.95934976      -0.63374346      -0.97555549      -0.11730524      -1.92667898
Na      16.39957394       7.71728115      13.74960572       4.04608643       7.69698273       3.18933739       0.70724857      -0.36539557       1.45918408
Na      18.28106512      13.80051212      13.12751971       5.73062021       6.66285959       5.59004846       1.40714933      -0.15137937       1.05897758
Na      15.60300994       5.20761824      15.73958497       0.71568810      -2.71413540       0.18952317      -0.18151944      -0.53431814       0.26389251
Na      18.45877019       5.49656028      18.94634086       0.35793750       0.97598362      -1.25729592       0.65665745       0.59732899      -0.29923796
Na      15.34202646       5.23154378      20.76525246       0.40585143      -2.29941950      -0.66157859       0.27933494      -0.27790255       0.20983946
Na      18.09875017       6.20545652      23.57807922      -0.33881301      -2.61479605      -1.05302348       1.66011810      -4.90556388      -2.08180767
Na      15.74108166       7.07246314       0.87069894       0.46448243      -0.17534034       1.06945249      -0.09401830       0.22314391      -0.50539506
Na      18.02976623       9.45906268       2.30023926      -0.79034290       0.30165812       0.01966106       0.13009647       0.13171993      -0.07631721
Na      15.95638602       8.28687557       4.03540093      -0.68292885       0.81123538      -2.51903920       0.37859330      -0.69807912       0.35979280
Na      18.10635157       9.95404324       6.31618491       2.42551190      -0.01981424      -1.28750721       0.67425765       0.10825264      -0.02187744
Na      16.23056074       7.70510414       7.75946958       0.84133599      -3.30420822      -4.69351337       1.06273533      -0.88995810      -1.35591748
Na      18.01735270       9.84938782       9.51617363       2.77709134      -0.26863391      -2.00052549       1.33663728       0.67239020       0.59175938
Na      15.35890454       8.54821631      12.07521468      -0.67927724       3.07388805       4.89780436       0.00276516       1.83485042      -0.72187090
Na      18.28379734      11.77094092      15.55073080      -0.41152728       1.58475273      -3.53039272      -0.38313937      -0.08624313      -0.18439534
Na      15.84845010       8.21570252      16.96878910      -0.44161832      -1.09183058      -0.90229088      -1.09838608      -2.40966250       0.17222680
Na      17.32427957       9.65660936      17.45110686      -4.02712135      -4.76661745      -6.91674813       2.00703372       1.58208933       0.71567598
Na      16.62207285       7.61795106      19.41640434       0.50957231      -0.63797397      -4.81897171      -0.09704845       0.03959464       1.25587001
Na      17.49364899      10.05320747      23.93488008      -6.29069114       4.87294738       0.72456259      -0.09458800       3.86616252       1.01187757
Na      14.52447702      10.00151386      -0.04195179      -1.72934425      -1.65110773      -3.20385450      -0.01012479       0.08493070      -0.32562507
Na      18.69618059      15.22505865       1.75901474      -0.24024427      -0.17519994      -0.63235964      -0.07630356      -0.27493131      -0.14896234
Na      17.08855241      12.09855056       4.46681877       9.76445058      -0.13853149       2.80627159      -0.13411022       0.23209543      -0.66095403
Na      16.49548520      14.60359592       7.09756653     -39.83133386       4.34979210      27.49215891       1.93389125       4.86384761      -1.07512238
Na      16.94984973      12.81103357       7.37748557       7.99949902       3.45482789      -8.49389482       2.43099378      -4.11198662       1.12946410
Na      18.30278846      14.37945512      10.00311258       4.13342732       0.44663008      -6.74986804       1.81952486       0.21850065      -1.55088227
Na      15.45019225      10.82330491       8.92531406      -2.75983261      -3.11756426      -5.60898135      -0.80235946       1.98193255       0.39590851
Na       9.88271966       8.47932436      13.82769991     -17.78959768     -14.64437405       4.07088037      -4.85070497      -7.09936471       2.12755628
Na      15.29351492      13.35831607      12.90354218     -14.05582036      -5.84792974       3.75917411      -2.64904675      -2.09875193       3.65036061
Na      19.37715562      12.02484172      19.29012784       2.35793393      -0.93459189       2.39193643      -0.15820321       0.26233169      -0.36297907
Na      14.57091959      14.58991636      19.85424815      -1.20659328      -0.53221468       2.26530378       0.06185376       0.10462895      -0.36696621
Na      17.31367923      15.19888539      22.56409056      -1.42970774       1.55676605      -1.58680096      -1.90418144       2.61650081      -2.75243617
Na      15.63114242      16.41400688       0.54409596      -0.03547399      -0.17117895       0.09193040       0.75957445      -0.45513480       0.57626977
Na      18.35374256      18.28360221       2.20701015       0.44606885      -1.08908147       0.08386830       0.03593355       0.01200712       0.23381179
Na      16.39720338      16.62003064       8.71805488       4.90835256       9.20839224      19.47549547       0.23547370       1.17000177       0.44078785
Na      18.80818427      16.26484293       4.94197210       1.78407447      -4.18608649      -2.74246167      -0.40892058      -0.10771540       0.37415893
Na       8.87848656      11.51004127      13.88711999      -5.47574813      -6.45942398       4.05125855      -1.22594390       2.56974667      -2.32719574
Na      17.67250148      16.94904632      12.31181705      -2.38208134      -1.88548199      -0.80622375      -0.25833127       0.20210745       0.04175639
Na      14.32011778      15.54464397      13.15269789       0.39758547       7.47038702      -4.71396136      -0.37954418       0.67448369      -0.18917711
Na      18.10537175      18.71468068      15.24422583      -2.47731999       3.13796341      -1.20049113      -1.27958187      -0.27899532       0.00121948
Na      16.02110017      15.96586958      17.10093002      -2.61763965      -6.87485528      -0.13951026      -0.59341888      -0.09055556      -0.22299358
Na      18.44657278      19.23087258      19.18105986       2.02439754       2.87476142       1.54399599       0.35399490      -2.21528229       0.09011919
Na      14.13222456      19.79591359      20.71109293      -5.46511263      10.59115027       1.37427561       6.36150304      59.27959621      27.33444042
Na      19.05332548      18.83988164      23.96563773       0.49151504      -1.88600532       3.18093004      -0.44576678      -0.65704089       0.36497516
Na      17.50042027      20.66049137       0.69312351      -2.90212548      -3.12414945       4.44742474      -0.44737450       0.25307602      -0.37293167
Na      16.87561821      24.18157381       3.58243769       3.48598103       1.73679690      -1.68579097      -0.00577470      -0.37777670      -0.42386182
Na      10.22306533      15.77709161       6.44738983     -10.71901188      -2.72529711       4.36526380       0.80060909       3.04030808      -0.15971823
Na      19.73494193      22.38929296       6.96042716       3.18333175      -2.47186253       1.33287547      -0.11309142       0.11892750       0.09165051
Na      15.24878328      20.63465415       6.47824877      -0.80736874      -1.26018572      -2.46670606      -0.31339860      -0.57627450       2.06391158
Na      11.39120574      20.83465400       8.15462148     -24.41907939       1.85730800      -4.72128535       2.63039372      -1.15933270       3.41562562
Na      18.28997950      23.94161101      11.35642943       7.75616636       6.52949461     -10.37475417      -0.07148116       0.54851279       0.56400945
Na      18.85282500      22.01585812      14.32578134       2.15609325      -3.42997601       3.34796063       0.06645547       1.12717485       0.18501247
Na      16.99119475      20.78131218      19.30814268       0.83451333      -2.73809392       9.67356809      -4.20062170      -2.54585867      -0.05363066
Na      17.76164490      22.73784118      18.50994328      -7.32013103      -3.34611527      -0.11867387      -1.82450260      -1.59896703       0.75693782
Na      17.36343008      21.98080241      21.09877542       1.73511352       2.66081932       2.70347046      -1.37777319      -1.28671249       0.43180959
Na      19.09223640      21.12100829      23.07086383       4.03696076      -3.02944492       1.23010373       0.86615643      -0.09209816      -0.17926877
Na      15.04298033      24.96835447      -0.50874409      -0.11790554       3.02167514      -2.15473794       0.80364283       0.38445136       0.20654782
Na      18.86225150      30.70445448      -1.08184961       3.42206626       2.69430412       0.66558344       0.50975753      -0.19718445       0.78545109
Na      15.33747024      21.30353775       4.38867244       1.79718554       4.57932618      -8.30261786       0.05384560       0.57965775      -2.08330001
Na      17.51079017      25.44019307      13.61987151      -0.72010594      10.98790966      13.85878773      -0.97987271      -0.43692646       0.69269775
Na      17.77198056      20.15610620       9.50439553      16.14552026     -27.27800969       8.74924722       0.08578483      -0.18702306      -0.09177218
Na      19.67596189      30.72814216      10.69963849      -2.51261002       1.39381448      -0.33219036      -0.32394133       0.01971625      -0.21205831
Na      15.14039071      23.92196360      13.12210320      -3.76562991      -3.00551305       1.71918493       1.94818444      -0.29958940      -0.71308344
Na      19.50920746      26.54407355      13.54739864       3.00104841      -2.41290836      -1.93905709       1.45335994      -1.09467732       0.92989672
Na      11.54112832      23.53727947      16.01441124       0.45316169       3.94346685       0.46702950      -0.37643723       0.02105034       0.50818405
Na      17.51462110      28.98352227      20.71520835      -0.82502409       3.90490856       0.97326668      -0.18388292      -0.22425419       0.48926838
Na      16.01174989      24.74645575      21.06473058      -5.43238948       1.40976683      -1.37640321      -0.03508311       0.20259149      -0.75506585
Na      17.97609442      22.24312631      25.58197527       3.45835722      -7.01173537       7.00887041      -0.50437937      -0.28175248       0.76327350
Na      22.86902356       2.25087858      -1.26875563       2.99356302      -0.38663532      -1.78727678       0.09226843       0.09466141       0.46519049
Na      23.43289216       1.71725045       2.33571897       1.59941663       0.14873030      -1.38389553       0.27610096      -0.21184062      -0.53511741
Na      18.88263817      -1.04659865       2.16651234      -2.52624207      -3.59092163      -5.01308041       0.26783429       0.01728435       0.03285480
Na      21.21097831       1.78926087       4.11847719       1.06791532      -1.58143008      -2.14146823      -0.54565633      -0.02008590       0.29241171
Na      20.78118355       0.45653566       7.47391118       0.87355483       0.15539825      -0.82875014      -0.21925085       0.76394223       0.70312163
Na      23.04109369       1.66438817      10.13256940       2.55195383       0.57607012      -1.90905122      -0.00914259      -0.42188029      -0.06492245
Na      21.44374808       0.09167783      13.21887820      -0.57930264       0.58211373      -0.55883149       0.96312830      -0.48141459      -0.71205899
Na      21.76077264       2.06438097      14.94358000      -3.51715998      -0.44377644      -0.02627481       0.51283651      -0.08715174       0.77540462
Na      21.07981343      -3.77552857      18.44660093      12.38944536       1.67023062      -3.10873070      -1.00433912       0.08286988      -0.97676209
Na      21.51295773       8.25984898      24.08861881      -0.42120658      -3.14010042       2.16383653      -0.20882384       0.20576264       0.59072047
Na      26.42927773       1.28030705      28.62344603      22.98957399      -5.67425223      30.04414063       0.65214925     -11.88247066       0.95275213
Na      21.65376104       2.60914575      24.06645463       1.10349061       3.36762619      -6.80860770       1.30418309      -0.42633849      -3.36287313
Na      18.44071305       5.22226535      -3.33711206      -8.15621399      -4.89698557      -9.51852092       0.14864834      -4.41459233       4.87722128
Na     -65.38384091     129.23238652    -340.76206491    -558.92468467     488.45181833   -1442.71486132       3.41418272      10.61666114     -13.47977208
Na      20.85142775       4.99586462       4.44981717      -0.67352981      -0.87865376       0.78807922     -34.48873943     -18.82378948      -5.04982194
Na      23.07460549       6.38813917       6.23927276       1.59632540       0.37836392       1.66786362       2.16184332       1.54881550       4.42413351
Na      18.16229481       5.18054443       7.91213548     -17.27752561      -7.04772337      -1.78509410       0.51548536      -0.10375083       0.43707918
Na      21.08371247       5.87597110      10.56391667      -0.65263165       1.79929734       0.45702643       0.00739248       0.36430753       0.30828200
Na      21.76441130       3.57881024      12.29503400       2.14969104      -1.41472942       0.63997852       0.11286654      -0.27959189      -0.46431720
Na      20.77554829       4.66411866      14.67359867      -0.70940123      -0.81726978      -2.82964026       0.40256257       0.85924190       0.69826175
Na       9.70977237       1.29811258      11.26303249    -127.12089862     -30.21436790     -72.39281378      -0.10534384      -0.04107498       0.30660878
Na      23.05650867       4.40197457      19.16943119      -2.62633321      -3.20385877       1.20668464      -0.30119920       0.62720155      -0.78070270
Na      16.74422115       3.26791641      23.26552344      -0.91527624      -1.07624310       2.87710984       0.33424058      -0.02427909       0.18791392
Na      25.23469074       7.00500187      26.09925320       2.24175901       6.91607214      -0.57393579      -0.53065579      -0.55455942      -0.45364330
Na      20.84339235       6.62049094       2.21305075       3.06058910      -3.45258552       1.06018924       0.32098735      -0.16136295      -0.70621555
Na      23.34717150      10.89247846       2.49332866       0.01667661       2.22565922       1.76013072      -3.75699830       2.01049089      -0.43593835
Na      20.62725001       8.46205365       4.52539008       1.34167948       3.63119923       0.89754202       0.27665349       0.45407210       0.01934661
Na      25.43154347       9.82159753       5.27580763       2.15353466      -0.22689186       0.05800438      -0.31513758      -0.01528449      -0.16077201
Na      20.85473017       7.89997652       8.12544023       0.50423712       3.52149775       0.62870265      -0.03479023       0.18822440       0.05175639
Na      23.48497363      10.13367735      10.47447801      -0.55157101      -2.60093353      -2.18607354      -0.27904902       0.10411505       0.11511890
Na      19.82959988       8.39727043      12.96032617       2.90605904      -7.20088269      -2.49440501      24.62743439     -59.28077429      13.82919189
Na      23.24501016       9.86974777      14.38942827       2.50591583      -0.59531159       1.48802351      -1.30684965      -0.40426596       0.13302965
Na      21.66308864       7.55877793      20.00391310       8.73780406      11.68446891       3.79943087      -0.66930875      -0.21786127      -0.04755086
Na      22.26698303      10.39175427      18.74154652       1.23774625      -2.52039141      -1.61129468      -0.11598951       0.44702942      -0.01988824
Na      17.95507276      10.24653987      21.24395571      -3.79143891       4.44132007       1.63936045      -0.06417659      -0.08075218      -0.38296053
Na      23.23234301      14.45866582      24.08301486      -0.82557643       5.09942900       6.05083596      -0.43069071      -1.88024460       1.26730140
Na      20.27315340      11.16867761       0.82738531      -0.32034919      -2.76492224       2.49091093       0.41954999       0.13815928       0.21017060
Na      22.91895101      14.23571261       1.32058237       0.13456884       0.16165777      -1.87369115      -0.24773073       0.05801666      -0.19192391
Na      23.09312559      12.55528787       4.22523546       0.18692561       0.08432301      -2.53973305       0.40264580       0.64942010       1.46983194
Na      25.39960363      15.27503580       6.23029214       2.76700240      -1.57834691       1.28844125       0.05574830      -0.52037186      -0.38667311
Na      20.76342999      13.49130903       3.40690162      -2.68749458       0.29904464     -27.60481806      -0.88099621      -0.41235348       0.31082643
Na      25.50432668      14.44503187       9.47030573      12.69458794      -2.61325010      -4.27661411       0.48705153      -0.66571979       0.48355934
Na      21.05635668      10.23541706      12.92929095      -0.15191845      -4.28548782      -2.56608628       6.29775038       4.91072955       0.16933726
Na      23.43978034      14.16217424      16.15294865       4.53014618      -8.35124639      12.50073793      -0.27053093      -0.74467879      -0.34134906
Na      20.93783429      13.00279426      16.31879902       0.53099221       2.69751589      -0.20039024      -0.24873937      -0.17139485      -0.11326455
Na      22.84269224      14.19218382      19.16707464      -0.70488042       0.46978828       0.73529892      -0.07786275       0.07552205       0.44097532
Na      20.68671034      12.34623190      22.07887655       1.29809680       0.48496070       3.94475786       0.42234236      -0.25330063       0.25978550
Na      24.02301470      15.83878340      22.23500805      -3.80672165       1.66565666      -9.16653962      -1.75435611       0.50029010      -3.27926353
Na      21.01027676      17.37367695       0.19593975      -1.18254670      -0.74662618      -2.41590364      -0.37201020      -0.33900349      -0.51200991
Na      22.72587136      18.60523769       1.94943265      -3.32002687       0.86971494      -0.00248989      -0.10022804       0.20926393       0.71512296
Na      21.59845293      16.30566188       4.06131044       4.55982965      -0.76118667      -1.52116200       0.53693262       0.25356089       0.05274233
Na      22.42856679      18.52094409       6.70526266      -0.83059490       1.85447888       0.29903282     -13.62240601     -11.53127288      19.33370636
Na      20.86225454      16.26794884       8.45172365      -1.56494450       0.38005563       0.67548858      -0.57501573      -0.80135896      -0.35947405
Na      22.54981172      17.70165687      10.22050375       1.75241396      -8.98909961      -3.55289863      -0.47355802       0.92248040       0.06005729
Na      20.72855504      16.02698101      12.04219840      -0.66685635      -5.77525661      -1.03152615       0.19064300      -0.15298874       0.26750386
Na      24.06327886      23.01485397      14.98562447       6.68813742      13.33512071       2.88093164       1.26517621      -1.52453643      -1.18829546
Na      23.81120384      17.69494031      12.55870641       0.33960609       1.01165197      -1.34330729      -1.31524261      -0.64289934       1.26853489
Na      21.54903463      17.12085010      17.16950269      -1.44638654      -0.66247908      -2.66118362       0.53473182      -0.40588630       0.19943041
Na      20.47948754      15.70255267      21.63819487       2.43937658      -7.44827640       2.22282419       0.06835749      -0.07675834      -0.05974559
Na      22.75364880      21.26532131      23.65524833      -4.16398003       6.09081118     -15.75814267      -0.14330888      -0.21776576      -2.34087685
Na      20.84001219      20.88815592       0.18112664       2.18512738       1.31590248      -0.87604721      -0.06789879       0.07287396      -0.09239292
Na      23.97932074      21.62668505       2.70713165       2.01416773      -0.30501159      -0.40955720      -0.31024349       0.13129167      -0.39303281
Na      20.65771937      20.33516934       4.11447672      -0.70715888      -2.59448139       1.68976704      -0.03044399      -0.30634659       0.09251575
Na      22.83799726      23.01780999       5.90732529       0.77607976       0.87964844      -0.45468976      -0.59470017      -1.23692997       0.52966411
Na      14.64621682      21.07486200      16.08476611      -8.36423890      -6.34720723       2.91343431       0.37838115      -0.23789334       0.24447378
Na      23.36186156      21.20803997      10.63205164       5.20345000      -2.84307028       0.82676757      -1.11284456       1.49230410      -1.51629226
Na      19.78050159      19.66908634      13.01728904      -3.37424649      -0.00640911       3.79626089       0.20470820      -0.41750615      -0.54953257
Na      19.31186581      24.53168224      14.87732651       6.42157003      -2.65022675     -25.61462116      23.02215819      19.22619181     -49.95839801
Na      20.46041746      19.20642617      15.65531821       2.66425068      -5.73735965      -4.51662772     -20.87409867     -11.05643928       5.57966294
Na      19.34526638      21.62071938      17.01424876      -3.86888285       0.73897567      -3.32056303       0.35438731       0.77687576      -0.42379773
Na      20.48394210      20.97337407      20.38554351      -4.25586402       3.38366289      -2.16123366      -0.48556704       0.84765815      -0.35754774
Na      21.60373934      23.65135388      23.57803377      -3.47620967       0.67559406       3.90461023      -0.19621717       0.52415213       1.95995472
Na      20.75956438      22.96741757       2.95974229       1.03345602      -0.06595524      -1.93001338      -0.02124172       0.59785593      -0.14538452
Na      22.57166374      26.96967366       1.92186702       2.65723907       0.88055342      -1.29225850      -0.04065510      -0.14708124      -0.11340494
Na      17.56866314      25.85669239       5.79870132     -50.23652292      13.33367586      -0.36227682       0.42685443       0.13582307       0.66580644
Na      21.19704949      26.99622157       6.43330709       0.14187740       2.22525019      -3.61411817      -0.84554697      -1.60630831      -0.09915869
Na      22.27927581      24.42745572       8.59083101      -1.36226932      -4.36376641      -1.43793730      -0.99304861      -8.63927339      -3.99215370
Na      22.60140472      26.64427344      10.79384848       0.89060392      -0.80160861       4.82878917       1.67867515       3.22805013       5.28911216
Na      22.22629839      23.73242483      13.79423175      -3.76829234      -1.37114124      -0.93015556      -2.39204390       0.93522489      -0.55613157
Na      23.03990506      27.04555092      15.33927317       2.57777149      -0.42509621       3.31452038      -0.38851525      -0.44819878      -0.47380363
Na      16.26814553      25.36213811      16.53352436       2.09820073      -4.38019481      -0.08689970       1.53241302      -0.57392620       0.13047552
Na      23.42725586      25.84145014      19.81349332       0.16743728      -3.30044395       3.89824373       0.13683349      -0.33939533       0.69568734
Na      20.98760427      23.97357602      21.54176971       3.86108689      -2.20123462       1.57427954      -0.73712506       0.24442524      -1.95322610
Na      22.26431794      26.81755903      23.41882459      -2.03511742       0.51927563       0.31453154      -0.16498182      -0.32364721      -0.40965664
Na      26.31452173      -2.29789690      -2.23453973       6.43306212       0.36940601      -3.53856640      -1.63924946       0.10788734      -1.95531884
Na      26.50832485       1.28062641       3.42457693       0.60906173      -4.09743263      -2.19085703      -0.57280263       0.17188884      -0.39181609
Na      26.16156198       1.32634180       6.84703515      -0.23942353      -2.97395991       6.00674381      -1.61732803      -0.51284992      -1.12881218
Na      20.58220756       3.41549348       7.95642286       3.16133010      -1.61378117      -1.49568169       0.37423271       0.35317662      -0.06987167
Na      22.19449462      -2.80179183       9.25943533     -28.41454264     -17.47639703      30.27432332      -1.81883936       5.55168826      -0.84368533
Na      25.68428387       2.58934857       9.03068984       0.26466825       2.90202250       1.19818619      -0.05163082       0.41006108       0.83140965
Na      24.93141881       0.07036287      13.04709981       2.20738718      -0.11912140       0.61612177       0.01029208       0.07386479       0.10523741
Na      28.64440978       1.73853654      10.86965211      -0.26051538      -0.39671704      -6.82601641      -0.52160586       0.66683078      -0.02448519
Na      23.59932815      -0.83829975      17.85280296       1.78022748      -1.41011735       0.66598555       0.20877539       0.60243082       0.17639707
Na      26.48066132       0.95728365      19.03858801      -2.21858127      -1.82874114      -3.50985009      -0.03754229       1.36969825      -0.04591322
Na      25.20294651      -0.45268399      21.03263971       0.75651006      -1.54067042       1.05725517      -0.18432677      -0.24198642       0.34742002
Na      25.99110911       1.31447968      24.18812607      -6.57018241      -9.39225451       1.19265352      -3.57854472      -3.92706261      -1.65046416
Na      23.78076786       5.04849400      -1.20339155       0.69512785       4.08915767      -0.88716181      -0.04167071       0.48713941      -0.08106372
Na      26.50655181       7.36607014       2.11479690       1.33695619       5.52962159      -1.19209752       0.60741627      -0.43557681      -0.22848189
Na      23.95458934       4.38641127       3.89001154      -4.39784072     -17.16929798      -2.78672645       0.84251758      -0.64368973      -0.39959783
Na      26.47759047       6.60578019       5.89912939      -2.04660364       0.02724512      -0.84496104      -0.68500836       0.02855027       0.33323963
Na      24.60445205       5.77036184       9.45000502      -0.93583501      -0.32449707      -2.28352624      -0.22968928      -0.06342996      -0.02143565
Na      28.27300860       5.71815643      13.58094837       1.35895181       1.39385014       5.98541890      -0.90929917       1.02113252      -0.36525776
Na      24.52935888       4.26444806      12.28788624      -1.42489305       6.23049480      -4.23225813       0.49046884       0.00676450       0.28943506
Na      24.68056820       6.34703162      15.52378573      -3.55841221       0.01418939       1.73184496       0.17873282      -0.21110781      -0.22927049
Na      26.14108073       3.28943564      16.48237343      -2.42128107       3.98277264       0.93527528      -0.90352793       0.57726471       0.37340621
Na      27.66172991       8.17482998      19.51847679       3.00737767       7.54753181       4.25787836      -0.82236924      -0.66150600       2.16694996
Na      24.00753645       2.72557012      20.88469125      -0.83324786       0.25354031       0.24918556       0.33042577      -0.60949487       0.71080190
Na      28.67435617       6.87092792      21.72343527       3.35689390      -0.08205742       1.03459887      -0.00102072       0.08224929       1.37598348
Na      24.12367233       8.08199916       1.85465009      -8.60243243      -4.23744671      -1.94164230      -2.95618291      -3.68289130      -2.17614055
Na      26.76590407      10.64711296       2.28512709       2.76828458       1.58209887       0.88676323       3.22833079       1.13849350      -0.60477550
Na      24.64311945       7.09279707       4.22575450      -1.38414686      -3.87991269       3.44529634      -0.84235063      -0.03298518       0.03842813
Na      27.66907749      10.97202244       6.29056367       4.57254607       1.24109686       2.74674432       0.57838210       0.06720215       0.59725406
Na      25.02115010       8.52887283       8.12735149      -1.75147201       2.19949129       0.44907046      -0.23207143       0.17237240       0.17815465
Na     -52.12626202      35.10035676     -53.80299501     -20.66553561      38.67468914      47.28100212      65.29053882    -436.07368810    -240.34781302
Na      27.27315391       7.47478467      11.17390182       7.01013908       3.42860303      -0.29358132      -0.73290014       0.12325679       0.20543599
Na      25.55588863      10.23152978      14.64522652       2.56773162       0.08008607       0.68619387       1.72896284       0.06003757       0.27138192
Na      24.30222930       8.52974050      17.55453059      -1.43136131       0.27130535       1.50200212       0.18537962      -0.02934563       0.03667605
Na      26.86226085      10.55879671      19.06457177       0.19191854       2.35764347       0.48953874      -0.47652697       1.02668857      -0.03719232
Na      24.34490442       8.16347104      20.86360969      -1.61805371      -0.02912174      -0.11786801       0.39560410      -0.01835156       0.18159046
Na      26.22364112      10.11289135      22.76025123      -0.32801856       1.47119427      -0.81142497       0.33136371      -0.05032646       0.01440580
Na      25.63365240      14.51754199       0.21359850       2.03894776       1.07374290      -3.45007673      -0.13880693      -0.48573211      -0.47234859
Na      26.76352986      14.11868799       2.50872805       1.63252435       2.41316099      -0.65598253       0.14578798       1.22537224      -0.68067688
Na      27.20097555      12.73660886       4.19054824       7.87617897       4.49344594       0.57609354       0.43114308      -0.43657602       1.47987887
Na      42.74907777       4.39608079      11.02173798      49.75246925     -29.51206201      15.17791696       2.95296651       3.64585283       4.51929480
Na      25.03076007      11.78330035       7.52405796       1.50064687      -0.92576061      -1.11656784      -0.55121698       0.28913224       0.24880405
Na      28.84619696      15.30503772      14.95717499       5.63033289       8.90514567      27.62478213      -2.90290670       0.75160097       1.02179738
Na      24.42448350      12.82611249      13.29373751      -2.85256847       2.10727403      -0.52214216      -0.50168117       0.00931875      -0.65524080
Na      26.21009428      14.36448999      14.65806051      -1.57202264       1.20944659       2.41794921       0.29390825      -0.07598427      -0.20038165
Na      36.05115727      12.08812359       6.24063487       6.95310170      -8.21079166      -5.02621322       0.01063546       1.89709059       0.64033713
Na      28.66885744      13.28305805      18.74989338      -2.32169063       0.00658569      -3.50035398      -0.20770514      -0.01919422       0.00524501
Na      25.04243098      12.50000495      20.80986623       0.97009704       1.51459288      -0.81005996      -0.17285320       0.37812258       0.25948153
Na      27.49053138      13.75095841      23.93799324      -0.80231646       1.00196332       2.43196927       0.68353828      -0.09893614      -0.77993792
Na      24.53331466      17.22460208      -0.11563745      -4.18997240       3.47137100      -0.39890295      -0.28227910      -0.14006800      -0.23201191
Na      26.88312730      19.30952508       2.26661227       1.94375502       5.35324536      -2.08153635      -0.12010695       1.03299615      -0.30389460
Na      25.33746338      17.16688388       3.37619882       0.69146990      -1.87629779      -0.26974770      -1.06014869      -0.86736716      -0.37365703
Na      26.55373201      18.05451365       6.57943269      -1.79081093       1.08724107       1.07343506      -1.53524037      -0.03864753       3.45080867
Na      24.17880546      16.51103825       8.61225074      -1.17693590       3.86151285      -1.78328305       0.05967482       0.35390511      -0.45311271
Na      27.21177916      17.67625943      10.25163338       3.55473985       0.68985211       2.49772487       0.92257486       0.74804420      -1.40740766
Na      25.86882934      16.73016061      11.83151686      10.27495048      -2.44680106      -2.51585879       0.21183207      -1.37226101       0.71929772
Na      26.36966226      18.31021614      14.57108892       0.52000185      -0.64523531      -2.11261673       0.05339095       0.13838749       0.17562899
Na      24.81107116      16.12880474      16.60988098       2.53231482       1.94272692       2.74213334       0.57972547       1.14143683       0.56603493
Na      26.21622367      20.17381850      17.38516006      -1.49351235      -0.84829375       0.08085066      -0.36064928      -1.04049579       0.53278291
Na      21.51375477      18.49775007      20.98861949      -3.34656282       2.26052287       5.06983944       0.39133990      -0.96358442       0.19061062
Na      26.40460888      18.27026024      23.13753345       0.81780911       3.05268523      -0.75732875       0.53084606       1.46908696      -0.30677921
Na      23.86085175      20.05560089      -0.33349261      -2.01858405      -1.75636635      -2.39902274       0.08263156       0.39154161      -0.48574165
Na      27.13290026      22.61273613       2.32138959       4.31820534      -1.55409385       0.91799072       0.80568937      -0.55752465       0.05108193
Na      24.95855144      20.42480655       4.86736035       4.15241465      -0.19694382       3.63203560       1.77204901       1.29481566      -0.59406944
Na      26.55961390      22.60411741       6.02799888      -1.48211653       1.75407153       3.47983295       0.18780997       0.03331605       0.10393120
Na      24.93360037      20.39725697       8.37261190       0.62799065       0.77228770      -0.46087386      -0.05339441      -0.15532898      -0.29727458
Na      26.43191285      21.84792642      11.91604192       0.28762419      -0.13407562       0.24683160       0.31194728      -0.52298863       0.83176696
Na      24.15427466      20.16108157      12.32337030       0.92926702       0.88582624       1.12976806       0.73443134      -0.11811910       1.75290832
Na      26.60820634      21.85949324      15.45870002       1.45395321      -0.07715272       0.93544962       0.45656370       0.29711559      -0.75643576
Na     -28.36031925      13.15464177      91.58597396     -33.27323816       5.44435818      44.09649191       6.13122267       3.69519440       1.24405154
Na      26.27056820      22.74583003      18.68787340      -0.10089222       0.92155202      -0.40452491      -0.04309996      -0.00903432       0.13291074
Na      23.08132121      20.90381856      21.35380864      -0.13222513       0.90547307       0.96013388       0.51827127      -0.19842034      -1.21086876
Na      23.74483889      23.44710554      25.46825975      -5.40097152       1.93692800      10.19340154       0.14622686       0.03100517       0.85931458
Na      25.01627522      24.33872762       1.97956358       0.51607483       3.98576967       3.83162576      -0.20431244       0.77892250      -0.57072984
Na      23.05913389      27.53917772       4.99396886      -4.85007598       1.10586791       0.07254841       1.17076882       0.53343353      -0.46701450
Na      23.96594569      24.55267340       4.68326360      -0.22655648       0.12036008       0.64218027       0.69136792       0.92718432      -0.41442799
Na      27.01040166      25.91257821       7.13483314       0.95756106      -0.58776263      -0.16144684      -1.36673868       0.27160193      -0.10686137
Na      24.68377461      24.26297566       8.42649146       7.07597883       0.26144966      -0.07114445       0.97362362       0.07387561      -0.07369745
Na      26.57000706      26.64338608      10.39035040       1.27730300      -4.28256775       0.23335440       5.01705951     -12.63670519       1.15631723
Na      25.48140606      24.31829653      11.65937314       0.43303482      -0.32155222      -2.20568926      -0.84168467       0.46213976       0.43245045
Na      26.31479776      25.20705581      15.12904677      -0.43496558       0.31179288      -0.73717741      -0.06799123       0.39247705      -0.14187434
Na      23.60496375      24.14805551      16.82410131      -2.59234477      -0.00261913       2.25106436      -0.22659995       0.76728362       1.57420072
Na      26.54225146      25.60474471      18.87142286       1.28234056      -3.01688065       2.12458576      -0.03625673      -0.15536469       0.52595673
Na      25.37056409      22.43227054      21.79086611       3.95628923      -5.02067796       0.95064856       0.57907857       0.50662716       0.19890089
Na      24.79555970      27.76779138      24.06189390      -5.16451006       5.16041312       2.23832436      -0.01882762      -1.04684369       0.86393621
Na      19.36797554      15.98405484      18.18032167      12.41172955      16.56590328       1.86618890      18.43709530       9.19431734      17.35838800
Na       4.46430128      12.97441627      33.62354509       1.73117994      -0.52377499       6.72873416       1.43425852       0.76506892       1.77342176
Na       3.59998146      -0.47164681      28.63127130      -0.99963721      -1.76763305      -0.94930254       0.74318452       0.13057649       0.89908281
Na       1.72755418       9.82259724      32.01376615      -2.31052382       0.35424495       1.56324913     -10.80645265      -7.86094744      -6.98969938
Na      16.99016547      13.72190933      24.57558280       4.33525970      -0.99803649      -4.78624030      -5.88266125      -1.36180108       3.90247868
Na       4.57434072       1.55571037      24.43208529       1.86464570      -6.11932795      -1.63175751      -0.33744608      -0.31655238       0.64981786
Na       1.64166282       2.96150445      35.45211706       1.94971125       3.81201935      -6.15034600       7.58245964       3.95321695      -3.84582494
Na       3.71328574      -0.64880582      41.18984828      -1.34483883      -1.10078517       3.83072889      10.64829194       7.17552034       2.63845044
Na       2.03302506       1.54466407      36.74066150      -3.79076900      -1.73314225      -3.26796080       4.12013634      -1.33277893       1.94929867
Na       1.71108222       3.36893413      40.76395706       8.80882363      -5.23738415      16.56495295       2.98087316      -2.38465726       4.56907199
Na      -0.31489052       2.37327554      38.80911250       4.84856397      -0.80618725       0.41105362       1.81494052       2.30434460       2.43847761
Na       2.66217595       7.28382726      33.13617925       0.91340586       1.41102132       0.12479326       4.01392635      -2.97059942       0.73288124
Na      13.99683523      10.88353111      28.57035848       1.07714902       1.04782708       0.65708291       0.79004217      -0.79566133       1.26603953
Na       3.68753369       8.61398665      34.51385975      -0.03894165     -10.66265587       4.72121727       8.11191741      -8.62356172      13.12825869
Na       4.16663729       6.77102081      30.42905619      -1.40143545      -2.25893533      -1.24922070       0.18860533       0.43900409       3.08879459
Na      15.74104212       3.94594603      31.09366179      -3.32141984      -1.03090536      -2.08318531      -2.06454191       2.51497968      -1.23066154
Na      11.61786537       6.32886122      29.64264065      -3.68152075      -0.14761212      -4.88392010       1.76395053       1.55114381       0.38432858
Na       7.61250548       8.99391554      24.67968621       6.72926675      -1.97555821      -1.09217206      -0.25229610       0.25925708       0.45466166
Na      13.71157034      11.38218598      34.82597269      -5.46790791       0.65826994      -2.59897576       0.07180693       0.66910305       2.04254859
Na       6.46321760       8.06257569      41.81679754      18.22461531      -8.23908985      15.67962903     -50.46838569      15.26631234     -80.55159386
Na       4.53349318      10.87988677      40.58000997      -1.70341404      28.42500445       5.52450329     -17.27663305     -25.09304378     -32.02880496
Na      12.99480748      10.35945317      36.93979279     -12.18343508     -14.55983761      -2.17281508       0.39104984      -9.47965642      -1.80479160
Na      13.43331184       8.00272514      38.15699366      -8.95971580       5.90480077      -3.68965850      -0.49979842      -1.31455199      -3.00920688
Na       4.03360764      10.99715098      34.59936305      -9.69951687      -4.94684548     -13.99411599      10.27577708       5.23873702      13.68432621
Na       7.69725652       2.23072042      29.01265123      -1.02549203      -4.39668019       0.27134560       0.42287557       0.89386322      -0.42761933
Na      11.43781119      15.42694243      32.51983031       7.73966692       5.55867486      -0.18853401      -0.56849825      -1.01779360       0.33742012
Na      11.14720074       0.68588167      28.35934055      -3.38500479      12.27682242      -1.83240841      -1.88569949       3.06906125       1.17273864
Na       6.31795129       4.97343777      29.43137680      -4.13259847       2.37273971      -4.86492133       1.02199962       1.33157720       1.50076150
Na       8.60893341      13.50000510      30.76329477       2.38788006      -4.67173049       0.27859810      -0.53819435       1.29954815       0.22553805
Na      10.58179960       4.50641279      40.82791769      -6.44113233       6.27700469       0.24858498      -5.25168982       1.68523418      -0.50534280
Na       9.96864054       4.34572743      35.27703943       4.11058111       5.10603134       3.28431318      -1.14221203       2.50475549       1.60248601
Na      -2.14000297      -6.16075903      65.05938607     -23.20433677      20.16764431      73.43520497       0.71135031      -0.54875334       0.29603674
Na       9.98031654      15.22539450      36.88068957      -9.08911139       9.82655958     -10.15369085      -5.76317363      -2.08834120       3.28042956
Na      10.56679556       6.78429582      35.84817267       2.02060373     -20.18460412      -0.80321460      -2.89180248      -7.07661475       0.15294413
Na       6.03839342      13.09296796      39.17458187       2.90461585     -14.75149774      13.30696485       5.48803736     -14.16389510       2.55366979
Na      12.36643541       3.77100879      34.17865275       1.49849468       4.09723801       2.93398518      -1.04708631       0.36284814       3.53241427
Na       8.08156872       9.45460197      29.45181750       6.36041190      -6.96499536       5.64777900      -0.39229530       2.19075406      -4.62379371
Na      11.50892413       8.09327199      32.36445046       0.19747325       0.14890335       3.77012030      -1.50073000      -0.29685749       0.26710253
Na      10.07865669       7.17948203      28.86544828       1.33492753      -0.74325512      -1.37397952      -1.48077666      -0.23910969       0.78538630
Na       7.35308923      11.30495591      31.54527535       0.45133498       3.85005005       1.76035295       1.64035817       0.97856096       1.67601664
Na       7.39879460       7.29021713      29.49387431       2.18529543       0.71829383      -1.49300620      -0.43357769      -3.44281114       0.23639679
Na      10.07463461       9.67118572      27.59721950       0.92168695       0.63084758      -0.11844983       0.69385460       2.02956978       0.05013544
Na       7.28315430      10.88976587      37.47152349       5.13018292      -4.33869763       7.49229090     -10.25629725       3.89073131       9.74546031
Na      10.38369966       7.82090090      41.28881807      -8.21549356       5.25880276       0.85109285     -18.96815384       7.38613823      -0.19633853
Na       8.93844223       8.00819982      39.01535825      -3.92574905      -1.80768311      14.90086454      -1.44912698      -1.03807214      11.36019283
Na       5.90295121      11.38780395      39.12017158      -2.66721280      -0.13978200       8.07569401      -0.19628587      -2.31348679       8.02580118
Na       6.83452998       7.81517317      38.62071802      -5.90161877      -7.69259148       4.15764338     -13.82937717       2.58866709      -0.77251482
Na       9.84164152       9.99220518      34.36988979      -2.44673614       2.44282786      -0.69147901       1.25945763       2.64401996      -1.57718883
S        3.74835139      10.63395058      27.40497768      -6.49141750      11.63965669      -1.73702355      -2.35824975       1.02519410       0.79582002
S        4.44034848       9.08029830      32.05835917      11.53492244      -7.68579596       8.91808829       2.97330307      -7.82720641       2.09953942
S        4.65780032       0.63545323      33.21007172       0.58821061     -17.05589952      14.96880965      11.96794366       3.39346372       1.89190157
S       11.34378359      -0.68620308      33.78556484      -0.30831095      -0.84745738      14.86155587      -3.70116964      -0.34414982      -3.60027414
S        6.21110638       0.69101146      30.04412037       0.45503351       1.49243489      -0.51524807      -1.08960943      -0.51279426      -0.58713172
S        6.36093283       7.51217063      31.63303365      -1.93343328      10.53613106      -6.70363710      -5.58385588      14.48385849      -7.27847010
S        0.29659259       3.67292924      29.24836413      15.46127874     -20.92041843       6.36174327      15.17516482      -4.47692880      -0.48859835
S        4.45719143      -2.71739966      13.64908283       2.81666588      16.40485101     -51.79293414       0.87900012      -1.82318111      -0.86249910
S        3.82261023       1.40995204      34.43290016       6.30868766      10.02905617      -3.19301273      -1.31987113       4.57476561      20.22967808
S        0.89968972       5.27713519      39.24763505      -1.65344217      -7.47598821      -6.57278957     -13.24422219       8.98882586      11.38127424
S        5.74654719       6.50456834      34.81029201       0.77074409      -1.27276218      -2.36749707      -1.46580355      -1.53583374       1.28474785
S        5.35152480       2.98417987      38.78269981      -4.21843791     -17.73692057     -14.75502080      -3.04280635     -10.41199335      -3.91661222
S        9.93630253       5.09622367      30.89627226      -0.37366752      11.60315704      -6.09083405      -1.70493537      -0.25050203       2.05398859
S        6.61339095       9.31350772      33.01733416      24.02419660      31.23653883     -52.26783002      -3.18095634       3.04167889      -0.03902448
S        1.71386468       4.52620300      37.20088990      -3.71256716       3.24945156      -3.33843673     -77.62392503     167.96566713    -122.72208466
S        4.52427695       2.75459284      36.85513437       5.50458477       9.96542631     -16.74848713       7.39767117     -27.19467671       2.96037406
S        4.20613154       7.26740218      21.38516548       1.27856181      -4.06141635      -7.06467426       0.70716956       0.89083878      -1.07991924
S        2.61506783      11.64471316      32.13991539       1.55561621      -0.64932275       6.26831501       5.34140767       0.75672605      -2.24766341
S       11.98812966      11.28234810      23.86284575      12.33702308       5.10783250      -9.57096125      -0.17648713       0.31457654       0.49869056
S        5.56715089       9.97900940      31.00311043       1.64791281       2.98906765       0.85904245       3.86026220      -4.61840899       0.76687130
S        5.55184346       8.59105647      29.24325515       2.18604206     -11.03737913      -2.75415801       0.21165114       3.01521118       2.57089219
S        7.01521826      10.53660699      27.28219980      -1.17262497     -16.87228920     -17.02241674      -1.24224727       0.35474654       1.29488014
S        0.51930690      18.02482455      32.77703815     -11.48619469      24.83858222       7.13339504     -17.77818528      10.66502831       2.08015957
S        6.87899916      11.79251704      33.68708612      -7.94306219     -12.85928308     -29.61311215     -16.21986090     -26.57109290     -35.44246248
S        1.33840341       8.43147505      34.63271978       8.70995568     -23.08968680      -2.27567665       4.03385972       1.70784521      -1.83701897
S        0.14263005      12.72763222      40.12044309       1.41094124      -4.14509839     -37.01693786      16.03895343      17.45642119      -0.34171288
S        5.08925202      13.48719486      36.27577218      -6.92469132       0.07640209      -5.66868756      -3.52711755      -6.96290842      -8.69171869
S        6.38197000      10.54467766      41.79964698      65.95779393       0.27096376      39.18128323      51.48202631      19.43202554      41.85113834
S        5.29906190       9.42633995      36.82078125      -3.63010333      -0.77138305      -0.30472479       3.45077236       1.76104026       6.58204161
S        3.29943323      13.15485379      40.19763509     -10.20870054      -8.81251485      -5.59554245      26.41164804      11.21569591      22.66382077
S        2.77609975      13.48631222      37.52631245      -7.45577798      -1.76923270      -2.31512403      -8.88872780     -10.67728507       9.67738493
S       -0.83518165      12.22630224      36.06608862     -31.99752201      54.55292597     -45.23890800       3.52716261       0.10690444       1.76697156
S        7.73596873      -3.96743631      28.93378172      12.92860950       3.54924561      -5.55920621      -1.64868663       1.41394034      -0.71469019
S        9.24831019       5.84501069      33.31820314       4.37104299       1.72973959       3.37331386       3.88560558       0.70747858      -1.05241314
S       31.95637013       3.51069962      46.53887234      92.72508965     -57.74310203      62.27951186      76.97446247       4.69884255     -46.02729176
S        6.73446430       2.53414009      37.37254358       0.28509245      -0.19591520       7.55022625       4.70863213     -10.83545536       0.46437059
S       16.05175660       4.73315771      38.00438217       2.19619321      -3.76859625       0.19059836       1.01124363      -2.80968873      -0.18068115
S       12.80991246       5.52414742      33.17233347       3.56629531       2.18065174       2.70223725       0.69404807       4.20698888      -2.58631472
S        9.23612115       4.34032185      28.54592696      -1.92083336      -2.00199929      -6.98252532      -0.21129853       0.01264156      -0.09156904
S       13.04267045       0.16981982      32.44997941      16.46665335     -13.17699660       2.18652559       3.97030539      37.54701655      -0.25473906
S        7.25240144       3.12343899      40.84339914      10.33861345     -11.39687883      -2.47127026      -0.11512032      -4.02929732      -7.21500360
S        7.23641492       6.11687936      40.27394405      -5.80386668     -15.63518070      -2.40330707      -3.86775342     -29.65065606     -15.60760896
S       12.99986802       4.89000296      36.86836728      -0.37778219      10.55004488       0.58882404     -12.29339286      -5.76287267       4.56704489
S       14.13860298      -4.24144828      37.57691618      -1.85762225      -6.18936891      -3.80162506      -2.25466036       2.13725300       0.27606605
S      -47.21604769     -41.69799847     342.82153709    -678.34278331    -589.00198625    1393.54542942       7.37368328      14.57529681      -0.27381460
S       13.23096410       5.81336618      40.62198337      -4.27725996      -1.79962394       0.74923689      -2.11807351      -1.51666594       2.34504815
S        9.49309790       5.15755803      37.81092892       3.12250555       0.73251078      -0.85241019       7.43723580      -6.29145109      -7.83258405
S        4.54557201       1.49663279      39.24422671      -7.49378898       4.68863047      12.50639736      20.41941316       1.29444816     -14.05463281
S        8.50765016       7.90185971      27.50933318      -4.73608018      -2.42542341      -7.38753185      -2.13862176      -0.02964308      -3.24411550
S        9.99144621      12.98372335      32.68999155       0.79078890      -6.49378716       0.89579930     -16.13909111      -0.00539899      10.94344415
S       12.85347675       8.92666828      24.20869908       6.19062200     -17.19522656     -14.51179529      -0.21495749       0.61797033      -0.31408547
S       11.96933542      11.04538338      33.44888683      -3.09145343       2.12149849       2.55414964      -0.26854856      -7.88415120      -0.37374023
S       11.96651978       8.68390013      29.03178751      -2.46299197       1.95445939      -6.07934312       1.72840907       2.60617500       1.54274275
S       11.58994737      12.45058236      32.41450149       4.07759216      10.64746524     -12.34151103      10.27285346       1.73543027      -8.72813910
S        9.24860718      12.19278846      28.90598381       3.93791688       0.76127456      -8.71634911       1.35884199      -0.36832307      -2.29223449
S        8.38593612       8.76045308      31.42368547      -8.78373355       1.61041249      -5.96176006      -1.65541901       8.20622218       5.18790170
S        8.04628669       9.81519150      35.77444311      -4.90042408       5.65978616      -1.35263327       3.64684430      -2.73191362      -2.73238117
S        8.34363573      12.93299437      39.99363474      -0.32238865     -20.85326311      16.55644162     -23.72778097     -27.20008123      40.99181099
S        8.71098720      12.64448251      35.05699698       3.65359280       4.19507388      -1.53371588      69.75465362      19.18828809       3.98594166
S       12.23022649       8.93245619      39.58974748       5.53800771      -1.50685149     -12.13089620       8.76559894       2.09695287       1.58798663
S       11.16610237       9.72333069      38.12529146      -3.08372853      15.43012208      30.56210132      24.13747079     -14.48961654     -18.36600435
S       11.74880638      13.85198768      36.78239625       2.41062125       8.01985564     -18.70657193       2.38965794       1.18357190       1.21917862
S        8.84800604      12.95115063      37.97552203       1.29901934     -14.80156272       6.39180414      17.72310614     -30.48569943      16.92283670
S        8.06125571       9.34274985      41.44058599     -21.91705875       7.94267979      -7.83000099     -16.35392912      38.91970827     -52.65634109
Sb      -0.94709296      -0.78266913      40.69887073     -28.18607559     -28.99398180     -31.86888169     -25.26717567     -24.43512965       0.61909159
Sb       4.33159926       4.47685218      35.70857507     -10.76056214      14.31936647      34.45041312      -9.43759434      -6.30315887      10.54078719
Sb       0.57308599      15.86339775      33.72608824     -16.84650789      24.77695044      -0.39205193     -15.87587986      20.89321123      11.44092931
Sb       3.64641874       5.40949554      38.45607300      -4.30746898      -7.47688299      -8.24517497      -0.98791214      -9.15362716     -18.27396584
Sb       0.45003509       4.25001717      26.49774159       0.12223081     -12.51290270     -12.46183233      -0.22789987      -0.19740335      -0.01390982
Sb       3.91185460      11.43678907      29.60607681      16.17781544      -0.85497935     -20.07080512       4.17691019      -2.67300447       0.52369861
Sb      -0.63817056       8.15304373      35.13465388      -9.68280965      29.77712556     -10.82478003      -9.55449250       0.91591695      -1.56921566
Sb       3.84413348       8.92332523      38.18730511     -21.30839262     -29.17811677     -88.85208549     -72.06595485     -55.88942758     -80.50183997
Sb       6.83011038      14.86791879      25.83608672      11.04534750       6.45324281      -9.94119053       1.12842584      -0.88434307       2.80683091
Sb      12.21068202       4.03408081      30.12884889      20.05034532      -2.48339083     -25.02732767       0.27849247      -3.51082520       0.62416200
Sb       6.96090835      -1.29933903      34.85804109     -15.31260608      -4.71225920      -4.84943261      -2.20705372       9.01790192       0.45141199
Sb      11.03711114       2.85538211      37.54675079       2.06585766       1.70243893      -3.77024914       0.96367881       8.05543581       4.11597829
Sb       8.94747676       6.58347363      25.60100087      26.07091134      -7.17420101     -11.19892851      -0.15634736      -0.23582475      -0.46920188
Sb      10.30992388      10.66021678      30.58271524      -8.30941015       0.56367446      -3.67007080      -0.64116128      -4.70542342       2.04813491
Sb       7.77714131       7.49793781      34.17449526      14.56948638      -7.72111736      -2.78916730      -2.60721852       4.93811776       2.05599014
Sb       9.92823222      11.02407715      38.52474681      -0.96926110       7.80288439       5.94837529     -54.90266790      42.37421229      47.12267193
Na      15.52240398       5.99145121      41.09756004      10.92029938      24.63755181     -20.04491444      -0.88368151       0.47506615      -5.01729116
Na      -8.43504054      95.78656449      86.88211313      -1.06105680     116.53065892      57.35753164       5.94883315       3.01106727      -4.10391601
Na       7.17760296      -1.21066631      45.16859238       6.74357277       3.29245853      -4.03655382      -1.60608939       3.86805298      -1.98473194
Na       4.27337912       5.03082418      45.23119015      82.27584705      43.41693160     -23.02724359       7.94453205     -12.62816237      -9.57654294
Na      15.89952776      14.45680196      45.42789770       5.02187027       4.95568770       0.46502179       2.73155905       7.52962809      10.38561189
Na       5.43162550       5.19134049      41.81132865      -2.18531697      28.64367275      11.30742517      -1.79545695       1.88894103     -13.90426587
Na      -0.45802836       0.47987187      46.26420101     -58.94012897     -78.26922276     -10.88506232       7.87159313       4.08030167      -1.60055842
Na       4.91855917      -1.32271439      58.33415742       6.12718470      -5.93308933       1.95204346      -0.81514076      -0.74322508       0.46974399
Na       2.99183896      -0.08470212      50.60557502      -4.51879287      -0.49842297      -1.06014070      -9.85982429       2.32637992      -3.02762876
Na      -2.82817599       4.78961024      53.41344631      -6.52198460      12.91228784      -1.52254556       0.78900018      -2.28181401      -9.89683003
Na       1.66594892       6.91646988      50.10368455      17.61960016      18.58905278      52.50419194       1.38079178       0.57829246       2.00564180
Na       2.66454283       1.40560145      48.11775325     -16.18871710     -63.82010393     -28.87955247       5.62228099       9.60289944       2.03821689
Na      15.30321983       6.77752161      39.30432774       1.56785546      -2.19369949     -10.08691210      -6.21160387       0.54692165       0.55089268
Na     277.11499484     -85.62114080     158.99244983     634.54126146    -187.58249013     289.60548738      -0.66615352      -0.16234702      -0.06071574
Na       3.45045558       5.43527309      45.53161356       2.49895310     -41.07061124      62.65368759     -17.32523590      -3.03579241       6.77081745
Na      14.30468332       9.70272372      45.73905221      -6.91468597      -0.94348416      -3.58188546      -5.81524157       1.31061172      -1.71232649
Na      13.40715225       6.03824633      43.76942674      -1.89828319       2.84015140      12.95666549       1.53712117      -0.95484863      12.18249613
Na       1.87652467       9.75470078      44.30750782     -10.40159353      -1.60472638      43.13153220       4.19899689       5.98287851     -37.08898047
Na      11.80977599      11.55897355      49.08753324      -3.77225161      -5.98404931      -0.82706644      -4.91228230      -2.74037367      -7.66505323
Na       0.41207775       5.25423131      48.94184838     -47.00015257      -9.84309002     -25.91483490       4.07788614      -6.37236128      -2.91462898
Na       2.98373158       9.43995359      53.06783042      17.62778763       6.81592299     -14.32032598      -1.78851039       0.25911138       0.61924307
Na       9.86511531      10.57137549      47.34895384      -5.24668031     -11.17862170     -42.23901306      88.87745762      14.10931979      -0.44557404
Na      14.93012893       7.40670595      51.15301537       5.79833190      14.50870186      10.55755814      24.70248852       0.71862405      19.73152782
Na      -2.79752223       8.93670113      46.83584382      -8.51873950     -18.88055919     -11.55220409       6.95852013      18.43997580       0.12845863
Na       4.59659065       6.47004963      45.02154495     -25.37697923      54.09301275      28.68204237     230.12027062     -64.22697719    -321.18353165
Na      17.76508812      10.07408604      39.51870096      28.07717920     -27.03922667     -21.18261233       3.54561590      -5.48837783       7.06588198
Na      10.18458562     -17.12960218      53.36978504     -26.46707120     -26.26245177      12.04447118     -21.05704681      20.09543231       6.01212422
Na       5.37245244       5.05107099      47.08311672     -16.05621099       2.86125031      64.46138624       0.53676083     -11.53829644      11.99398433
Na       1.90746961       5.20805542      44.70978166      41.28167849      19.25145402      22.96749817      -0.32808923      -5.06235293       5.07684313
Na      41.03433966      60.38328349      53.24002229      -2.34057032      48.11483479      36.35575111     -35.95999155      16.24414058       0.02457876
Na       2.72327325       5.68031882      48.10415090     -67.32915933      27.50522841       2.75440760      -6.92646268      -4.09999476       2.06894893
Na      24.39931365       7.92993210      71.60808358      33.10018256      21.21539370      23.50913668      -0.32320979      -0.05682172       0.30775507
Na       6.69448074      13.59760995      49.48549142     -21.98923098      -9.44138022       1.18411426      -0.83196684      -2.92904041      -5.83749474
Na       7.81761019       2.79000859      48.51176893       1.33613904       0.80140120       1.92849711       0.72687441      -3.47813430      -0.26572003
Na       8.43277437      14.01298146      52.30235956       9.17853541       2.47519024      -2.00750543       2.74541151      -2.13977497       5.27170977
Na      14.06019599       4.60288440      45.93355575      -1.61489142       2.86238346     -13.97280644     -60.78738916     -25.90111813      63.69756951
Na       6.88363784      10.59782696      39.98356513      -9.45122758       1.06901896     -25.05199062     -30.09322463      11.59738508     -63.87263054
Na      11.56440377       9.49568307      46.77323530      -1.60925158      10.32413543       0.69658526      -6.93101938       2.29702970       4.75254292
Na       6.50812743       7.79977996      47.62837459     -58.30611058      22.99310881      48.83891318      12.49487573     -11.09040883      -0.04168442
Na       4.35829303      13.72390546      43.73494987      -8.64879685      31.74692214     -27.35966708       3.14884226       7.96917627       9.65461477
Na       5.14011618       6.82131724      47.22679799     -57.40658369       9.52117642      57.05199615     -55.44509578     427.69501691     262.55064369
Na      12.52353431      11.28196180      41.23609096       2.07882275       0.17813765       5.14077936      -2.20583516      -5.99721688       3.54407117
Na       8.43897428       8.64590846      49.54014336      42.48232266     -30.36453378      14.88074118       2.97040897       5.56574265      -3.45380620
Na      11.86283402       3.31757533      59.07048521       2.95940405      -9.25288782       0.59003338       0.43241166       0.19948774      -0.26135623
Na       6.01116471       7.75466206      45.75771480     -46.23362326      65.42289523     -37.89743771       8.85932442       6.67730565     -29.72312740
Na      27.71495396       3.98698078      34.79930829      32.15504396     -30.24708697     -17.49349047     -13.91530161       1.80585526      25.65767115
Na       9.42353265       5.16405789      49.28522727       3.59691356      25.55430348     -17.38509808       1.55212720      -6.62381641       5.21149947
Na      10.49281044      12.59160858      47.32796052      -5.55412198      -5.00696794       2.11788815       8.62930186      -7.05853610       5.03197373
S        5.44203590       1.62446310      41.32739088       5.34630639      -7.26995758     -38.19983268     -17.90309763      13.80173746     -26.80006340
S        6.31303383     -12.04443660      64.19718272      25.32269445    -661.93349196     488.47258594      -5.22155399      27.32770520     -17.05378580
S       12.60427165       7.01852070      42.46711762      65.50298512      -3.36759113     -36.60437399      -0.35477965       5.47353701     -11.49663325
S        7.49483529       0.59639275      47.37974658      -1.35640079      -3.12003022      13.24798357     -40.28577900      60.59221441      10.51398157
S        8.32526800       1.26910479      43.59772817      15.28228029     -12.91640444       2.19623133      11.40577536      -0.89959430       8.04786733
S        2.64644905       7.75231069      36.74052122     -17.44824841       8.31240127     -12.44805592       7.99650581      -3.67143948       0.13722225
S       18.69207630      30.67982334      61.55048790     493.17596961     761.09238335     505.80360406       0.22259054      -0.27494272       0.11543518
S        3.80092190       1.67903339      51.30745631      40.55504652      -3.93495801       1.11793251       9.60406484      -1.16134662      -6.38384122
S        6.24261697       0.76907338      50.63366723      20.72930529     -18.29352263       8.79344100      -3.93020475      -0.09219302       1.52456430
S       -0.02361471       7.39662080      55.89634828     -38.68738184     -24.04078216     100.84263769      -0.72092417      -4.37649131       4.71210911
S       13.38049377       7.32293639      50.53868287     269.06155204      10.90850292     129.84097760     -38.57027710      -2.41662971      16.88386545
S        3.62323403      -2.40776995      54.78837494       8.71349949      -5.81687142      -6.45229320      -1.22077036      -0.31067883       2.36662594
S        5.23537696       0.22880213      47.43500261      19.33450945     -43.30745446      10.57379529       1.63378820       0.22551000       1.31692320
S       12.05678269       2.02745834      56.02630856       5.36812972      -8.63485115      12.51017727      -3.26949801       2.06256473       7.19734505
S        2.05148779       1.39469495      52.40826902     -35.00388442     -11.46321792      17.86084486     -12.41804758     -18.51582190     -15.26918237
S        7.86596817       0.15068209      55.48556628      12.06209862       5.34789012      -7.79900474       4.24039703     -95.99245656      -6.01240309
S        1.81908419      11.62078771      40.44414150     -24.15072475      -1.67732391     -93.23719695     -12.12800774      17.49446563      -1.51961777
S        5.17291960      12.99932338      41.97365228     -22.21661091      -2.84759365     -34.64129586       6.75061142     -23.33803015     -81.50133902
S        5.01011862      11.51425433      41.33549021       0.75559853     -26.64003616      -1.87561335      52.47360698      17.69788373      31.54471221
S       11.26507239      -4.39353235      47.20564119     196.46776129    -409.26505256     -15.59632665      12.23709929     -15.66038653      56.53020537
S        9.47710532      -5.62864640      51.38726730     131.05848473    -398.56254923     166.66553677       4.47377959      11.46731609      -0.27395043
S        4.71487104       9.43002969      39.24402226      45.58983807      18.26374291     -40.20813632     115.38607119      70.83566513     121.30646659
S      620.23744930    2824.24994434    2436.84320529     644.33030646    2269.42771111    1961.43165905     -17.42376429      -9.88510996     -16.91650770
S       -7.64090645       6.84454527      56.87215401    -343.57983108     -31.07353589     327.36286419      12.82665143     -81.85395480      49.05469248
S      -14.20504622      21.78151591      23.99686054    -548.10285863     431.06314986    -736.84012403      20.32955839     -14.30273044      33.48568322
S       -0.87798321      11.09048050      53.80738827       5.19507854       2.57061938      16.87267916      16.12433718     -16.65764793     -24.88267257
S       -1.41666074     -51.09142396      44.84141400     -10.22131230     -75.06666576     -11.12472583      -0.34057608       2.23242467      -2.59711961
S        8.81389516       7.74435557      57.13762253      73.65428651     -15.72527283     148.77069293      -1.53330650     -12.29860965      -6.58279117
S        2.16150067       3.67547808      37.80338709     -81.52419874    -124.68957867    -330.90782205     102.13865534    -178.02104407     108.76718921
S       11.32450324      11.26409009      51.44938545      48.88856137      41.85489605      23.37975992       2.38391466      -1.01701355      -0.36079319
S       -2.42637565      26.64321818      45.75353263     -73.46690770     237.16223085      -4.64869223       6.74859565     -28.51560327      12.41230091
S       -3.54724831      19.47592065      55.85131169      -1.86158412      -9.98891653      -7.44006465       7.88106177      -8.37006060       2.88485341
S       10.35105917       2.15695930      43.05538685      51.94694587      21.18312234     -15.63054043      -5.31647656       0.88493826       4.58579149
S        0.33048956      -1.94000009      44.70754000     -96.29667484    -265.99546169     -91.83325794     -13.49019956       4.94880404      25.20757939
S        8.79138811      -0.76530395      43.22221750     -26.74337935     -17.08234759      15.46830686      -3.62377464      -2.04326400      -1.44011261
S       13.64536263       3.53503494      47.91196951       3.46852070       9.76205266      -6.96185985      -9.24310290       0.69539234     -19.24179483
S       18.06663304      -1.03065981      45.71704622      39.83963166      -1.74956876     -11.31023928      34.74179882       0.59324801     -33.37570747
S       17.51141149       7.77692781      42.60889623      36.58152396      -6.82700086     -16.92798273       4.74297166       0.61917060      -1.50124187
S       12.49686421      10.82551375      44.22658725      10.11478542     -22.78213466      12.67879107      55.32682881     -11.75440146     -12.69550847
S       12.51308826       5.30460877      49.19638701      16.74242692      33.96688924       2.44263963       1.27333774       0.85349621      -4.35219758
S        8.83079216       2.61776232      51.33770676      17.23243435      12.77260592     -30.03953263       7.11959948     -17.21700921       4.57315999
S       -0.41437311      21.47519147      68.09328801     -19.00419771      66.50678576      27.29246380       3.06066848      -2.54326572      -0.31350220
S       12.64390956       2.85271394      50.76561980      10.71326287     -51.18012803      20.35549836       9.16784562     -15.92694045       5.59586542
S       12.93339167       1.15780456      50.56904671       7.54283787      16.37335307     -19.02172873      -1.31237995      12.36494737       2.40041970
S       15.08794851      -0.07185114      49.29765251      13.07775107      -8.69174422      -4.17096468      -0.39671897      -0.92243782      -1.03922293
S       15.95269738      12.71414714      56.09688762       4.01123118       1.69069971       4.74824112       0.66619957     -15.93206718     -22.59468603
S       17.74879818      10.34076558      42.29981243      -2.05428161      -2.72716539       0.80610054      -4.91550494       1.18033394       4.64544156
S        3.45620490       3.55661366      63.60485484      15.91955687     -17.63673453       4.02109091       2.48489183      -4.41111973       2.92741905
S        7.83425562      10.17346354      42.55968329     -19.67127739       8.42894544     -12.71566078     -26.96448837      93.29812124      -9.47537275
S        8.86144381      12.45804312      46.43138690      -3.37527639      30.29463421      -8.59409858     -28.31755872     -45.78730276     -34.59635963
S        9.54380098      12.92249214      41.92183334      -7.81275300      -9.63085278      10.68317531     -12.61787687     -29.81340697      15.69252943
S       11.75373901       4.80088521      51.34323279       3.21369990     -25.79606439      27.53581892      -6.02436935      -4.96844567       0.60063440
S       12.04797663       8.95588006      44.30123052      71.30171085      78.48286237      -5.45666768      13.37408721       6.38742865       5.18490155
S       12.85471893      13.76138916      46.08275644       6.20073165      14.27279193       3.28158775       6.47559677       5.14176850       6.99637198
S        8.11603134      11.53939162      41.35385495     -34.18269738      39.24015813     -45.00541295     -15.28206143      31.20966577      62.41150528
S        8.44233899      11.49404875      44.35758914     -77.91756984      45.10633877     -44.12985400      18.81246326      73.02452083     -35.62580851
S        2.65046316       8.11907833      44.31893799    -182.86359840      59.05904754    -208.04422827       7.79872108     -11.17454750       0.72241685
S       11.60014764      10.57912074      56.08740459      10.78150211     -11.41538843     -12.35481041      -7.46907319       3.44089171      -6.52663750
S       12.53861441      16.26222872      51.78310613     -14.79232949      -9.71060062       3.52212624     -23.37372028      -2.28787226       3.31875454
S       14.41835236       7.73635070      49.39260050     108.30095970      15.78150186       9.24972941      15.70231790      24.68029064     -17.72806970
S       19.54935643       8.49772883      47.32719965      15.58972375      -9.52785327       9.15079405      -4.93820241       1.72679146       1.57775139
S        9.61593317      14.46995289      54.29791628      43.43737804     -27.35025069     -24.66997669      -2.11829175      12.61380776      -3.90145363
S        8.72597807      12.12601302      50.26565346     -17.44201808     -18.84375691     -11.39383596      -0.53138921      -1.13191907       4.04745758
S        9.25952466      10.47635443      56.54720814       8.30130644     -28.71652280      10.43067030       7.59640604      -6.05928616      -5.73328184
Sb      -0.66790939       0.82104140      57.21425207     -13.29642985      -0.20647419     -17.46102916      -5.66317748      -4.32881763     -20.75904999
Sb       4.30173481       8.20744357      47.26943729      33.12491858     466.10760624     340.02263776     -38.85734448      17.22744338      -3.27675906
Sb       0.01255762      13.94299915      51.70102912      -1.35178622      -4.65369268      33.50233945       3.49023011      -0.33444606      13.27811245
Sb       4.24231069       2.71419115      53.19624105       1.97921323     -12.12095884       7.34827272      40.88938423       7.39847859      -7.22118732
Sb       1.38098223       8.59893764      42.86614010      18.41510086     -34.36435072      21.34507065      -2.39881186      10.71902462       4.83701280
Sb       6.21229824       9.09389698      47.65387045     290.10376094      29.73944724      79.77919800      20.90222029      33.32105586       2.45346885
Sb      -0.93095365       7.05389063      49.42259303     -51.47939976      15.81202661     -30.98197305       2.58190451      14.52207539      -0.22733137
Sb       2.02004572      17.06037702      59.20590073      -9.53423481      33.11892045      37.14649943      -8.57878512       2.01168663      13.01182502
Sb       7.37535718      14.79309821      41.31370601      35.06887962      -9.95452145     -16.09162569      23.65777461    -103.08267005      18.75310664
Sb      12.51438645       3.79994709      44.25156982     -12.33088188      27.84948655      -4.04818348      13.57979285      -0.03586412      13.21710145
Sb       7.12445603      -1.91058536      48.00001957       2.77509450     -31.13051199     -13.46998225      -0.32267106      -3.03214389       2.44143052
Sb       8.91328143       5.28084464      53.38147913      -8.62603692      12.05015698      36.97347286      -4.94231348       9.48040044       2.15952400
Sb       6.58451921       8.06496373      42.59853529     -17.21345398     -20.80688256     105.83112011     -38.48239703      -3.97784240     104.55395642
Sb      10.81892649      11.16264224      44.81255768     113.44708335      18.20433118     -25.07682282    -106.66891116      18.65069209     -23.63633543
Sb       2.90227153       9.89256427      45.64352450    -473.86994631     340.88651477    -356.06574468      74.89676876      24.24799171      23.14243957
Sb       3.98149536      13.28155529      55.85860076    -594.36887798     100.96817810     267.24250233      -0.60314001      19.47795683     -13.40615120
Na       8.18833327     -11.96246397      72.54529980      -6.91725669     -22.60371743      20.69187758     -10.52762842      10.31550129     -14.55798587
Na       2.75989819      12.05303278      65.37332739       8.09189149       0.19082388      10.50863315      -2.24044099       2.10874073       1.81906814
Na       3.25035060      -0.97823858      61.78812216       4.32307471     -16.17151225      -5.32172749      15.68394658     -10.09944302      -2.36020210
Na      -4.25997817       1.84166066      57.66452068      -6.81560537     -17.00529596      -2.71701925      -1.87533764      -0.99001734       1.07276522
Na      21.48205922      18.50051855      60.91918680      22.06710180       8.55477287      -4.89816819      -0.93646728      -0.89550927      -0.37662292
Na       7.23145248       1.04883093      57.96828166       2.33294192       0.67441441       1.91373168       0.31773190       1.60298094      -2.81231667
Na      -3.86894725       7.49868720      59.13364688      -9.88661592      17.61181796      -9.07979308      -1.76211298      -2.86675769       7.99109877
Na     -99.05263701     -69.46210385    -256.48864742     -49.42623023     -42.37750867    -100.17086763      -7.38081894     -58.80522715      55.81902416
Na       0.90830055      -9.72519721      64.03998235     -12.95672218      -1.32176351       3.70724962       0.88049850      -0.16937865      -0.44517880
Na       3.81214053       2.27339989      68.08047558       1.69079172       2.31281233      -4.18249163      -0.80498289       0.09442256       0.63865602
Na      27.18559470     -54.69267002     125.38239706       3.91589412      -3.15716550      22.95734917       5.67397064       1.91048828      -7.51191344
Na       7.88375972      -0.93437591      61.61786793      -1.11264282      -2.92511468       8.59806041      -0.17282657       0.47066474       1.03774394
Na      11.38201378       9.01278410      53.63975354      -8.22584416      -4.39308883     -11.90303177      -0.30941992       1.54858598       0.52577189
Na       3.91229633       8.77532562      56.38261436      -3.57243730       0.24770273     -16.41158006      -9.90534149       1.90288388      -2.58065403
Na     -41.94822021       6.71619202      85.47758422     -75.19276398     -30.68133488      69.17194070       5.15429697      -0.32640884      -1.85703136
Na      14.58228894      10.66008953      58.33960803       3.82758793       5.59099037      -3.22530587      -3.23939493       5.07036647       3.07548686
Na      13.27016671      11.91939086      56.80121041      11.96848512       8.14893147      -9.50016181       1.03802391       5.48672706       5.91268130
Na       2.75860525      14.81324891      59.82777457     -10.78882997       4.39236955      14.66642188       2.70404643      -1.65706407      -0.46495105
Na      13.13564770      11.01614729      63.31832137      -1.61873750      -3.10449386      -8.65649566       1.02657852       5.10681197       1.25735372
Na       4.93213077      22.14777390      66.08004255       5.27384767      52.15287786     -12.58667559       0.49418715      -1.08331962      -2.20516833
Na       2.73082026       7.88839611      60.84514555      12.62023521     -10.87683017     -24.71144979      14.11216098    -104.88260759     -67.41033071
Na      10.63377271      10.53937437      70.39894508     -12.87356368      17.37657692       6.82760120       0.49514414       1.84207989      -0.19660682
Na      13.26697203       8.30855270      66.86837718       3.59737530       5.56160570      -7.43096385      -0.05380434       0.54839626       0.41243331
Na      -5.15640906       6.68597537      75.37450193     -12.22144237     -14.61622389      46.91038258       6.89274576       6.04437829      -3.96571884
Na      17.49238121      -7.08958181      68.07001376      11.72069549     -26.66215779      17.43316094       0.34391818      -4.44383153      -3.48459327
Na      10.88675240      12.82435074      62.38675291      -8.04049473       1.00291360     -14.94497151       3.51864163      11.41345099      -8.68136203
Na     216.65693507    -522.89484492    -270.48930926     520.16987896   -1331.82827331    -770.54642965     -27.66273365      33.09712585     -15.37080319
Na       0.79196698       3.19826732      66.98904003      -4.43595167      -1.80321792      12.84662953      -0.19224555       0.00301049      -1.00863723
Na      12.49847746      13.90285268      57.07665413      -0.10583277      -1.99912952       4.70590628      -1.94413109       8.05891530       7.06659564
Na     114.37050708      91.18630050     -49.91321744     200.93419280     120.84731749    -346.25520556      25.35514034       4.93053656       7.23816131
Na      22.04247046       0.33943660      76.28730751      29.19454542     -13.98433946      23.02266414       4.74331563      -7.86825974      -7.20547104
Na      12.27425712       3.65440457      73.02486614       3.79503709       3.43417369       9.20282056      -3.26604657      -1.92363741       5.65237746
Na      14.46587519      17.99801830      65.89839904      12.50345269       5.37400851      -7.01953875       4.35744117     -20.40343224     -24.46081700
Na       7.95463768       1.39285976      75.71162383      -4.49842530      -4.64275961       6.91590957      -0.37133544      -1.05138052      -0.00460277
Na     -15.29387087      -5.35102159      98.74716716     -92.69759082     -60.60583651     121.23222673       8.24936654      -2.46702423      -7.19124140
Na      15.04101390      -1.24738360      67.59032926      -1.30182817       6.03063884      23.59797491      -2.75474907       7.60287249       4.74028342
Na       8.15232388       4.03235081      50.97328053       7.26043736     -31.27796353      -0.80338930      -7.07931543      18.21208761      -5.35522886
Na       5.38216262       3.51918261      61.41678184     -14.48111416     -25.35470338       7.47003702       0.13036985       0.44305598       0.15937975
Na      16.91887075       9.16362650      66.42122286       6.94088502       8.03743855      -9.13872889      -3.44963551       6.01884682      -3.92608783
Na       7.60151490      14.42437976      50.94952036     -10.22405271      17.13021982     -13.35998313      -1.94464061       3.87206314      -1.96999351
Na      12.74717116       1.91409378      70.88650166       8.60451775      -5.56281453      21.53862204       1.97481120       2.75156841      -0.01887768
Na      10.97736750       8.40728457      56.52801619       4.79575079      -5.81219856      -2.75468356       2.00841121       0.31102339       0.64420534
Na       6.04171453      11.63147796      65.29813906       1.16426167      12.16507055      18.72049096      -5.98950469      12.84963556      -0.07605366
Na       7.45077928      12.79465707      71.85735670      -8.07386482      17.97735810      11.35420079      -0.06921569       0.62067819       0.03453408
Na      11.69345840       8.84706430      63.77735703      20.67592985      13.29360946     -10.02660111      -0.66225322      -1.23361287      -0.41715024
Na      -2.55399995      17.36312080      81.20262432     -43.91760424      26.81618782      49.43160252     -16.28942990      -8.99650189      -1.49831601
Na       3.60388518      10.66090267      68.20600851     -22.28897671      11.10828300      -1.15905020       0.00426531      -0.02206230       0.35002452
Na      10.89700549      11.45583655      66.79935303      -1.04272049       1.26319629       7.64782814      -1.13801268       0.83790186      -1.64863025
S        2.52148364       2.55626845      53.43076135      -4.58617394      28.72913221      -1.45032403     -37.50131879      18.99267930      21.52726272
S        3.76384030       0.96313591      64.32129309      -6.37402413      -6.54996877      19.25013041      -0.77263171       0.14423318      -0.48467668
S        3.47320138       3.02489563      55.58109041      -3.89468371      -1.25744296       3.45978073      -1.33845375       2.96936814       4.11064872
S        9.89208578      -2.76808540      71.92506837      -0.30168048       5.68171140       9.26916741       0.37243171      -0.03871122      -0.37179900
S        6.77864043       7.55127559      64.67076665      50.99621652      33.09975397      10.42905324      36.95519323     -13.77104200     -16.78769699
S        7.19338733       3.84487387      57.63831504       0.06846080     -17.18781991      -3.03561351       0.62749317      -0.23272737       0.64153213
S        2.78269003       4.13256149      59.07271120     -12.16238320      14.76902738     -21.01351330      -0.06482937      -1.62813579      -0.17959601
S       14.46505088       5.60833786      60.76517915      17.79236302      -2.31822584       1.90475652      -0.65937761      -2.77284987      -2.58639713
S        0.73307840       0.87923802      63.94429545     -10.38505489      -2.83368218      24.44679214       0.26938806      -1.08792384       0.32979983
S       10.31753703       6.86064164      64.69737944      14.24796997       3.56068670     -11.85135636      -0.24217543       0.63366619      -0.08895502
S        5.45071416       7.89621495      65.21254752     -18.91942192      28.91259366      30.04432953     -38.68319025       6.69418781      17.48600051
S        9.69295663       4.02968253      73.81516558       7.07343994     -18.30883269     -19.82317504       5.51641529      13.32723738      -1.00807860
S        0.14663975      -5.15933278      66.59732365     -10.86655279      -9.48680989      -1.66072223      -0.09098110      -1.64037784       0.77498462
S        3.76590231       0.05331969      75.60212576      24.69529945     -27.81785087      43.62988014      -0.67130854      -1.20459874       0.89175369
S       -2.45008317       6.26298473      71.56598790     -23.26274168      -0.05094506      24.05492797     -26.91775261      -9.21065825      29.04386816
S       -4.36611718      25.43482471      75.67375050      -8.65234520      10.84383047       1.89472940      -0.94031270      -0.17429512       0.20192925
S       -2.42520368      11.93833752      61.08400915     -38.55586589      15.45255989      -1.19462509      -1.25445565     -10.70772226      -6.04092337
S       -0.06605055      11.42829025      55.05002011      -4.80659488      -9.57010172     -30.82358742       5.62086436      14.71054005      16.28019453
S       -4.04467953      25.45484914      51.61296478      -2.76377273      -3.67284268      20.28903436      -3.16211074      -0.97846050       1.36134584
S       -7.26978146      28.76006685      86.93237736     -82.62449339      78.10300923     123.18992581       5.09843074       2.43000051       4.80627959
S       13.94072634       8.44339621      53.13376692       7.37054662       1.32581382       4.24596362      -0.36112774       2.21583982      -1.92238108
S        2.60187486      -5.96585952      35.95249230     -12.92648119      -4.89864757      -6.69415988       2.45941671      -6.08667668       9.27406644
S        1.88104311      10.48581745      57.16194436       3.32627606     -21.03460351     -25.78995804       9.44052655       5.59474248      -0.83298577
S       -5.81322294      14.83260167      54.61782237       0.60429488      25.22099796      -3.04462317      -5.50407842       3.59853585      -4.06971275
S       -1.12220117       9.84323527      64.14588942     -11.51475974      -9.13880127      -5.90697909      -0.41198367      -0.36606704       1.69394103
S       65.94676072      24.54983471      80.01305345     329.85909735     115.14997196       4.65561680     -29.94913251      30.81457845      -1.89506590
S        3.80190651      10.17350649      64.50420100     -24.58980568     -11.54320467       6.07992628       1.39316945      -2.52319133       1.70263445
S        6.45444831     -12.25244087     112.81041770     -12.50837581    -201.34013587     157.08741397      -2.92728719       1.33853714      -3.73687402
S     -121.30567154       5.64622252     105.43897515    -321.72445465      73.05153024      95.60940912      30.65201170      17.73056232       1.57044496
S      167.62747115     143.29296833     -36.90116703     889.84535360     773.11867710    -542.66503027     -10.89736087     -11.11365917      -6.17277639
S      -61.68555803      37.00620249      92.78826814    -321.55604588     183.44406886     147.75885298      50.36447090      11.26397976       6.44843254
S        6.23904884      22.96242948      34.43952193      -6.20260637     104.67855173    -150.60175869      -9.56536198      12.32867742       1.46782550
S        6.21947821      -0.24421233      52.56212908     -30.46709194     -70.80871605     -17.61393215      -0.67789666      -0.79377096      -0.82706551
S       10.55865898       1.33394819      47.02588631     -20.47783088      -8.92794127     -33.44905435      -1.87875728       0.52098583       0.61280607
S        1.94707712      -0.04217500      62.12129562     -13.96204064     -58.49659886       2.55493675     -15.59148306      11.93576949       5.39607680
S       82.22396260      38.34794639     192.92937023     121.74495678      87.91779079     375.88193935       7.06791182      13.65190288      -0.03089743
S      295.84300612    -383.17358127     -63.06189244    1264.20540568   -1117.01427885    -304.24003523     -53.87251607      -6.83586289     -15.27159975
S       24.40583981       6.41103304      79.63678621      37.04960402      18.11490958      37.01420877      -2.12645087      -1.89714545       7.93749852
S       19.51922544      -0.27650494      52.22805243      57.41446110     -19.61768774      12.11999801     -21.85913064     -13.60600907      21.74016924
S        9.21324499       2.38636675      61.21678715     -21.82587796       0.11425436     -11.33478020     -35.52012585      -0.08994618     -12.68291882
S       11.19897338       1.02582219      65.36466543     -10.09591236      -1.96063219     -13.02758863      -1.18310681       0.24954323      -0.35123770
S        7.84548361       5.92496151      72.82494578     -58.64743750      48.19063575     -50.48048630       3.69931442      -0.90121546       0.40975226
S        7.63957356      18.06941535      56.23385835      -2.52218998       7.75907586     -24.03235166      -2.98505031     -39.06523864      15.05750858
S       14.76774713      -6.37225974      73.51126204       0.43902386     -31.77034196      10.78500632      -0.14893037      -1.11638946      -0.81891584
S        2.52757038      -0.70192207      67.33971033     -11.82469840      -0.88112923      -0.20567913      -1.78847580       0.35078125      -0.48247564
S       15.24270184       5.73623127      79.81527165      10.10817874       3.16125510      15.49788898      -4.41104314      -1.35471334      -7.49561558
S        8.94981747       2.65269953      66.89534525       2.00935835     -16.38340410       2.05871367       1.87508375      -1.36728155       0.01097684
S        2.84910301       4.20262747      65.88220817     -25.00512248      11.30238821     -16.55912356       0.52978290       0.36888539      -0.05545263
S       12.36212690       9.28425214      60.19619827      -3.33339048      13.72371944      12.38671709       0.11882050     -10.27472956       2.37326092
S        6.50760616      12.25757688      62.97757012      24.33870598      14.75322235      34.84563223    -114.83480617     137.85241833     346.41553156
S       12.60090964      13.11613410      59.33610329     -18.91604996       9.98789661       0.50096019     -10.13258989      63.16724256      30.07659814
S       20.18169445      12.39611986      55.20124839      33.54852370      26.99908973     -18.24084744      -0.60173586       0.88474319      -0.70361132
S       16.44794790       9.63084122      62.77845500      30.31850869      10.21007744      37.89469637    -114.17706779     -86.73298326     -92.26537083
S       12.53364299      14.95536159      61.03251082      22.69045439      28.11490624      27.23375687      67.40494644      72.16031630      22.19977089
S        4.54020217      15.45903999      56.99000368     -12.49082204      14.86051487     -11.77870444       1.58602101      -0.46749631       0.66968984
S        4.18078267       7.17321803      58.11028046      -5.05224237      -1.60247114     -27.24808898       2.60495371      -0.78455697      -0.70434401
S        8.70959779       5.98863801      60.13780492       3.17527984      -7.78164514      -7.58368569       4.66814176      -1.65494857       1.47963990
S      -42.54650477     -91.85945304     163.14136216    -281.64826596    -541.26147867     505.90435315      23.81231701      -4.52839766      12.91419636
S       13.31530739      12.46494085      67.26624451      -3.40305092      -3.04701280       9.42754866      -8.18382201       4.53384806       5.56778266
S       15.08381542       9.61561714      71.72083670      10.19029902       2.44204444       4.46559317       2.35025195      -0.37731030       1.84469957
S        9.24735654       8.50000567      67.87730548     -13.21239184      -0.43068016       6.95615844       1.23704151       0.41657153       1.20565123
S       11.62478314       7.39529567      78.05578699     -15.38053718      -3.68432995      13.80698054     -10.58479181       1.13880551       1.51439531
S        8.80080994      12.33447855      65.43846651      -1.36926852       3.05543898       0.19587338      14.50464129      11.23067465       2.64216217
S        5.40919266       2.73421295      75.01635157      -9.82049464       0.00140930       7.96813846       0.50320359      -0.91437528      -0.45853428
Sb      12.44573437     -45.38136708      27.01481158      -4.75568452     -25.51227290     -34.37355062      -1.90609495       0.90660291      -2.32100257
Sb      -0.83195442       1.77598426      60.73344996     -20.31882880     -11.65362977     -20.32829077       7.06823671       0.03676802     -11.12444221
Sb      -0.45002048      14.59428172      62.61165327     -24.50952883      18.02989622      -2.63605186       3.21786416      -2.95403275      -1.37374003
Sb       8.70577049       1.49061133      64.44401923      17.78077810      -8.50388594       1.63736943       1.57154782      -0.14514837       3.53782472
Sb      -0.71468461       4.27693190      60.75756672       2.24891603     -33.42708143      56.84252282      -0.34062395       2.79673089      -0.42389195
Sb       4.12875299      11.46287382      60.17576829      26.21335365      52.74160571      -8.60905098      -4.78869609       2.63465734      -6.73503780
Sb       2.13909372       6.54285208      65.40831532      54.18785038     -14.90786682       4.94216309       9.88827078      -0.96072627     -19.25507262
Sb     -39.89583025      24.34357373      68.68808783    -154.95994064     144.44086468      -4.67462243       5.06914436      27.70602084     -18.19069531
Sb       8.32698674      15.79597223      55.97061411     -10.06709555      62.61824061      70.98455347       1.81858296      -0.16317583      -2.20274976
Sb      10.82937586     -17.78244464      53.49012121      14.04713633    -168.23367166       7.08563043      19.55823625     -20.61134250       4.97257852
Sb      11.99481277       0.12513593      60.26850418      27.89541894     -12.68027793     -20.39799966       0.35419579      -0.86297361      -0.21042465
Sb      10.69751331       7.97524014      69.97581592     -12.18459395      30.48051793      23.85258732      -0.78747607      -1.38915937      -1.05341596
Sb      21.17383017      -2.66773211      58.76295226      94.59848298     -32.08233734     -21.47174393     -26.31315321      -0.53323004      36.31903108
Sb      11.23831641      11.91649418      58.39415331      -0.71420402      58.17331860      -1.30190191       8.37547930      18.08862257      23.55817908
Sb       9.00491706       8.63260263      63.86442950      40.51933116      -1.66812556      -5.87723537      -1.20463537     -17.78674940      47.62009763
Sb       7.43843965      10.29027900      65.16790536     -22.08080181      -8.33083081      -5.32109288      20.01993059      -7.08489820       9.43747949
Na      13.71448860      16.28017102      28.09590761      -4.07215303     -26.62328457       1.70936751      -0.46871924      -0.65796688      -0.55092352
Na       3.70195948      27.46992636      32.70727087      -3.13888218       1.52558396       0.30937563       6.32184707      -3.45510622      -6.70419541
Na       1.43246089      13.06632550      28.85726782      -7.99646490       0.70328620      -3.85737550       0.92357631       3.24893176       0.47877792
Na       0.45793939      17.88609053      30.20060474      -1.51412481       9.35760809       9.23413320       2.04559463      -1.14981915       1.70696729
Na      16.56175811      30.59962574      28.67070031       8.79951137      20.58492244      -2.74269980     -18.37646243      -8.80737524      12.00487318
Na       3.35776257      17.22440336      28.03347897       5.46661661      -1.07458971      -3.30169296       0.07898734       0.55322108      -0.12407783
Na      -3.15410758      20.46110652      35.20369987      -4.85052511      -1.88400118       9.06794141       0.21730548      -5.33276778      -0.18298826
Na       0.28926990      10.69196566      39.73351659       5.30443997      -1.67890575      -1.26220744       3.22768337      -6.04640199      -4.24070996
Na       3.72717674      15.27464876      37.10376828       4.76081339       5.72891161       0.86689212      14.84086647      -3.81985587       5.19971728
Na       2.30730767      15.59695720      36.95503825      -7.28376706       7.05797066      10.33499790     -18.03313775       7.37609965      -3.90763678
Na      -0.34646996      20.42275340      37.97840496       7.57273397      27.78323548      -6.10331926      -5.83089449      -7.10654276       3.34683211
Na       4.61716260      17.49862286      35.59889642      -6.34418320       2.07881664      20.70921006       1.29920137      -4.09503440      -2.69378370
Na      22.45488963      23.20890322      32.67504920      11.67519619     -17.87888453      26.35405673     -28.21389433     -11.25491589      16.02682514
Na       2.83653429      18.86696069      33.24320261     -10.80440815      -2.53301209      -2.98404328      -2.12175931       0.57116588       0.03969581
Na       4.18133042      20.92363303      29.14682317     -12.35586132      12.15234981      -1.08168597      -5.83905244      -0.60098227       1.90389171
Na      13.97387903      27.75657804      33.75587313      -2.42748116      11.79813545       6.71918135       7.79153743      -3.60967357       8.83523129
Na      22.08571318      19.52867590      28.09810515       6.80784514     -17.50281681       7.88782665       4.20005225       1.15083966       2.83806642
Na       2.78145806      24.61881870      27.57140982      -2.72544614       1.65208910      -2.12619047      -0.79815492      -4.52362731       1.27301346
Na      12.78192041      24.51921883      35.09246994       1.80464790       0.81372021      -0.16533858       0.00303468      -1.28996913      -0.19380568
Na       5.27565818      20.56256197      43.66457213      12.63246436     -14.30865619      10.11238144       5.23808432      -6.60285244       5.81363669
Na       1.84660741      17.68795499      39.58083705       2.41626300      -4.04018622       1.59149202      -7.50504903      -6.78085637      -2.13521682
Na      13.85753835      20.52543463      38.87694347      -0.94297581      -0.76901930      -4.95723309      -1.58840985      -2.58029411      -1.61342568
Na      16.25897689      21.32756079      39.06137705      -0.17169629       1.34859334       1.51586602       1.28164404      -2.05109369      -0.66505440
Na       1.83374064      26.87702643      32.13134898      -7.77159896       9.17501556     -10.50531722      -4.61691395       1.44025696      -0.55099638
Na       7.93079140      18.31968825      27.70126722       2.40501807      -1.88328694      -4.79008789       2.71722176      -7.84137276       1.21349925
Na       9.32624712      28.38140176      30.12560985      -4.65138853       4.47503599      -1.48819508       0.88075869       0.85858355       0.59141159
Na       9.85352897      12.89731243      25.41479654      11.26466482      -3.79862565     -14.54883197       0.19242399      -0.62094453       0.49745196
Na       6.32448380      17.70638565      31.76998847      -7.54124895      -3.72710647       0.94670903      -3.26875431      -0.98355134      -0.64783785
Na       7.38704078      27.60875842      31.19273479       2.19156297      -1.11747669      -1.31913856      -2.34635003       0.24927898       1.64732749
Na      11.99012709      16.07602445      41.42159711      -1.95519028      -7.08703219       2.78635295      -6.05339408      -0.03394344       1.23542691
Na      -1.77170297      24.48906028      29.21981679      -7.12420803       4.72442860      -1.00737702      10.78184694      -0.90413636      -1.73599513
Na       8.90119278      15.00334756      38.95127533       1.17588860       6.86689311       4.76476672      -3.65332592       1.41316951      -7.60165878
Na      10.37154972      28.40328093      36.14093829     -27.75466669     -20.08014272     -28.98676307    -576.81942639    -480.55960904    -434.58144286
Na       3.61905849      16.60267955      39.64009010      -8.80802148      -3.67198156       2.54080656      -1.62241109      -8.57143935       1.09292470
Na       4.66193827      27.11943041      36.55069425      -0.89264763     -13.11847007      -3.50455303      18.33747489     -10.81898318      20.77319266
Na       4.36252202      16.68447580      33.44664559     -21.50713403      -3.37534967      -7.24782031      -1.52361572      12.76201455      15.63567118
Na       5.51248293      22.26825505      27.96101181      -2.19575429      -3.93128858      -1.57147619      -1.29205942       0.85206552      -0.53514885
Na      19.09236403     -19.50347543     -13.40183252      29.30330465     -83.86927525    -102.27129257      -0.79734628       0.39806903      -2.80588485
Na      10.80576703      20.89940698      29.64241760       0.23420704       1.45744494      -3.31665819       0.63644440       2.32888304       3.29468553
Na       7.96892996      25.36483667      31.48751396       1.31167295      -4.50320561      -3.40474519      -0.37697771      -0.36509055      -0.35567419
Na       7.03283825      20.32421310      29.84173224      -3.94905165       0.99267047      -4.58863685       0.65970681       0.23851001       2.41943755
Na      17.01612612      23.05045769      23.05915347      10.49605356      -6.05383431      -6.40847582      -0.44056343       0.36905970       1.77718557
Na       8.09167537      24.62899024      33.47403587      -0.03653310       1.12741726      -7.76483792      -1.15786879      -1.40795518       3.88580694
Na       8.65473523      23.97529634      43.35240090      -9.14483167       7.29646313      -6.36255793      -3.93166061       1.10940650      -0.45684265
Na       8.14163745      19.26096397      39.67393297     -21.24599723       7.44178581       9.91869371      -5.31228716       5.19956555       6.05970363
Na       6.59951417      24.54133463      39.95146472      32.83620083      18.03536411       5.06013679      27.49338930      27.27269206       7.63854374
Na       5.51333746      22.60091171      38.03211823      -2.54045064      16.99024896     -21.17386277      47.94897997      14.12618969     -89.78023033
Na      10.33893405      24.47528450      36.80074232     -13.56766928      -5.35778720      14.07373207     -14.95494466      -0.23971464       1.31864848
S        1.49740032      15.48593854      27.38343783       0.79633688      -4.10771753     -14.16642247      -0.11881447      -3.01888477      -2.44299527
S        1.07673576      20.64408977      31.73098155     -34.28265734       1.99160863     -12.12114933     -39.24181435      12.41052670     -25.62668118
S        6.94175034      19.84215700      26.90320800       5.30472123      -5.48052716       2.77146942      -2.41108117       6.52520233      -4.37590683
S        4.27917385      15.54493415      32.28717936      -2.00684050      -8.60550498     -13.48137476       4.45803709     -15.66032799     -17.70179266
S        5.61278253      19.12045436      28.35799641       8.90676097      -8.17885481     -14.46122005      -0.51423556      -1.76803964      -0.98651511
S        5.28316689      20.28624202      31.92036531       0.35939883       1.95935436       6.32434775      -1.22963337      -2.31561994      -5.65643841
S        0.86487224      20.48281566      30.05499845      10.68398416      -7.72917506      -7.17608931       7.66194071     -16.55851124     -18.09203122
S       -1.28389339      18.58667714      33.62214830     -11.00061920      -7.78812343     -16.74131415      11.71431958     -12.41048518     -14.77045268
S        2.99950820      10.03986850      33.47693980       1.35878479      -6.86205821     -13.10465056      -3.41863758       0.48537809      -9.57007626
S       -0.02603067      19.68091405      42.62159623      -9.48960013     -10.07566344      17.18997772      -6.22421241       2.52033608       3.93387123
S        4.78497031      18.75651303      37.25615330      -5.52995628     -11.79546508       0.28588988       1.33731378       4.56680248      -3.67436925
S        5.79439585      15.37920169      39.67923672     -15.46646965       4.74467930     -13.18398018      -2.73084895       2.95055458       1.70933030
S       21.38561670      13.95171486      27.28524187      43.92452803     -16.50767297     -18.66426475       8.54466826       5.26702480      10.96673185
S        3.61689459      22.12959706      41.23442964       6.09799223      41.51652081      46.96975561     201.49197788    -150.53327208      45.56242786
S        3.69393235      21.01092144      34.82092060       5.21476782      15.99556298      -5.18931097      -7.51192834       9.71499667       4.53571239
S        1.09160924      19.00874368      34.52260199     -10.37673109      -6.51552550     -11.70957812     -18.65385518     -16.82334062      15.35102423
S        1.02922354      21.97040149      29.09165208       3.90609187     -16.16554383       9.47398481      -0.08735803     -30.69493708      -3.80455988
S        5.34537736      25.68748327      34.06293501       2.04346778      -4.50837328      -2.96138029       2.83461756       2.38108555      -5.29581781
S        6.84779787      27.00913551      28.50145316       6.15550749      18.39990803      -5.19442387       0.65894756      -0.46589212       0.48740503
S        7.65256377      20.06129284      32.94871728      -1.54678327     -22.82570489     -11.55047817     -39.07032119       4.79582729     -36.53812271
S        2.72113129      23.15663417      29.71971387     -15.95798693       5.50115880       3.13932628      -4.38818744       2.23337339       8.64298480
S        5.77500960      25.43098006      30.39904912      10.78363626      -3.99142973      -1.86830650       0.47737243       1.50120513       0.93110398
S        2.02594519      26.28245363      29.50228256      -1.93223524       6.90278243      -4.63324958      -0.23351593       1.31499021       0.39851501
S       -0.47549090      22.31496149      30.66375801      -5.87863155       0.72530115      14.46095903       8.40300878      11.31275763      15.14540383
S       -1.21938334      19.72257767      31.31461652       2.86038308     -26.95052880     -14.25132795       6.65248851      34.30317265      13.31122233
S        0.97042208      27.64794434      40.38136772      -4.64037202       8.95834218      -7.42199015      13.30800202      -9.26659030       1.45378040
S        5.94148234      29.31454452      37.66714625     -15.77722992      46.15074616       8.72590292     -10.28683762      29.75274725     -20.79690920
S        4.98392717      22.09640055      40.46852589     -14.23295992     -13.71115352     -30.69594460     -42.52324397     -49.70214205     -69.85040621
S        2.81809241      22.54046376      41.02676770     -10.80187213     -11.80714383      15.76007184      37.78034353      17.28885239      26.40255073
S        6.04266498      28.46531229      40.86045178      13.88522968      21.56197507       2.48248640     -21.19168192      -1.21756177     -17.64915822
S        5.00773198      29.76617841      36.07561147      -0.97010425     -29.17683803      -6.07196540     -18.49172911       1.02779195      18.52980278
S        1.73122169      22.06057810      39.70079286      17.91695217     -16.18730962      10.64921697     -13.65385136      12.45719538      38.27498831
S       10.67966836      17.72748751      26.23589212      35.80493166      22.52902251     -16.24806664      -0.13523256      -0.07478892      -1.28052330
S        8.32897646      18.40717287      32.08703839      -9.31394748       0.49623016       0.04827806       9.20892934      -4.08831589      -3.85121748
S       14.68280855      18.47217318      27.63088390      14.85206964      -9.32981476      -7.72912884       0.51439536       0.56704801       0.38425571
S       12.65604801       9.92694420      31.03344767       1.79552383       0.31541882       0.68350136      -2.31679324       1.47378946      -0.80080119
S        7.83892079      18.62453186      19.06258552      -5.27780049       9.99135187     -21.84332141      14.64254417       6.06012719       3.96355620
S       14.25010176      28.94226737      30.23940878       4.21811159      20.30924153      15.52990449       1.83358689       1.64543402       1.03064110
S        9.17959550      19.21750359      29.49200697      -2.93716947       1.54235709      -5.45437022      -8.51140258      -4.68497495      13.05931689
S        8.56615912      16.02788999      31.86734804      -4.15282196      -0.55629757       2.60853269       0.50936583       4.38813669      -1.87594526
S        7.71475031      16.42879812      37.78476474      -8.21532729      21.36608890       0.66979274      -2.36886288      12.19594761      -0.71178891
S        6.14234577      21.52930279      40.68268523     -33.90216888      17.04151283      18.90792641     -45.29988350      54.14980361     -36.45956007
S       20.50207621      12.53967223       7.81017828      -4.17655810      -8.57914417      -1.92059066      -0.73911597      -0.02162929      -0.17541032
S       12.46618137      14.88184062      39.37506383       3.19092817      -7.64874659     -12.80005012      -2.71391269       3.59953896       5.17126403
S       12.74007826      17.35957882      36.24616222      56.75769398     -13.85997411       7.42361690      -5.12308071       0.08390838      -0.25922407
S       10.44949798      19.09092067      39.36586883     -15.11003106       8.31445719     -29.95721543      -1.05462438      15.49114918      20.64202450
S        8.94686032      18.79246608      35.91894896       1.04311420      -0.59824191     -14.06929345      -8.85337441      11.63184830      -4.37282951
S        9.42377227      17.52738990      39.46067562      16.58249344      11.12232173      -2.07121682      15.12928961     -14.56678391      23.98612492
S        7.61839081      21.06371381      24.87992834     -10.28213465      -7.27690874     -23.24687052      -0.18543572      -0.32040492      -1.06580182
S        9.25668519      27.31375238      32.96915722      -4.16292645       3.64130345      -2.63079686       1.28873494       3.30897910       4.24017090
S       12.57307580      27.97228099      27.74413125      -3.47430594       6.03100229     -10.62640999       1.56278255      -3.38386242      -1.46058676
S       14.47887936      21.96770814      31.15389555      43.28398751     -21.35798138     -49.55021956      -5.87605276       1.27809627      -3.11316753
S       12.28993656      21.30355328      28.01896644      -7.13897315       0.58623324      -7.82970465       1.73805970       0.44982573      -1.86026689
S       12.63407394      27.42724980      32.15049047      10.86844438      -0.77980977     -11.89573651     -13.10046827     -34.16763167     -12.14995171
S       10.04104695      26.04202771      30.57486873      -4.40727699       2.36367443       7.74188252      -4.08029340       3.85084182      -7.65846645
S       10.72971282      24.05628858      32.55639183     -13.61328622      -4.54843038      -0.25180746      -9.10921235     -15.53500853      11.25000201
S       12.49098681      19.94758502      33.93004194       4.40859792     -34.18508888      -3.75034005      -2.93428088       0.42174687      -1.20163886
S        6.83906228      26.62774494      39.95207521     -12.26757450      19.44624340     -11.82160018      13.46850416       9.70566665      12.04227675
S       13.84189590      27.25643160      35.99642727       6.02531144      -0.16118016      14.95598191      -1.71893320       0.44825905     -13.04531671
S       15.86111340      23.26578186      40.18261398       4.13731703       4.00680307     -10.27352553      -0.36854378       0.77979601       2.95986369
S       12.61933486      21.89231350      37.31832170       8.44761031      -6.33155764       5.03802788      -1.50659483       0.64041023      -0.63923799
S       13.31844212      27.32536097      37.50225372       2.38436647       8.36823080      -7.58758359      -7.89806739       1.90299274      18.34590951
S       11.49788334      26.29187442      35.70510419       6.00600615      -2.08470494      -5.67361843       1.43822673      -4.80343247      -1.99791065
S        9.99738468      27.33967635      41.07203262       9.02231364      30.49208127       7.74072363      -0.56616277      -2.24188154       3.58362666
Sb      -0.21187988      15.74818317      43.10277681       9.63726302      17.18755381     -45.34553499      -5.80361749      -2.80115814     -32.65343115
Sb       3.63792365      18.10713407      31.21047990      -1.14742494      -1.12651568      -4.24712542      -1.36394668       3.89847943      -2.25080253
Sb       0.16131824      28.64242048      33.21205010     -14.79081539      -9.63010087     -17.90098533       0.74097281       1.01841589       2.44422236
Sb     -11.88445020      -9.46275411      -3.13752176    -425.18904593    -767.65537182   -1155.61283108     -15.95239646      -3.88970515       7.74427829
Sb       1.88130385      20.77835786      26.97037324       7.63634847      11.05018241       0.80654021      -2.16590312      10.34455309      20.79259508
Sb       3.30357139      25.20575812      31.50199164     -25.92987640     -15.71349509       9.46796675       1.82747717      -6.66361538      -5.63128469
Sb       1.01360973      21.43512857      35.29425044       4.27886539       5.67177294      -5.65764311      -6.85654679      -7.98217299     -10.55529158
Sb       4.21235102      23.57828109      39.69636455      27.14263811     -28.16371390      27.74910622      42.96863528      75.34406637     -21.99649812
Sb      10.61556163      26.00756175      27.51450964      34.85646883     -12.50348345      -0.68038119       0.65211446       0.74226765       0.50190749
Sb      10.48377920      17.47825334      30.67378247      20.90538196     -17.85037521     -12.89290726      -1.37935329       1.20881802       2.96618659
Sb       6.73442664      14.24477822      34.99351981     -14.23656791      14.54283872       1.97425757      -0.71173955      17.31745029      -1.39816148
Sb      10.86244098      17.97951866      38.09742980      10.09196731      -9.77034641     -25.80823887      57.19802000     -14.46602513     -18.84359313
Sb       4.08889287      22.74027483      25.46996210     -27.34118836      12.59959835     -22.43592071      -2.09474583      -1.12300347       1.30855415
Sb      11.65363373      25.41952178      31.69049465      25.02632675      28.25989202      -8.60546658      15.51543662       8.56061553      -6.03360874
Sb       6.80364473      21.11382778      34.46634440     -28.94699947     -32.12076447     -21.77283798      29.02324985      -9.80645063       7.01493648
Sb      11.90536517      24.18782746      38.54294960      17.82213396      -8.28090587       1.19263514       6.13461979      -4.70613118       3.97948742
Na      13.62950975      17.09941446      39.83027270     -11.09467862       3.99685721      -0.80016892      -8.80531828      -5.44547045      -1.74378772
Na       2.49119617      32.09511171      47.01545881      13.68780470      28.33933689       0.94396631     -74.75471109      10.24968299      38.15545080
Na       2.81308252      16.86992362      40.35896177      -9.62809123       3.32526300      11.55166500      -8.60268835     -16.14524225      -3.94102213
Na       0.88438663      16.15535527      45.07387017      12.57963521     -16.96649854       0.25685459       5.92808755       4.06106206      13.33293535
Na      12.31642572      23.15551668      44.67678425       4.04738510     -12.72323195     -10.72469405       2.84439747      -0.78646446       0.79976233
Na       4.94922923      16.49320147      42.49769865     -11.71872828      -3.26276740       4.03223298       4.08541278      -3.88772518      -5.30979693
Na       1.66586490      17.53428703      49.49228165       0.86042779     -10.07520862       8.14580870       0.34815031       0.09977475      -0.16385541
Na       8.08856762      24.77085174      55.76128669      19.21458579      17.60858354       7.99439518       0.41098088      -2.51136055      -0.23365898
Na     -25.76371116      43.09721711      71.17707443    -100.36470205     137.70386034      85.19179887       0.89959848       0.80713639       0.45190414
Na      -3.02182548      23.06772687      51.16371094      -5.79961948      -1.24377369      -3.00101074      -0.85238317       1.25690577      -0.16745333
Na      -0.45155716       8.93592656      54.83364271      -7.38703487     -15.59624248     -20.04314169      -2.10724103       7.88536737      -6.42875080
Na    -232.25828427     629.84168326     351.86165063    -590.77557375    1551.21361428     768.65597077     -17.76697628      13.13574054       5.42006222
Na      10.14012071      23.70993401      44.07830532      -5.82209878      -4.15576727       0.26620481       1.08870583      -1.92415218      -0.12745928
Na       9.31568937      21.23020102      52.02005087      19.41945755      -2.00714929      17.61641463      -0.42863032      -9.06292657       4.58982491
Na      -2.38715826      25.76238133      41.60472517     -19.83722559      18.25708530     -21.86291135       0.93421623       1.71745826       1.79580188
Na       7.32058544      19.38221552      44.33693664     -21.77187322     -28.73544685     -11.13508162       8.68614998       2.16603886      -1.03837301
Na      10.44165564      22.05380752      47.07071589      -8.72974565      -5.83616423       6.48469380      -4.82225345       0.11803425      -2.65675379
Na       2.43319411      25.68517625      40.89107674       4.97114447     -21.53464143      -4.96416013      13.18609409     -27.37436634       3.86254563
Na       7.73463406      22.45619365      50.55443792     -19.44732521      -6.70385483      21.77442355      -5.36300143      -0.84929861      -3.47112523
Na       2.91046634      18.01458985      52.30963519     -13.18327374     -12.16121290       6.49402210     -15.54081987       5.55562717       2.72574108
Na      -0.18843113      17.43785231      57.65935802      14.02711599       0.01647394      11.82370927      12.92536542       3.51519405      -7.49594824
Na       4.84266408      28.53601195      69.41422322     -22.71008419       7.15709537      21.82726412      19.76705452     -51.81140088     -57.52247063
Na      15.35606780      21.02669398      52.55956733       7.38544001      -4.32914273      -0.13842156       3.99441636      -1.02504304      20.80441276
Na      -4.79195435      24.82682218      46.36104255     -23.71238842      -2.28744593      -0.35149549      24.06899309     -11.83683237      -5.81956308
Na       7.73677031      17.80200442      40.61859295      -9.98433393      -2.92814488      -5.21953652     -13.97414922      -4.63298353       2.38435412
Na      11.10222263      24.48446080      46.27441761      -3.58641947      -7.93898290      -7.95996842     -14.70493755      12.49794859     -57.14582256
Na       9.45024684      15.18182031      45.85452982      -3.38121912      -6.18899039      -7.09426627       2.48881920      -7.41131887     -11.14970595
Na       6.94342627      16.15118473      47.65558318      -4.28722688     -14.43269783       3.03383858      -3.66006317     -12.97101743      -3.34397551
Na       8.71278771      24.89587001      40.79845886      10.78166152     -33.08792201     -10.44601207       3.15996879       5.18678186       0.49583654
Na       9.17571013      13.02038610      54.94407991      -5.28054745     -13.59885723      -5.79691544      -1.95881030      -8.96458535       3.80348030
Na       5.09597406      21.85599796      49.59025865       3.51969847      18.91061668      -2.83711861       1.35895788      -0.87997720      -0.46324851
Na       9.32496924      12.17455692      56.18327782      -3.20112600       9.15926318       0.63278393       2.28935797       8.48875225       2.15895824
Na       8.02966691      28.40000131      47.23597745     -22.01221720     -27.51910428     -19.82369196      39.89355362     -60.18256164     -12.95619157
Na      -0.85113717      22.47456603      40.44326078     -20.55617444       8.67094927     -23.24184685      12.50978856       6.79950789      20.21521713
Na      13.29967545      29.53620732      54.79419847      -3.99403619      -7.21242425       2.58542218       2.63368407       1.65879791      12.28446620
Na      -1.50444700      31.15001328      33.96696297     -48.17380662      37.97520546     -37.52061216      -7.41743335     -11.71979077       2.70029682
Na       7.63298248      24.60104097      45.28206890      -9.71363855       5.72743119      10.71257257      -0.09954043       0.57552874       4.42019365
Na      19.96346933      37.57102229      42.86273679      26.88980345      38.32756871     -12.45575248       0.47050101     -41.02990652     -10.67869757
Na      21.90660048      30.55849025      65.13280778      49.53726379      41.04040411      62.81386283       0.83780001      -0.26438722       0.56675595
Na      18.22695416      16.60437069      50.15244182      42.65964774     -14.43203458       8.62416736      -7.48896755       3.60524751       2.50700925
Na      23.61425125      43.61800219      57.93548561      67.45008411      88.11367729      -0.58483478      54.55961625     -30.12662802     -16.92503295
Na      10.04994542      28.37746795      39.23494488      -8.03046728      14.00370731       6.70406921     -14.93082656      22.93435063       1.42052821
Na      28.40827554       0.37608398      40.54596447      66.27162668     -93.47763202     -22.44727592       7.45370130      33.05731340       1.46441049
Na      75.57354622      23.85046705     -42.40126997     244.50074251       4.14954944    -153.30164761       0.66137042      -1.27730766       1.01433114
Na      12.78038057      20.34302054      56.44571771       1.85022527     -22.86590353       4.11661949       8.10291444      -0.51669927      -3.70205376
Na       7.52584621      26.85679402      51.43529971       4.65411719      -4.56885245      -2.23910649       0.36900781       2.89108086      -2.99474992
Na      15.53690853      29.31353928      43.67487830       9.33249602      11.10079119     -23.82123114       5.07848611     -44.56932897     -22.00774965
Na       5.48401831      21.70146440      44.72328225     -30.89597032     -15.98863813     -14.55578255      -1.75510795      -1.88045048       1.63672879
S       -0.32609234      16.91140734      39.18377229     -13.26253858     -27.65299219     -15.15216683      -0.29669636     -31.74593123     -18.02120244
S        2.84967900      22.22066691      49.52765851      18.21742183      15.26177017      15.80336844       1.27842694      -0.13279568       2.76853761
S        5.77554057      21.08879401      41.82975621     -46.56819686      62.47542672     -15.82613431    -162.65224864     -18.55498923     111.45251719
S        5.69515310       8.72593765      41.27354994     -63.69523045      -5.72963380     -15.25960359      64.24415537      35.61649696     144.83079848
S        7.18629894      17.25289264      44.10716533     -22.04424582       1.72036657     -37.26934132       0.75932895      -4.69133219       8.43891234
S        0.19888493      16.13628834      40.37172133      16.47065655     -18.39416537     -25.62590667      13.42212179     -34.27912778      -9.33629514
S       -0.05002102      20.02547497      47.49658053     -22.90529293      -2.87096962      21.93784438       0.69491184      -1.42357199      -0.97678365
S        2.77957095      17.19506157      47.33051923       7.66409991     -15.46889626      11.07368161       2.17001602      -1.22578581      -3.74880360
S        6.25958207      17.92622369      47.72006591       9.12312317      -0.14806675     -42.70487904      -4.68403388      12.11719533      -2.59334956
S       -4.63700489      19.60910913      49.94156675       7.46510826      30.43568936      -1.09385644       4.04086006      -7.19305800      -5.23621539
S      -22.42045067      26.94895441      66.71939334    -141.32899115       2.77713707      41.82850931       0.67721224      -2.79074429      -0.92848383
S       11.03244043      30.98920427      48.86377374      27.12883277      76.85598339       1.17007046      -4.19439417      -1.00855783      -3.45344173
S       -4.04570997      18.40922848      47.43502508     -37.90825060      21.07483935       8.72966349      16.08782575     -23.01786422     -40.02090576
S        4.02593660      14.69761068      40.53486983      26.30889116       9.51207992     -11.05665494      23.39109491     -55.33139021      33.85358302
S        0.80771509      12.82355291      58.89638786     -19.52525354     -25.50927802      32.78518205      11.56192378      -8.51048533      -4.42235541
S        0.56454447       9.35272423      57.33599753       2.00450583     -14.13970251      16.51298776      -8.30084167      -8.92713618      -3.17029835
S        0.06166783      24.03865740      37.26539842      -0.35895485       8.45673537     -16.13872309      -6.24432769       1.02389997       1.49224959
S       -0.16111691      25.99109378      46.92023807     -23.31134408       6.97262058      -4.38036142     -11.61628417      16.39519305      -0.36612348
S        4.26817283      26.85343403      42.93767143      -3.86116097      -5.79370618      10.93792569      -8.51371458       0.86492098       2.03381843
S       95.74358497      74.26022446      64.34955737     436.76367410     189.47146302      34.76305069     -74.65492057      21.34492659    -114.10111118
S        5.34439387      23.00561336      41.20600423      22.93630360     -30.97348023       6.33136759     -23.92940636      44.62295683      25.17679658
S        2.08670323      25.99425057      44.78414963     -31.63387866    -157.26171333      32.82529573      -0.27504745       6.40253460       4.36843438
S        1.79072778      27.27136792      43.01081874     -37.32036389       4.41370789    -116.41088431      16.53572853      16.11148331      -1.53547906
S        0.47613225      23.17261908      44.64605591      -8.12253026       4.10355710      -5.42257904      -9.10662585      -2.64590283       3.60587758
S       -1.84490409      26.37833425      48.33932842     -23.00850662      22.49949131     -13.23676427      23.31002261     -10.28400469     -21.16511999
S        0.64607988      25.96645219      63.75972525       3.69610932      -7.98409616       5.92278462       0.78788895       0.91683315       0.19517059
S        7.31125595      19.59032503      46.74422672      20.21785603     -32.19646715     -15.60235017      -2.19023770       2.71105540       5.95727616
S       76.46272307      27.17966266     -14.87339309     385.57189540     -33.96932406    -143.25883093      -6.63290227     -13.18531552       1.75542606
S        9.36154562      16.91683351      47.53892013       9.10850160       5.94943149     -29.32297131      40.57336146      -4.76532891      40.35941137
S        7.01092952      26.94626301      55.82211438      -6.39233749      -6.83898292      -1.98708693      -1.36723798       0.43048912      -1.62758861
S        6.43832615      25.76444860      43.42352321      28.67651538      -5.93477585     -49.02581343      12.28430377     -11.88454302      16.43276182
S        9.42430419      22.34758387      58.72730176       4.00621273      20.70901346      38.97969096      -4.51199683       3.78578844      -2.22070037
S       12.27428754      16.66921395      44.70747712      67.53826737       3.34576211      22.32623624       5.01783974       2.50103392      -0.03163582
S      -37.07947832      31.52311635      36.68325571    -111.33543155    -124.51407732     -66.51558088     -16.04553571     393.16629454     338.79499996
S       16.71112349      17.71643271      43.72399799      56.50048590      45.51124218      26.30897340     -19.73300239      25.18242492     -14.41630803
S       20.00687515      17.24876899      50.23796206      14.88751646      -3.82554534       4.59849974     -47.38168125     -13.21520186     -73.29234523
S       14.90392528      14.24744922      43.85369168      20.42219529     -34.01166427      16.96717461      -2.75292365       1.74408232      -9.18144404
S      -27.16463378      38.00990912    1053.47688106      18.11774525      43.44915678     827.47743943     -72.47175398     -33.75097599       5.09624007
S        9.48760672      18.57507789      41.76617540      15.94914442      16.51789083     -23.19628448       5.09598030      -2.56467191      -9.45927302
S        8.67151733      13.37536127      43.02039627       4.77155727     -29.26640980     -28.03321408     -44.81963950    -120.68196941     -80.97885251
S       12.63982223      13.94658807      48.60643403       3.39063656      -6.59007521      -3.70376116      -3.15967031      -2.98058924      -3.20200458
S        0.29434660      24.69678822      52.20955875     -54.77778393       8.15824350     -13.08817397      14.85325859      31.84422180       0.77263690
S       17.76218483      18.76071240      52.60005177      14.33053632       9.67875095       6.75515688      -0.90883012       7.48370580       0.04824838
S        9.73570083      17.18142824      52.17400765      18.94878499      -4.66534441       3.78470820      17.76060675     -21.23029077       0.33019897
S       12.81554218      19.62926957      50.87012632       8.83173909      15.20153512      -6.73950910       8.72794812       8.39834432      -9.74148388
S       15.85852438      16.56123925      55.10592051      20.43550390      21.19698940     -20.54644610       6.82956792      14.39096581     -12.64724358
S       29.22504259      14.42942894      38.20342842     -51.10971650      15.65483561     -34.03034677     -55.18714962      22.92675041       5.15205753
S       10.94723464      17.35837029      53.93365263       5.29016290      10.45380541     -23.08443848      -0.69985276       6.30819248      -2.55995790
S       10.71682904      26.98960627      38.79223477      30.00639581       4.25952622      12.27691531     -37.33425549       1.92392425     -43.62487443
S       -5.24868660     -17.63596955      59.61233502    -165.56932819    -161.01527875      25.71737834       7.59571418      -6.91599391       7.72215645
S       11.73686271      26.52320311      39.62622695      -0.09162486      -4.35695395       0.88188059      45.21218299     -21.43568217      34.74116305
S       12.84444630      25.62210586      47.52146049       0.36419042      14.78265057       1.43693352       0.56219406      -2.68481672       0.13055454
S        8.69027155      19.74389336      33.87550746      11.05727955     -30.80385838     -14.04313174      38.03607094     -15.68264104      35.71280031
S       15.11615874      31.54554528      42.52220118      14.71735667      -6.26225360      -4.58143938      -4.16710283       1.15116886      10.50982039
S        5.95641724      26.41199141      42.11686199       4.44409235      -0.08092641      -2.87810123       9.85777368      29.92782888     -20.66420717
S        0.36654707      51.49352913     108.15948178      22.63510380     195.80654918     268.69631511      -1.16919543      -8.13006104     -12.63775845
S       22.94670637      17.65856458      48.65275677       4.19263401       6.67125751      -1.56455999      -9.35574800      -9.92138618       5.00237230
S       12.99384798      30.20334197      42.35132995      -5.62793569     -10.36966674     -39.37791430       5.93984612      -6.20355777      15.91073029
S       15.32339918      23.26979135      49.37617725      12.75952248      16.64221887      -3.36179373      -3.15323523      -4.15944443       9.18235037
S        5.94876173      14.06580217      63.34272882     -30.07915282     -12.86573366      33.95739120       9.27360956      -4.10249499      -3.37843068
S       19.39360550      22.22320491      53.14561316       4.24144629      11.73383759       6.45206927     -11.38146310      10.99729810      -1.15132027
S      -24.21664694    -113.55082497     473.86716736     -94.61441034    -400.36457545    1141.97826588     530.98113766    -241.69470081    -728.99607949
S       39.30604279      -0.02990586      36.34803572      79.21927329     -73.00232713    -155.88299970     583.77542291     474.07030601     433.58685748
S       11.16035564      19.79396701      67.66853585       6.08114700       0.72432248      78.96410581      -0.21526699       3.54240808      10.03124792
Sb       0.07482926      14.59975405      56.62525519      33.11373146     -25.07695252     -13.99355435       4.09007377     -17.86786445     -10.63855584
Sb       5.44123939      18.71692567      44.20212386      60.70741773      21.14301402     -54.91778789      -1.77590072      10.28307898     -15.76886843
Sb      -0.21520057      29.54604223      49.04569503      -4.46402155     -24.59697278     -14.06469089      -1.43490415      -5.16283829      -3.40384583
Sb       6.99056154       4.86599493      45.74758993     452.53949813    -498.79470746    -387.70714433       0.60228773       2.48510473      -2.87752822
Sb      -1.18981690      22.24829738      39.21678832      -0.69984342      39.18210843     -84.78288442       5.50490041      -1.57584240     -29.07965602
Sb       3.65379096      24.95366212      44.42762735       2.71874607     -17.80281511     -47.77600091       5.67463009      -9.75829205      -9.75503432
Sb      -0.49241158      20.59512058      49.66535928     -28.95479180     -20.40730443       7.04240268       4.71495862       3.13741252      -5.23968750
Sb       0.60371569      26.71920792      49.04295525     -20.39082499      22.04527091     -49.55435250      -8.02156256       0.72996474     -13.92269913
Sb       6.88214714      29.35491839      42.22835814     -14.65342773      -9.32469146     -23.15131423       5.75286883      -2.57670085      12.61480341
Sb      12.07623321      18.94965674      41.38905918      53.80757585      22.13771217     -67.48609937      -5.30744143       1.70622853      -0.85505029
Sb       8.76211533      14.57707975      47.80244808      31.01934744       4.30437746      -8.71204350       1.94941598     -22.00356264       1.15713150
Sb      11.39712996      18.65989360      51.90548611      24.58753047       6.59707276     -13.04338826       7.71358089      -4.44172602       6.10985532
Sb       7.58335134      21.76595083      41.70110060     -20.94297333      23.34862666     -12.09500685     -63.06380538      58.68644421     -65.00519918
Sb     -11.86529494      19.17216978      41.02161620    -374.95398351     -64.28064501     -87.69731651     146.21759947     -58.82175464      66.37069456
Sb      10.60373586      36.38666052      44.41727677       9.50895547     114.29437971     -62.64260809     -20.39871011       9.97976553      -3.17863386
Sb      13.26634452      29.21331780      53.11200932      67.65918587      46.18113408     -11.28295779       2.47380189      -9.29425706     -18.45262224
Na      10.85402081      15.38033266      51.85099611     -14.28670769       7.94286002     -21.64005196      -6.44505257      -2.27743205      -4.72874231
Na      -2.12114740      22.32268134      61.98094986     -13.54362559      -3.11070976      -9.54709274       0.31112333      -0.25174915       0.20185224
Na       4.11977140      13.21142009      62.89187603     -27.58510546       0.25558286       6.19762033       2.23457357       1.65405411      -0.77849106
Na     -14.81688119      18.98132700      57.93390769     -58.91566060     -12.85993532      18.28437391      -4.35219573      -2.20538895      22.41618484
Na      32.66325299      53.45020031      80.40523858      13.51586070      49.03654182      46.23224869      -1.84305749      -1.18637745      -0.53169693
Na       5.55946753      15.25197510      54.45607585      -1.67119352      -5.97379675     -16.45541502       0.80558460       0.93018697      -0.99679411
Na       4.56875538      13.98973113      68.06153477      26.04572376     -10.47766009       1.59857688       0.72435494       0.16234462       0.49924587
Na       1.90051345       7.09678419      68.53596609      -8.22861398     -18.46554520       8.70811424       2.12696225      -0.27397692       5.79127510
Na      12.24501447      -4.32046214      60.93748114      31.56333418     -55.43146420     -11.64746560      -1.24074286       0.93098262      -4.84034023
Na      -3.63152981      25.70091764      65.08613400      -5.43758996      -0.62423006       1.08880441       1.03478356       3.83463890       4.56067346
Na      -2.87763384      16.37589044      73.85127284       3.40566189       7.60351134      12.30204236       0.95957417       1.61802663      -0.84859641
Na       5.13387186      18.82594188      63.78067260       4.10242674      -0.71160209       8.87470178     -21.91858304      -0.25865699      12.15464654
Na      67.31272575     -30.90366203    -104.24762016     200.80738452     -69.96939541    -242.69504598      -3.30484105      -4.92781835       1.25724533
Na       2.70265675      23.43946603      71.02098830      -3.19887859      -2.95768981       9.04148441      -1.68886085      -0.11178324       1.54872033
Na       7.20092270      28.17626621      70.97475524       4.16276774      -1.62970171       9.36082617      -0.40433366       1.63183446       1.68226047
Na      37.73521827      -4.05676496      84.30822197      13.64965491     -49.01230325      54.35983912     -10.83203348      -9.02758719      33.09630095
Na      -0.02244060      29.79880250      58.74812360      -8.37349086       6.63420203      11.63859984      11.81421597       1.69693757      12.20923809
Na      -4.96625682      19.55959371      69.74048874      -6.39357990      -8.51632453      39.13582934       1.02794350       1.13469537       0.65677926
Na      87.76156867       6.22667876      74.53141216     139.07932248     -33.95881084       7.82161634       4.84558382      16.27033300       5.12792110
Na     -12.00190966       5.94865315      88.48596388      -2.23592213      -1.43443080       3.24929541       0.08867776       1.39597958      -0.92648488
Na      -4.32320519      41.74643976      94.90304961      -1.42635303       1.50244704       9.13144024       0.59399647      -0.95934349      -0.80158785
Na     -10.05781474      24.96513045      94.45013174     -31.54424813      -5.90765321       5.85016244       0.90856273       0.62272697       0.03101161
Na     -11.17571456       8.00797837      23.88457677     -41.30131506     -11.88949123     -51.20535907      -3.01720847       2.71028585      -4.53115376
Na      10.55926963      40.98417289      86.98617706       1.73901646      -4.20813208      -0.21200771       2.19660094       0.07862030       0.22350317
Na       9.23383974      18.48046455      57.64172955      18.82742866     -21.13077730       2.14249922      13.87820468      -4.27822985      17.04430296
Na       3.48006282       9.87410821      18.25259993     -44.75065439       9.86413017     -79.60233612     -73.82638432     116.48331063       6.83379581
Na      11.09859764      15.27139801      64.05181344     -29.48188214     -19.23099034      29.73411465     -53.87860845     -17.24663764      14.37547018
Na       6.04590399      17.77679944      60.61256734      -2.58292413       6.16694068      -2.54824193       5.88630636       5.06207366       1.66957503
Na      -7.46219324      36.64220606      53.99807801     -22.88050278      -9.41927529      -8.87465614      17.31164817      19.70490883       1.52617716
Na      12.20622146      20.18461787      72.10940750       1.72812467      -2.67950264       7.36790666       0.05530609       1.19775428      -0.68867351
Na       9.97505587      18.10504614      65.87247824      -1.26775499      -9.75082791      -2.52489741       5.71762010      14.84288297      10.33979090
Na      12.42462960      13.98452564      75.89608167      -3.35472676       6.40870981       9.60871115       6.23920234       2.07448747       0.38245676
Na       8.78363433      26.15885318      66.85864135      10.20917024      -4.86291989      -0.35640567       0.80352007      -0.26833059      -3.85009215
Na       7.78773409      15.80235183      65.33730499      -2.44964232     -12.20725737     -11.02165737      -0.53749030       2.78208627      10.51202658
Na       5.05587095      22.26816808      70.10736242      -2.18714335     -16.51993859       1.19388645       2.26927948      -2.25806531       0.98285570
Na      12.80376728      19.57301418      66.26553861      26.27770938       2.64788247       7.05233055       0.69376940      -6.75040525       7.89001828
Na      -4.90376440      32.78449702      37.16718808       4.10777285     -48.98710108     -34.25658149      -5.60857981       2.24717387      -2.11649188
Na      25.14189887      36.97655383      58.04656409      25.98280791      20.89092814       7.08165983       6.38853585       2.34825234      -2.32623206
Na      11.66992290      28.06308803      68.61834018      -8.82624466       4.15566730      25.02557997      -0.39392173      -1.51323073      -5.76584288
Na       4.55591590      23.23436193      53.51820835      -0.67717612      -5.49143909     -14.17931202      -0.47560443       0.26706222       0.26749977
Na      30.45015801      48.03310770      67.55676835      40.86737864      16.64175097      20.06943562      -7.79217040       1.65225924       8.16581802
Na      11.26651250      43.27462865      53.14458318      -4.78179150      -7.90975456      21.62923072       6.16833938      -2.36009399       3.48064780
Na       8.25715549      23.62341970      61.10986997      16.40306958     -22.52773082       9.17558797       3.21028895     -14.22734655       3.44865226
Na      15.56508511      26.07112101      66.78769370     -17.67159021      10.15427154     -15.67387592       2.81334708      -7.90652395      -3.92020282
Na      12.87453737      25.53387665      71.31359615      14.63210638      11.52544905      -0.11080616       1.00190261       2.86926020      -0.00378953
Na       8.06639417      20.22852899      66.83633434      21.66505506       5.37203593     -11.00843629      -2.05358791       1.04357634       2.38231360
Na       8.08674444      19.62664946      64.58105118      24.31704615     -60.20414151      -0.17395123      11.73034307       4.32611079      -8.90262187
Na       2.83163450      17.13426373      57.66451915      -2.61664389     -15.43767624     -27.98191649       6.05063441       1.09702421     -13.04114150
S        7.43171558      10.43685451      55.01063467       9.11788970     -38.18197089       6.87597103       3.92238726       1.25885929       1.16113448
S        1.72789279      14.42166509      38.79297434      45.81170778       8.31640612     -38.82138087      37.90061202      16.27519354      53.06307839
S        2.30792561      26.39989958      57.20689038      -1.36349534      13.21022714       0.79335471       1.54240609      -6.28770755      -2.73675602
S        3.92066338      15.94463007      62.53194660     -15.76471938      -9.69426434       3.49766266       3.46275087      -0.85499864      -2.81659833
S        6.10507547      16.41663624      49.54301798       7.67218084       5.74362987     -11.09072404      -1.60056269      -1.24223289       6.98426447
S       14.55567757     -67.44585100     -60.36385764     -64.05119281    -260.07178309    -237.33104397      -5.92913214     -19.04303913      -4.44857313
S        1.29845521      20.08050502      61.91165912       5.80334445      -0.24616333      11.12853562       0.62696434       0.21417421      -0.50632185
S      -11.83104599      12.58746973      50.58117881     -27.79873844     -13.38976370     -16.43694913      -2.18522071       1.08794270       0.53280805
S       -0.06273239      11.36002698      65.23294329       3.58350131      -3.16808682      20.96395118       3.63171309      -9.44847304      15.92655607
S     -370.38656665     169.29058840      97.93177883    -309.01026411      63.88490233     -21.48174052      -0.78195164       0.86141660       0.26742698
S        6.45874846      19.20998092      62.79269127       1.62906314       4.60686333      31.99384622       1.93821618     -22.30486269      -5.52957721
S       23.20976476     -95.44948856     106.42522987     181.02191046    -843.88403440     446.00667023      11.38586721      10.13774194     -18.30550398
S        7.20799038      18.05292721      64.06817885     -13.79026293     -10.81556931     -14.50723993     -23.10274583     -31.27172703     -11.73782361
S        6.81370385      17.89197910      68.31552880     -12.26745496      -8.13469104       1.20888454       1.04795430       2.02577545       5.45148176
S       -2.88160988      12.86331582      65.27782480     -16.07058098     -10.55645569       5.81598483       6.51912990      -0.58813017     -10.32469680
S        2.61088844      17.97347331      72.53870563      -6.14477280     -14.25148243      12.47928775      -0.32403677      -0.22837502       0.56336212
S       -4.65703015      15.43960034      50.84948339       1.61774564       3.09779037     -39.65609742       2.89258680       0.55597881      -1.26581902
S       -3.31745983      29.82999196      64.41188457      -4.94502437       4.64302399       6.37894306      27.67846156      -9.38458557      -7.42924042
S       -0.24518622      30.25746524      51.13104199       0.84431724       6.46909121     -10.70960477       0.93891057       0.25399607      -0.18877492
S        5.02944849      22.12676825      62.65834512       2.17788230      13.26014920      13.26529935      -4.02926883      12.68540125      -0.13673625
S        5.27826387      20.14701458      56.46856922      10.84025408     -10.77025918     -28.69056571      -1.80287884      -1.98896876       0.21688495
S        3.08190550      27.15581642      64.73500633       2.86828772     -10.59740431      13.07144976       0.92582688      -0.13551074      -1.33056785
S        2.19404680      28.18959302      57.21280023      -0.82743420      12.63803893       4.10842887       0.00156746       5.10513675       0.11091821
S        5.16808998      25.89853849      64.15662906      12.05353797       1.48610466      13.22319213      -0.50528805       0.07799504       0.65035924
S       -2.62069211      10.97155915      53.63996401     -49.94466085      -1.96848467       7.99648598     -27.70332251      14.76018448      16.82355572
S       47.23676235      67.54164594     295.88748839     -14.06635160       5.42476605      76.15259476      10.74009996     -30.00535839      21.41760377
S        6.51609136      20.06718070      71.42152475       2.25690027      -1.67534727       7.00255014      -0.41781674       0.49995566      -0.18789332
S       10.96667505      18.14641606      73.04610271       8.59981024     -10.71651036      -2.03576994       0.47497025       3.54970637      -3.70611433
S        6.47798302      65.88219397      40.40865852      83.82711504       1.34815360     -28.66127829      69.35787708      41.01743412     -58.16716562
S      -21.79733852      40.81187380      83.06645055     -96.68196427     155.25543802     104.42160543       7.57589232      -3.34643975       0.76493886
S       45.32383704     -72.29594172     112.22398726      13.86063152      -4.91582523     -17.85978761       0.53514255       0.18732142      -2.81377133
S      -30.30786954      43.26303145     -46.00970842      -2.79827230      -7.75151699       4.67444104       4.63846788       0.53061333      -0.05926996
S        8.83641221      18.08828640      53.14518381     -40.22787450       5.58005355     -17.01828833      -6.12013546       8.81480788      12.92570594
S        9.36890407      17.90135579      60.78009964      17.41090454      -3.09473641      19.21103528     126.12344884     -68.48663645      19.35072675
S       16.83229142      16.88576111      53.06255990       2.29634421     -22.11344284      -9.08405149      -4.51976891      -0.40490592       4.74226230
S       14.01465012      15.74522816      61.82686960      -1.35094114      -4.27694114     -41.26064591    -166.22359539    -209.83558754    -132.75011550
S       11.61617464      16.35344025      61.38038694      -2.27376713     -23.55723080     -39.09209364      80.96564356     123.63454032     -21.51175918
S       19.46623356      13.66679222      63.54818681       4.74449478      -6.93858277      -3.03481019      -5.96851348     -14.26552497      14.10607315
S        7.03901751      17.92454717      58.42483717      -9.54399716      -6.32664906     -11.64225306     -17.19995484      -5.15656797     -32.34466133
S       10.59099614      17.44081348      62.33287774       5.29847345      -7.76768874      32.65958634      37.23488364      -9.51643235      74.97849271
S        9.16860931      14.86104324      64.87964979     -13.64747353      -8.40118472      13.24162464     -11.06790506     -38.63957812      10.93992066
S       11.78897381      23.63160232      71.43262234       5.55441828      16.83485471      11.85863367       0.90408622      -1.94052134      -3.59336645
S       15.47727118      16.80178567      64.37257563       7.91090636      -0.52669516     -35.39296615     -26.80958169       6.32322839    -126.71372460
S       15.01389904      20.04046470      74.86386048       4.91063771      13.34569883      10.16387188      -1.87792707      -1.43757828      -0.62221029
S       16.95603960      15.89778225      68.29241079      19.37941988      13.89670454      -0.76376413     -24.19998664      10.64051613      20.12065411
S        8.78780866      26.67758003      68.84920155      -8.43259269      32.56622048      11.31140379       1.31698807       0.39168487       4.06179142
S       14.00391462      26.33189049      62.75194294       9.79411496      11.27179176     -13.84028600      -4.23717078       2.40782295       1.43531545
S      -18.28579544      34.86443703      77.50550039    -131.88020206     121.68943475      34.35733826      -4.10199208      -3.91743372      -1.48344751
S       10.21000984      32.57600454      53.24887378      -6.43834839      32.27696850       3.24153184       8.58331370      -4.11780308      -7.12073673
S       40.58690115      87.05427441      89.09269727      43.58238458     147.25027227      77.46981878       3.87070800       3.64497504      -7.13187253
S       94.13430094     274.04207253    -119.64908685     324.43491387     289.05282388    -719.44883363     -12.04326217      -4.37841577       7.25509379
S      -14.86916304     658.67702309    -105.05539421    -180.68630072    1802.54086036    -434.42551030      27.75067614      15.80141575      58.42634290
S     -226.31858779     105.87988451     113.52151070    -618.70237641     222.60643264     227.37720785     -23.22669360      -4.71348339      -3.78753705
S      -62.68624122     -27.70170567     146.19622362     253.73378988    -257.77017436    -136.54848411      13.61963352     -35.42746074      27.14610948
S      123.80785593    -304.81776636      47.33138118     313.56057060    -830.70198053    -124.48830798     -92.10520536      -8.38083479     -14.52048774
S      -17.57043772       9.83061942     114.32692060     -45.41815535     -33.37259397     143.84057483       8.16079244       5.68368778      -4.43971642
S      -11.79993733      24.91327184      76.20999520     -20.90291644       7.57516734      72.49725117       0.01816943      -0.42220779      -0.71253168
S        6.96850680      25.12323379      71.60460493      -0.11627649      -8.79121405       1.56621878      -0.23742145      -0.04035579      -0.91129685
S       -2.88718877      25.39684470      68.27588892     -15.79675637      -7.33742140      19.64773109      -0.57541655       0.59143031      -0.85844687
S       43.28353669     -15.21081254     117.10757813      67.67937967     -29.36861228      87.73627761      14.66814047       1.26728904      -0.76284029
S       -4.21202349      30.99850402      64.99206452     -10.40255860      -0.93781450     -22.38616302     -19.63579823      17.00514378       2.50802329
S        3.84688923      35.98970921      63.41130150     -18.40265050      31.29977103       6.41274001       1.32120795      -1.82155383       2.10460255
S        3.53673243      23.81001585     116.58418203     -49.45173713      10.37829696     102.40209927       0.56604306      -0.01677069       0.73788522
S       11.05562105      23.27985847      73.07754460      -1.36606535       0.90714581       7.23802631       9.87506044       0.53333939       2.81951868
Sb       2.16644765      10.27520987      71.04228105      42.07629001     -38.92571710     -31.10470651      -3.49283621       4.28872780      -7.30982586
Sb       4.51247247      21.72279276      60.53396038      19.68670847      58.85540112     -14.38269735       1.07161291      -3.50544359       0.70655435
Sb      -0.06279695      28.28263155      67.72373111     -10.09573006      -0.58049533       7.83240790       0.44931977      -0.19286453      -0.96408713
Sb       2.99898066      19.14703222      66.21780536     -29.91856115      10.07025914     -20.94110935       7.28872369      -0.92054797      -7.28150566
Sb       1.66043868      22.35409501      56.55203527      36.22753212       7.37100290       4.09701332      -0.78484205      -0.25693814       0.61940489
Sb       3.10367947      25.64231388      60.13659326      -3.55257942      -5.44066588       7.90204366       9.58016980      -5.01612760      -4.03555219
Sb      -2.74795149      20.40236276      59.74067522      -8.21869053      12.96006204       2.69128767       1.97872784       2.72738870       1.11303636
Sb       4.46126082      58.25352438      55.00500732     -17.75194519      38.08632292     -28.88004296      -2.66015178      -1.34628595       0.92779171
Sb       7.88786478      25.41018810      60.33893101      30.71143674     -31.56940166      47.50349657       2.05521718      27.44696479     -18.72760148
Sb      11.91802022      18.32353907      60.98156465      52.58430348     -21.75505840     -16.36447123     106.77871751    -127.17221656     -72.38346076
Sb       8.26547138      17.38608503      62.11910595      53.98543636      35.12660032     -22.42756840     109.49662317      22.33921833      94.93799354
Sb      10.09337298      16.27195497      70.10016384     -36.28385820     -22.30385334      31.49528828       4.52882862      -0.18773718      -4.28998030
Sb       7.41757884      19.57527807      55.59103527     -62.25740883     -60.61653425     -21.90226544      -5.54703711      37.92982686     -22.48440533
Sb      55.72675309      44.86579979      64.23289338     340.62102661     187.63309924     111.15429495     -12.63471198       1.05908814       0.95844550
Sb       8.74301756      19.57325950      62.21741854      42.71881799     -36.61042021     -39.55584936      42.86885247     -86.02048738     -11.32271264
Sb       6.72541675      24.33795190      66.92973466     -73.50074179       7.69888816    -104.13950878      -0.91401372       0.83478258      -0.45428075
Na      26.67945254       3.00237583      25.95561617      -1.84439610      -4.98358075      -5.48831150      -4.21451138       3.24593813      11.41361520
Na      15.74980000      14.76063847      33.14739385      -3.19305567       2.34417895      -0.77118757      -0.27280227       0.34072072      -0.05179196
Na      18.99192927      -0.74660573      28.60379642      -2.87101015      -0.76300560     -17.04999152       0.30554268      -1.45534052      -0.12382377
Na      13.16473008       2.31138342      32.37009081       0.06812448      -2.05167899       1.14054581       2.01481678       6.36154013     -12.10927787
Na      28.18817073      15.13486906      29.79331873      -1.62304802       2.50499624       4.92904699       0.54765728      -2.31976162       1.07229590
Na      18.48994615       1.28438987      26.84044441       4.02535741     -11.74761995      -7.92499485       4.29833588      -8.14381153      -7.59601353
Na      20.83264153      -0.69842392      32.27698849       5.33873826      -1.12827047      -5.33029236       0.49623668       5.71240657       7.71073672
Na      15.99598280       1.45374008      40.69254932      -4.12319628       2.09504392      -1.70050832       0.83171753       0.23445438      -0.01691273
Na      10.90598726      -0.69683146      43.78363203      -4.20037727      -4.06046931      15.36325910       2.70207356       0.90958610       1.05509700
Na      13.00194029       2.38862494      40.83652432       7.43353824       1.06661749      -0.81421577       0.28033456       9.44904853     -16.52529859
Na      10.78760702       1.04219731      41.66600402       0.99026472       1.91805624      -2.02879074      -1.55779981      -5.77678226      -7.21836859
Na      14.44770322       5.69901553      36.12611030      -5.05944208       4.86062077      -2.27629010       8.91210929       3.86248372      -5.18340794
Na      27.40148144      11.71105519      27.39272214      -2.31796115       0.20341770      -6.91788303      -1.47626642       0.81308562      -0.02023687
Na      18.82337387       7.58637537      35.61278406      -2.62356074      10.35678080       3.30754789      -0.94007055       2.71779784      -0.92107802
Na      14.53902324       8.79931753      30.27250481      -0.18981362      -2.89953193       2.98847166       1.26383916      -1.47025909      -0.68156582
Na      29.68593646      10.77830164      28.73546301      -3.02412669       1.80682289     -14.03813980       0.88612495      -1.90763464      -0.00268694
Na      32.48113415      13.93155727      26.24361038      -2.90082670      13.99158024      -3.38173439       0.05205593      -0.97819172       1.28869325
Na      18.24283028       9.53790263      27.52539810      -6.25202928      -4.50651990       6.51610198      -1.47230732      -3.76112366       0.03381460
Na      26.56725196      13.22343284      37.12097275      -7.60597353       1.87628360      -5.79539717     -14.64314012     -15.89077872       4.48014724
Na      19.90487718       7.02154220      39.63370813      21.32080526     -37.44927420     -54.91682834       5.80027090     -42.07405839     -33.84081097
Na      16.89528640       7.05895045      36.67444849      -1.38197989       2.37587010      -2.49492513      -5.09996612       3.32278961      -1.68790638
Na      32.05072727      13.19834831      44.13488486      19.76552608      -6.11148495      21.67631311     -10.80367124     -12.78606354      -5.42512958
Na      29.48602774       7.72506000      37.21217406       1.57940275      -0.13865439      -7.07640727      -4.65959841       0.86676098       5.89575419
Na      17.91348607      11.56616934      34.63618520       3.76957745       0.50879808      -1.99535087      -0.07655175      -1.72473889      -0.05695722
Na      20.91430139       2.71962561      25.92719878      -7.19338986       7.03285366       3.38105104      -1.10338470       0.39503722       3.83521101
Na      25.97456222      14.38888836      32.21234849       5.10135122       7.23544074      -1.31001547       0.52615050       4.61789265       1.67194346
Na      26.18909074       0.21345042      28.61599150       7.78638851      -8.12567206       3.81222303      -6.50901598     -21.22375350      -0.19068287
Na      20.87159044       4.28707000      31.26514748       1.74877052       6.60163831      -9.29553554      -0.13765479      -0.74428505      -0.15748023
Na      18.96585062      14.65650640      31.78629769       0.60118032       0.33476043       1.39351133       0.64251359       1.33113263      -0.36861204
Na      22.63889386       3.90801141      39.71317569       9.86076034     -11.27639315       5.33652159      -3.12193099      -3.88126988      -5.13777460
Na      23.80601824       5.09395406      33.36939004       2.69657887       6.10415466       9.25630289       3.59553870      -3.38783829       1.12024968
Na      24.26269370       2.49278113      43.41813180       1.07179789       2.51813459       1.51378264      -3.25792983      -1.84423641       2.22523899
Na      24.10842726      13.04458843      33.87560898       2.55932407      -0.48576922      -4.27562716       2.64659587       1.28464603       1.42476865
Na      19.56009709       3.16200388      33.81204862      -1.11820538      -5.86496769       8.50151091      11.52780385     -14.00075968      -9.21336840
Na      31.80121091      20.47488133      39.44214065       0.93494599     -13.48548677     -12.28549548     -11.91892521     -34.29643933      23.78856490
Na      28.86734451       4.91697506      34.33739824      17.81335431       0.81137433      -6.93702778      13.90520552      19.74986899       8.80412622
Na      21.08391828      11.35863193      28.89179157      -2.62370403       1.61122936      -1.06855390      -1.25700878      -1.86664441      -2.91418186
Na      25.55145803       7.04908636      38.77170353       1.68658923      -0.86026614      18.80552000       0.83744409       1.25944803       0.66221150
Na      26.02131824       6.83564938      28.76540372      -7.81404690       7.07678985      -1.47788445      -0.53492818      -0.58735134      -0.61428358
Na      15.67344000      -0.11820174      24.95817208      -2.77149847      -3.95427815     -10.86642958       9.52596329     -14.54771992       5.10039585
Na      17.80294757       7.55549171      25.61605444      -8.31169976      -0.26893726      -2.00698382       1.84047692      -0.72090446       5.98170350
Na      24.60885628       9.57021789      25.93980476       1.59664071       2.18058627      -5.05234748       2.09463468       2.15903021      -1.06799462
Na      22.20366529      12.15452595      35.08749159       7.14047514       4.00077775       8.34503186      10.04244895      -8.63028793       1.42916276
Na      23.56017801      10.36867342      40.93667624      -3.77613631       9.81840562      -5.41885511      -0.51403669      -0.80197005       2.34180170
Na      20.93568013       5.43506337      39.70465217     -12.31010577       1.93267752       5.79510305      -6.93530466       0.24946255     -23.10066246
Na      18.80177173      10.10011173      40.56979414       4.75588709      -2.61843256       0.35643069       7.08941139      -1.60684109       0.89570980
Na      21.71597598       5.04801246      34.18143897      -0.39653154       0.56678127       2.17934319       0.57358058      -5.44911241       1.31598439
Na      28.03204363      12.19341763      33.46096637      -5.60066888      -0.73078195      -1.04815995       1.60416589       0.15610734       1.34197032
S       18.60280043      -4.23976356      17.72468601      -2.53978035       1.16075155     -38.64381287       2.14287651       3.65894889      -3.02692050
S       16.86858556       6.02096953      33.99324889      -3.04113754       2.69089857       6.07363629      -2.46848221       3.24962403      -3.26079770
S       27.45776720       4.43571742      29.32540867      13.59825221      -0.10263036      16.65229283     -12.87683502       2.80459079      -0.63478988
S       18.09672266       3.19869938      35.93575988     -20.42017460     -10.55785978       1.96438434      -7.14965544     -22.16836789      -0.25664878
S       20.01492701       1.39322997      29.31730254       5.59588608      -6.37809875      -4.92957261       0.21719969       1.20574554       0.49609861
S       17.77978883       4.25725857      33.68346481       1.16208117       3.47666534      15.86190713       5.07577467      -1.32484381      17.18990309
S       17.40355043       7.99610011      29.99458557       3.06817111       5.97540120      -1.55635923       0.19582033      -0.61864096      -1.31790324
S       15.59903088       1.54117757      31.82004511      -7.05611664      -4.93899338      -4.33590357      -2.56058695      -0.44704644      -1.22912211
S       12.83627098       1.65534579      34.04100033       0.73326010      -5.19826424     -14.60753254      -4.23176403     -10.45513236      13.34337533
S       17.20767763       6.76329018      39.17274708      12.66166057       7.18256772     -19.04849697      11.21561198       1.76252016      -1.17213985
S       19.66752115       4.06434782      35.61312627      17.83637422      -7.59361280      -7.72310278      40.32671848       5.62391954     -33.78172712
S       19.82809246       2.04754779      39.85509124       7.13940094      -0.48322327      -0.55146846       4.47763189       0.46959541      -9.13339744
S       20.27541185       2.32988290      36.28731758     -10.05255059     -39.08394826     -19.85924457      -4.38649801    -417.38365855    -272.14498209
S       18.49225798       5.96273228      37.50099599     -15.77170818       0.18954953      16.71880661       5.21077748      -2.57223001       6.66709947
S       15.87509550       1.41123418      36.04643078      -1.69094289     -11.53059947      -5.09398452       5.24765733       1.92381164       1.31878555
S       14.23107558       0.22600406      38.04781945      -4.98627025      -7.79784393      -4.20905008      -2.66966588       1.18899329      -2.40171953
S       15.78367290       9.52224466      26.06060082       6.99323743       4.59371588      -5.86002912       0.19668695       0.99424406      -1.41127330
S       15.73755327      12.30916413      33.84148712      -2.61291782      -0.93456621      -1.73512163      -0.01089349       0.45489143      -0.57883099
S       19.47351012      11.02233496      27.29600708      12.44812452     -17.62963162      -7.17434574       3.36232337       5.92302609      -3.05696025
S       20.74246824       9.33706826      30.93013697      19.46064222      -6.84103690     -28.61737978      -6.67734554     -10.99036084      -7.37289003
S       19.79423051       7.94176632      29.71757954       6.50703805      -6.64138446      -5.38871012      -0.39425822      -1.46624209      -2.60322716
S       19.58725899      12.68478578      33.16132627       2.58651779       9.69118473      -3.93426191      -1.41097944      -1.30647206      -5.14222769
S       16.50406863       8.55758866      28.13744708     -11.55265341     -11.48882131      -6.72336524      -0.83860351       2.72446315       4.31765426
S       17.96221728       6.43662772      32.39451489       3.13446386     -17.41606814      -1.94627428       1.78801805      -3.59336111       4.83980729
S       14.00250111      16.75103901      42.63823120     -40.76346211      25.94246356       2.29606299      -0.36545967      -0.61265846       5.32706043
S       18.29384695      12.10658463      39.17818670      17.92518809      13.11783483      -6.42714019      -2.99726616       2.57047878       1.34110520
S       22.22770344      12.16482761      30.40545585      12.98203803      -4.50629611      -8.95148813       3.13047417       1.48654462       4.49003801
S       19.61411870       9.70900729      42.92255223     -12.07801304      -3.34429087       6.33045468     -11.60699495      12.37356157      10.33766311
S       18.51301857      10.08246251      32.43501371     -15.42137304       5.78841989      19.26633109      -1.85877123      -6.14057391      27.94937215
S       19.92999724      12.91597636      38.84307852      -1.13711167       0.90539678      -4.05834392     -13.65027177       9.68219562      -4.45393854
S       12.80761174      12.23428709      37.02223181      -3.41070458      -8.08012250      -1.24437525      -4.18651494       4.13107027       4.41194336
S       20.75390177       9.44168624      41.62682386      -4.02635226      16.60371370       1.35802211       1.41899652      -1.96523062      -7.41820184
S       22.54971084      -0.10584788      28.09447302      -6.14834818       1.74956216      -4.16971985      -0.26384507       1.25976699       0.26305351
S       23.16576739       6.75529752      32.02810146      -0.98341777       4.26965531      -6.37525646      -0.66475096       3.60264487      -2.33613555
S       34.34492604      13.50951324      21.90548794      43.29553524     -92.18329991    -193.98359585       7.00699930       5.38962326       0.55919752
S       28.32977127       3.66161831      33.37092290       5.37996870      25.35902328     -21.57808235      10.51069667      -7.85088982     -35.43525993
S       26.51766536       2.59736790      28.58646065       9.55515560      15.07404896       0.54154321       2.32516979      34.91897316      -1.29605764
S       21.75368102      10.43398046      31.70880317      -9.14002624      12.10584466     -14.35865719       9.69275035      10.62175454       6.32331747
S       20.47591522      -1.74653723      30.58935846      -4.42116252     -26.72192753       5.44521013      -1.73200087      -3.33284861      -7.42056574
S       24.17561352       0.68176902      29.79960137       6.73481232     -10.44553156     -15.88043513      -0.24156250      -1.03468356      -2.87105848
S       22.00625710       2.24507112      35.33707485       1.87669257       4.10239437      -6.38923242     -32.93690930      49.62810000     -14.72527279
S       24.50667782       2.32282651      41.07834473       5.76742287      13.66165056      -2.49973866      -4.37433842      -2.45250618      -1.56991605
S       16.70499871      10.08943236      38.12052807      -9.96484638      -3.00300006      17.30669952      -7.61635183      -2.07641004      -9.79450525
S       22.39488399      -1.39706858      37.24574278      -9.94062481      -4.04684012      -5.08568471      -2.47172369       1.89585877       0.25695893
S       25.85343766       1.81025517      35.92781952      -4.54558781      -4.81681957       5.24103631      -2.78110043       0.88401146       6.53171096
S       27.39439786       6.02052063      36.21055831      -2.24493844      -1.59054912       6.39737560       2.88893893      -0.01816962       1.40468858
S       23.71306626       2.07569257      36.41755904       4.26498767      -1.99026869       2.95993943      10.38752810      -6.91416978       8.96292928
S       24.38888710       1.89193358      38.86849056      -6.10342665       4.16250499       8.46769731     -12.06458154      -9.72613794     -13.26506509
S       22.93066095       8.61715386      26.79615066      -0.68606607      -3.35850961      -5.38795385      -1.72609227      -2.07758529       0.59942321
S       24.32867662      13.77865501      28.65522534       0.45521196       0.01576657      -2.08319788       0.23127259      -1.66671140      -1.13944991
S       25.93825883      14.05133590      25.63757496      -1.31293166       1.13062505      -5.90980697      -1.26004244      -0.04375133       1.18316112
S       26.35560728       6.43760754      31.02384805      -2.40738731     -11.65891773      -6.38232154      -0.40680906       1.65509467       2.39297663
S       27.94682164       8.29895331      29.86478676       3.55761439       1.17009980       4.57168941      -1.28566008       0.74952538       0.62725475
S       26.34617815      12.93885285      29.88388203      -5.40268446       1.61615576       1.70427960       0.38156184      -2.82917179      -1.83044802
S       24.66674687      12.86880817      26.89886655       0.32426448       1.24441769      -7.79948347       0.52888033       0.19091654      -0.94771998
S       17.78096703       2.59471531      27.90780071      -1.29993418      -1.91792014     -14.69926051      13.04480225      16.82839049      -6.11202203
S       21.09067176      10.45983255      36.88765048     -76.06365550      83.57475084     -70.75475347      -4.35473372      -3.07067106      -1.50146747
S       20.62953497      11.85563847      39.89940656     -14.23768072      -5.78542970      -9.25335581       3.77277542     -10.12899180      11.60986894
S       25.39351698      15.69724858      36.23166398      18.50401953     -11.58357687       2.78705921     -22.01448935     -46.51362234       9.67860933
S       26.18602923      11.47355530      41.64912801     -31.71277793      29.17405840      27.60811694      -0.46189132      -6.70332887      35.03790892
S       24.76142862       9.85270356      37.13883282     -19.55840729      -3.82421805      -9.09546940       1.78096733      -1.77786796      -2.13438890
S       27.28085890      14.73436260      39.79613733      -9.41570235      15.24049563     -20.64465788       8.21381010       7.98129470     -40.14606128
S       25.04528418      11.65634542      35.68602201       1.00881252       6.90798181       8.69351851       0.59756179      -1.28911551      -0.37192469
S       23.67879510      10.06425454      38.67100348       3.24244883       1.85951302      -8.25463123       0.50201270      -1.47911223      -1.14361809
Sb      14.74507730      -1.00237703      44.20189822      -4.59585443     -16.24322234      19.14134689      -0.99944527       1.02170190      -0.07055943
Sb      17.95226600       2.81546049      31.90958938       2.69525337     -26.36896203      37.90715878      -0.18447339      -1.58780135       2.02839706
Sb      15.06571277      13.81001112      35.93682769      11.15165056       2.27208210       2.30281171       3.42258978       0.75227651      -3.31969383
Sb      17.95411658       2.96100717      38.55199363       3.40223559      -5.38061074     -13.81664479      12.52110649      -5.35316539     -22.50532688
Sb      15.73366137       6.83680627      27.19123851      -4.80889828       0.95448310      -6.04106489      -3.28456794      -6.24563537      -2.66547246
Sb      18.55592805      10.46315620      30.71104348      -3.23245882      18.50414891     -49.20718443      -2.00325578       7.94778896     -25.45381844
Sb      10.79614197       8.77136492      35.86969277     -87.56626700      18.56704028      30.62243927      -1.45292683      17.86689192      15.76162618
Sb      20.39246599      12.94332514      35.05339712      -2.38127937      11.86104221     -16.31329597     -13.65272776       1.76910862       5.07133942
Sb      20.27018121      13.40252451      25.87977124      -4.70482714      -9.05095703      -7.03731935      -8.49413791      -5.35380170     -10.00800392
Sb      24.85819597       3.01156847      31.46482673      -1.49303067      -3.10684504       6.22670923      -0.74143295       3.08588750      -4.92159725
Sb      21.99927775       0.05682441      34.82888729      -5.81264861      20.98211227      13.29436100      -9.13465994       8.66863014       5.88552279
Sb      25.78001637       3.11564034      39.16202102      14.09605272       5.06389062      10.33952528      10.53016350       8.61476976      -1.62314049
Sb      18.92636986      13.98113931      23.74627979     -36.93580645     134.97377704     -63.58402079       7.35219143      -0.59410553      -1.26747292
Sb      26.07165207       8.96843239      31.90575128      11.90926867     -27.58035634      -1.34717494       1.46436131      -1.43631994      -1.29075123
Sb      21.04390018       7.48535106      33.78136600       4.16321742       4.92624109      -9.73794438       0.80889210       6.34774113      -3.34299085
Sb      25.65889926      12.35353580      40.10522035       5.93319222      31.33709644       6.39110518      -9.59670949      37.16809502     -24.88265846
Na      19.86433492       5.87111083      35.13353882      -3.29361578      10.63217746     -25.80109693      -0.67212468       2.33295771      -0.00259093
Na      17.21956684      14.82189836      49.00945736       0.84723753       0.88333270     -27.09835581       0.90236900      -1.90336431     -18.53006714
Na      18.05359022       1.35069240      43.47150948       8.29220384       3.61185782      -9.08286160      -2.77829827       1.55222164       0.06108300
Na      14.40896246       7.57177453      45.41491527     -16.02809342       7.69377917       2.77900598      -2.81247423      -0.53727693      -2.09393523
Na       2.12000954       5.31244348      52.05834749      15.45428500     -35.60366802       5.18054824      25.74551244     -12.53663515     -16.20096186
Na      18.12205235       3.76698734      42.22207431      -0.40529447       2.17736801       0.24750033      -1.11662985      -3.37032000      -1.02745762
Na      14.60607443       3.56658621      49.13826679      -3.88752658       4.34889818       7.66426475       1.88818682       1.55635039      13.12189206
Na       7.30332252      -9.53703346      82.87996040      -8.12055598     -61.11000542     176.63407496       3.69764134      -0.35162076       2.18909486
Na      17.19337258      -0.37787134      54.64519932      -5.94421953      -2.36656701       3.91347825       0.30822932       1.22723186      -0.83678638
Na      13.05237709       2.74277207      53.16156743      81.13101296     -10.48819886      12.07529266      34.21205916     -12.20004212      -0.46943583
Na      13.17226414      -2.58980593      60.24685107      -1.80517878      -3.89157047       6.46352568       2.14198353       1.97285766      -1.11980070
Na      19.03936231       3.97501279      49.29615465       1.95636788       0.88987445      -2.00619083       5.67429870       4.99190605     -10.47617057
Na      28.50259747      12.04884467      43.34645598      -4.01775327     -13.27989201       6.23296866       2.34566016      -2.03342811      -8.08062884
Na      20.53014007       4.81525889      47.20172289       2.97646417       4.16421358      -0.66965962      -1.90355589      -0.91261201       0.71000562
Na      20.78059999       5.74834539      44.61056194      -4.42494000      -3.06835694       5.46163832      -1.34366133       3.62114558      -3.09170150
Na      29.67424789       6.69510371      45.32029150      46.43148323      -6.75362673     -13.10020700      -6.19607673       7.94015312       5.02258845
Na      32.98805161       6.56636547      45.39694514      76.02030827      28.87169297       4.09319867    -214.62796239      91.52740552     287.58326932
Na      18.74181869      13.53372122      41.18986543      -0.56426751       0.13658960       3.34520744      -0.56110865       3.17682095       1.44874415
Na      23.62704632      12.23425586      49.06823313      -7.13004738      -6.18412012       6.97625389      12.00848741      -3.19765532     -11.22213450
Na      19.34049187       8.50842166      58.82237363       6.55282650      -0.15111301       9.17841347      -1.04025551       4.10785936      -3.99711217
Na      18.35095246       7.52787275      53.18004697       0.62510120     -10.06754090      -1.01439719      -8.67895630     -19.11581881      -2.25759496
Na      32.08256339      10.60077692      50.00512063      16.44156761     -26.05786604     -27.19784556       0.40062972      -0.28153012      -1.04089344
Na      26.36697160       9.10008337      53.82357292       0.61015718       2.95135037      -8.66165883       6.91071811      -7.83803615      -5.29481689
Na      17.88826551      12.83455663      48.57139433     -13.71259057       8.89823153      -4.12919170       0.57537119      -1.27384142      -2.16224349
Na      21.51482799       3.55965333      41.87125743     -10.13997963       9.44091576       0.94802933       0.82146019      -4.27379104       1.79246423
Na      26.85683677      12.97296685      49.61639265       1.03084910       0.06522619     -17.80584006     -11.37942479       3.88619548     -20.29178475
Na      25.44735796       1.70418664      45.70856749       1.89360818      -2.67290830       3.44411492       0.84005352      -0.79305737      -0.37642910
Na      23.10205923       1.89166262      44.92124771       4.10095674      -2.20784404      -6.68227644      -9.43419047      38.29008944     -21.40521211
Na      22.42398948      15.49965044      46.09274410      -9.34725414      15.87136235      11.19820144      -3.74159342       1.35372294       0.22633381
Na      26.00999160       4.94616569      54.56369455       6.93123276       7.88083981      -4.55651076       2.72995923       2.57885296       8.67500369
Na      22.38885872       2.81127056      48.01021959       2.47450867      -6.28222276      -5.18071474       0.91139634      -0.72011056      -0.47040246
Na      23.03623406       0.15854899      54.61728256      -7.13325889       0.71815350      -4.22750847      -1.34216118      -5.26470747      -0.78167398
Na      31.66505973      19.95916405      53.58953154       7.77558699      14.36853299      10.70208275       0.36795307       1.58490593       1.20828474
Na      21.32241011       4.35722740      50.48083146       4.32293554       7.33996072       1.27720370      -0.23667710      -2.72703071      -2.29250686
Na      18.55586240      17.18564819      51.99206091      -2.77146563       1.87455972      -6.33097909       6.24460675      -9.72509935      -3.07851714
Na      25.08715921       4.05643481      48.25786056       1.20738671      -4.05264601       1.69125247      -0.14876875      -2.07739487       0.98324341
Na      22.85634361      17.91428421      37.57206778       6.23920635       3.63297771       0.10006806      -3.18297187      -0.51994356       3.49385824
Na      24.75964451       7.30405683      49.04853846       5.56277959      -1.04879653      -0.59206088      -2.73606728      -1.79445107      -2.52462755
Na      24.23720829       7.18462303      44.48540386       3.71469257      -0.61694212       3.02426839       2.05845749      -0.93883264       0.07731576
Na      21.82282593      11.97163818      45.90570900      -4.51969793      17.26701636      -4.62388088     -18.74776551      14.29213800      -0.42265040
Na      22.56069469       7.25636553      45.78433605       0.49888920      -0.69442879      -3.91877017       2.75530105      -7.34301895      -3.72063459
Na      24.71852717      13.42888552      42.08176699       0.58169492      -2.16450192      -9.10963164       4.77794546      -4.53327492      -3.03458119
Na      18.13215577       7.81823840      49.04928454      -2.54166847      -5.00080930       9.51838605      -8.55505498       4.17965341      -2.12177940
Na      24.04326015       9.02869782      57.42024281      -0.10668972      13.88160262      -7.68593024       3.33500902       0.44337193      -9.42179074
Na      24.47830544       6.32686831      50.75185625      -0.51232177       2.19727820      -1.48035953      -0.33317414      -0.67514753       2.10635531
Na      20.26736555       9.87307957      48.62613892      -2.83430804      -3.43446130      -2.80598589       2.28463735       4.81827591       2.93531906
Na      23.42043493       9.68427687      52.79315480      10.44884202      11.41463821      -2.86851340      -1.73880694       2.15650187       4.29641937
Na      24.33145905      15.66344802      47.50652759       8.45818263      18.61304092      -4.98274109      -4.76545474       3.90558708       2.01129649
S       15.47979235       1.68048073      44.23067961       2.73777893      20.33534945       9.93562093      -6.74456506      49.64586048      20.08213755
S       17.89628102       5.50127902      46.80099598       6.39020152      10.14779559     -28.14463529      -0.36057768      -1.65944223      -0.27809935
S       21.12701710       5.62271306      41.27649768       0.80071361       5.14498043       0.75099452       0.83943430       7.98896754      19.61537754
S       21.27626652       1.18771592      46.27207230      -2.41425483     -16.32053651       1.07510845      -2.22505765       0.85645320      -0.68621262
S       19.95421507       3.28869616      43.71198232       0.67283472       8.25152231      -7.80999868      -0.11350441      -2.15476728      -4.82843179
S       20.70179361       3.79869391      45.30106658      -0.71418844       0.69370570     -15.30667779       9.19549368      -3.37939580       1.47838805
S       15.68552008       5.49840801      42.99377861     -22.64676825      -0.36606596     -24.47148350       1.99595630      -3.60113476      17.17127621
S       17.12914033       1.46071798      47.44932257       7.13209488      -7.87974162      -9.78980060      -2.62568999       5.62428951       2.75961301
S       15.37778266       2.36110856      50.99917367      -9.97515107       8.20679900      -3.86121218       0.67479379      -0.64106017      -0.00971860
S       17.82402594       4.21988016      50.58181836       1.57122732      -9.72632863       2.09887142      -8.92556442       2.70104269      13.62443133
S       22.86525834       8.07500714      51.76274607      14.08625218       7.34690902       7.09575758      -0.87277467      -4.86785360      -5.85332977
S       20.93575227      -1.82269777      55.52361934     -11.78743665       3.31874319      -9.22410210      -0.77112539       1.55305831      -3.16909445
S       16.54055035       3.04562999      48.67500450      -2.90252891       4.55666059     -15.13095202       0.17700343      -0.95927062      -2.36579476
S       19.33891117       4.71302758      51.90469429      -1.29404891      -2.87651238       3.42892254      -0.88335817       0.94514248       3.02873337
S       16.29432501       5.59937341      48.71398050     -11.09546273       3.33067360      -6.46219288       4.46071001      -4.55790589       1.37475189
S       15.78384088       4.34883846      51.48383223       6.48833618       2.82835885     -12.48395679       3.44881537       0.19132855      -0.66169893
S       17.58608021       5.72199862      42.05281497       1.13137417     -13.64816659     -10.62962071       1.20097080       6.77459565      -0.05136459
S       15.74872037      10.46832407      47.35050029      -3.82834223     -37.69257684     -12.12601048       1.72389557       1.60561933       3.39599047
S       20.35301364      10.95796456      43.25237917      -1.52550617     -10.88889902      -7.00879409       9.43565815      26.95626722       5.93514993
S       20.24236871       7.39170082      46.26037665       2.43474733      -6.92326847     -11.44132467      -0.41873061      -6.43156122      -6.37755307
S       21.99829205      11.11777660      38.35513597      -5.37632159      -5.45779380      -1.45022090       4.59909225      -6.35870848       3.94800028
S       21.67795938       8.83925358      46.84338356      30.90616639     -20.87669430       0.36986196     -52.50548865      10.92273180     -27.55455740
S       18.50377222      17.54856045      41.05896150      22.89011107      39.44166047       2.54653804      -2.50592650     -82.63791103     -20.59087490
S       19.50534405       6.74604458      49.83775253      14.32810353       9.27104200      -1.57674145       7.02454024      -2.25269786       4.95702194
S       16.92693364       9.99918548      49.41780830      20.05274897      43.00751750      -7.03372052      -0.16187259      -0.41656065      -2.10744523
S       13.60002370       9.81765350      55.57907820     -18.81679454       1.26876735       0.16004662      -2.35973794       0.51023708       3.24577971
S       18.83814307      14.71778749      50.14285226      -0.07794861     -12.34137457       8.21500650      11.43492918      -4.70483468       4.21503889
S       19.18086279       8.94061437      53.35880146     -15.59564511     -21.19437760     -14.67279835       8.70775916      14.57603356       1.51087997
S       20.80630027       8.18037463      50.84669567       3.16028509       5.98127426      -3.87926182       0.02851591      -0.99237013       0.48157667
S       20.00797217      10.55352994      54.18026753      -3.16408708       5.40564259       1.84793052       2.63351409       0.14939658       1.03013081
S       21.83484759      13.38175669      43.11208278      10.57494273      -8.43904624     -25.94352294      -1.80665872     -10.19134614       1.29055277
S       14.63237655       7.07803486      54.24020977     -11.77217318      -0.62112264       0.17872321       0.40211004      -4.07993319       2.58923569
S       28.73301521       8.19964102      39.84694160       4.26604508      -5.01354587      -9.83879469      -4.35929831      -8.15705515      -4.91702829
S       23.33493676       5.40257895      47.63267369       0.68092610      -2.04244165      -2.15693528       1.36304719      -0.17029387      -1.07171677
S       27.69903917       7.27169345      41.67761985     -42.53108467       5.55995845     -58.97086235       1.51193135       0.04760870       3.67849358
S       27.60584583       2.61896522      47.28363129       5.93836887       7.39142108      14.89459427       0.40221569      -2.97770692       0.76851462
S       27.04212029      10.12896651      38.09778490       1.70038212       2.35104415      -1.70316586      -0.01334870      -2.05318467      -2.27525197
S       26.74397520       4.24410559      46.67149106      -5.44476740       2.04986554      13.35093497      -0.30512620       1.23643664       2.54234659
S       22.68999256       5.45434341      43.21629140     -13.77509152       4.51846154     -11.91414450       2.44283125      -2.21605832      -0.30836463
S       24.08955522       1.02865188      47.69234625       1.57615128      -5.91769355      -3.40656700      -2.61582346       2.64456263      -2.56484421
S       19.80607747       0.49108692      45.05110583       1.64534107       1.43267781       7.11310904      -0.31194121       3.34402584       5.40831531
S       23.67208557      12.89220127      55.29369583      -2.65376302      26.14381832      11.64077790      -0.11679484     -19.84732575      -6.86712990
S       22.27469075      12.44668272      50.18578927       5.20979353       4.31797755      -6.08120633     -11.51056967       9.75601261       5.59850489
S       26.70977879      -1.46704487      56.55888387       6.87061685      -6.36074593       3.17749685       5.56107369      14.72099123      -9.10758711
S       26.83729750       5.41863246      49.10219203      12.45491305      -3.05358025     -15.18368110     -11.14926667      -4.56282252     -14.00487311
S       27.03142778       4.64944273      50.63938415     -26.23793908     -19.21862898     -19.74225660     -23.37336844     -12.11779561       4.93636708
S       22.14539922       5.69162059      51.88197386       7.56298019      11.52886376       1.16773607       2.82618541       6.57286481       4.02218912
S       23.78720577       2.50554016      50.10314064      -6.34212793      -3.88385910       2.07567227       0.07158762      -2.36818960      -0.80013295
S       22.70334979       9.34193454      44.87935727       2.23282142      -2.39971778     -11.52076509       4.67236315       2.34941366      -7.30658002
S       24.20144719      14.80250773      45.12021968       6.73476185      16.06177574     -12.04033556       1.53737975      -0.96189369       0.35490774
S       26.04015298      15.12001706      42.94565665     -22.20388706      20.05806721     -20.58331589       2.48606824      -1.73919246       2.66472195
S       25.22159477       7.39062704      46.85267074      -5.12449859     -13.49272058       4.30269718      -7.86817928     -17.25795335      -0.95148258
S       24.39629877       8.70417117      42.79381061     -11.66681840      -0.84462793      -5.41828771      -3.31409382       2.92094262       1.27985510
S       34.32559604       8.45418145      56.82721188      26.22844585      -6.59840883      84.02673890       8.58956492      -2.14255141       2.85439764
S       28.41778536      13.47381821      47.29025880       8.02676368     -22.01466419       2.00740763       3.10208870      -0.75018919      -0.42559051
S       23.01087785      10.88011016      45.85586825      14.85776690      25.84679169     -22.64365676      18.45276137     -21.45098220       2.21936167
S       22.85611015       8.82120021      47.44746454       9.08528650     -10.08358760      -6.56497962      51.56700170      -0.52457288      34.38200784
S       26.55487666      10.58765710      40.27123982     -76.59211563      10.32264098    -132.03304978       3.86667310     -26.91304911      -9.13262372
S       27.65573691      12.42815284      51.07746655     -35.44884212      27.90177740      31.73131971       1.04115408     -15.40131549      25.76865984
S       26.61395209      10.94954519      52.12601012     -33.74768607      12.21305349      -8.17977461      -3.99697998      -6.48372018     -23.03479567
S       26.02413347       8.70886953      50.03821688      -0.56734106      -0.74686545       0.86461368      11.57753898       1.77854503      -4.89779256
S       36.91065697      17.40861709      51.41144698     -16.78021029      -2.92371169     -17.63300610     -17.26688992       4.09121066      -8.67826438
S       20.79836280      17.51776270      51.27784132     -25.98461768      16.09153494      10.80441689      52.52280004       8.05078603      68.72811178
S       24.79473373       9.12605619      51.06904758       2.14572235       3.78317658     -14.36858950      -5.59122745      13.23714669      14.40184626
Sb       4.52609184      -6.58852979      57.82285051     -98.17748673     -86.19132337       3.98029644      -0.57791227       1.11559143      -0.30387628
Sb      18.61195430       3.32103510      45.67791185      24.27480696      -4.62226065       1.73257857     -15.07340626      -3.61247133       0.49757308
Sb      14.31647817      15.13398771      48.53197415       6.77936650      14.42755055      -6.65372049       3.36216328       4.48289246       0.24210084
Sb      63.99489877      12.05818056      62.42596028    1165.35829277     239.30764445     191.31158257     105.02579835     -79.41009055    -334.87102230
Sb      17.47027937      13.05246324      37.04791304      -3.58116225      -5.75506075     -19.01164824       0.68236725      -1.49031360      -0.24120276
Sb      17.21454605      11.67644204      44.49317570     -15.23300137      19.90839540     -33.89819973       3.88249171      -4.96161403      -2.57129058
Sb      14.46701648       6.34736226      47.98247272     -10.79221540       5.72843983     -33.07364963      -4.76274290      -5.66177948     -23.18706922
Sb      18.13591530      10.63056230      51.89510759       0.16785394      -2.15114526      -9.50390867      -1.15429346       1.12608727      -0.87409961
Sb      20.86379815      15.01637811      42.09129367      -0.57633630      -3.77677395      -2.63756031      26.61063038     -17.72752838       8.98842494
Sb      26.15182917       4.22678494      44.38011794       4.38738377      19.12225073      30.83302954       2.88964169       1.35765729       1.53354581
Sb      19.71965341       1.91918381      49.07024836       4.71187622      18.20798829     -14.83913153       4.14396793      -6.74997934      -1.52089680
Sb      24.83097202       3.75618123      51.54626997      -2.70195391       1.60479844     -10.25490667       1.52770946      -1.24871424      -0.42621912
Sb      21.15697332       8.02766374      43.22002743       0.61844293      13.50468652      12.09953214       0.68732867       6.57256251       3.48088877
Sb      24.96680196      11.06728029      44.74327014      -6.66828430      18.47617885      -2.77462690      -5.54063022      -2.67922341       0.12121457
Sb      21.42172457       6.41667458      48.49125347     -17.52089019     -17.12822934     -11.93939786       2.88391895      10.45617680       1.68052768
Sb      24.58360519      11.81530534      51.99753089     -23.09671407      -9.05742288     -27.97628997      12.51800048      -6.01044843      -1.67583221
Na      28.58154275       3.20243743      55.12356856       1.02519521      -5.10999147       4.32795076       0.32775293      -0.94466414      -1.30311224
Na      16.67424943      14.97580792      60.85435988       4.31172689       8.88814560      -4.03362682      17.19939076      -3.45559731       4.15735144
Na       7.44436909      -9.49533755      59.70742419     -23.31914729      -9.63171728      34.15646430       9.98992031       4.31790326      17.13460825
Na      24.33698997     -10.91647940      58.50460236      -6.23812516      -3.63134743      22.50273546      -8.77732460      -2.64238392      -6.64886995
Na      29.98914408      13.68660678      60.96904899       8.35257319     -12.78035799       2.25588326       0.08443366      -0.77301654       1.86674370
Na       9.54080952      -4.25542569      58.48886182     -30.97674304     -37.81705446      12.80896732     -34.29204835      10.16957326      43.39396464
Na      15.77906898     -14.75790017      60.31447278      -2.33442567     -18.33069254      24.79791704     -10.84156510       4.03464961      -1.20086092
Na      12.36676505      -7.14402068      65.40720299       8.20814877      -3.64194481      -4.45115889       0.21705159       6.25498896       6.44181246
Na      45.16625877      -2.56572647      55.96045859      16.19594252      15.59399031      -3.33127503      -0.50876669      -0.63430814       0.41274685
Na       4.08675905      -4.56517177      69.26104456     -24.44928899     -10.74888493      -0.76004624       0.33048715       1.70442650      -2.33064882
Na      11.95678906       5.28811113      65.10222703      -5.01843803      -1.96273388      -3.40247705       0.83765855      -1.32842298       0.32318857
Na      10.48530343       2.40997328      61.64844948       4.90664783      -3.96572723      -0.45558802      35.18239499       1.33550376      11.61274340
Na      32.63086398      11.94687364      56.75802267      -5.30106473       6.62289592       3.50836686      -2.08418531     -20.26627512      13.26070860
Na      28.47268350      12.08556659      63.69022413      15.16017046      26.64545030      15.18308951       0.27468841       3.93563722     -13.22179923
Na      15.58111285      -7.30665558      64.99444124       1.57965043     -14.71221249      18.58211004      -1.52930806      -2.11613149       0.58225845
Na      26.80312535       8.77295091      60.68694297       7.73859413      -5.80677096      -2.70181720      -6.19469765       2.81648150     -10.37786978
Na      27.20190262       3.88779887      68.17111730     -13.65343314     -16.19323017      23.64151490       0.18340071       0.64909620       1.09851561
Na      18.11249655      11.61584726      57.13355625      -1.48844804     -15.89744595       2.96667734      -8.78377447       2.59193295     -13.64288349
Na      31.04283435      10.86119547      63.23207521      17.59607368      -9.69886164       3.67503621       7.48515967      10.20039655     -10.66583648
Na      16.10656508      -0.26411032      74.09044539      -1.49803256      -6.33290589       4.96796070       1.26733662      -0.06368882      -0.93947915
Na      18.99984498       6.55921123      67.03687114      20.43229870       1.06235212     -18.79429872       7.38624306     -16.64708339      -0.52183214
Na       0.25735550      30.82031560      76.73147932    -141.60921187      22.22595272    -192.06045053      -0.79643383      -6.91746180       1.96353640
Na      42.35691848      15.55925442      72.14214524      55.49785665      18.89317219       6.67398391      -2.19830197      -1.57905215      -2.83679113
Na      17.06044690      14.83308091      66.97500757      -1.37691655       7.56376049      11.30620929      -2.05326568      -5.96073783     -18.35122966
Na      21.54859528       4.07725153      58.68435318       2.25193966      11.64582998     -11.64850988      -0.72954670      -1.66744968      -4.30978543
Na      26.30231714      15.30280537      61.49538819       2.88077615      -8.55689156       0.25492942      -3.29831114       1.69205485      -4.28667613
Na      38.79887551      32.56044621     101.32193042      12.43170452      36.15071528      15.06392974      -0.01114004       2.06328127      -1.95050472
Na      19.96926184       4.19121125      60.46400063      -5.09772073      -3.31866871      11.88944609      -2.82880073      -2.55427810       2.18047403
Na      26.91917322      12.37077426      64.32830812      83.73476541     -26.76319554      17.24939577       5.33790414      -1.49887417      -7.01421876
Na      22.30545009      -2.52716131      71.12394023      -5.39129673     -11.18714698      -2.06787665       0.22493719       0.07098972      -0.32260717
Na      21.19690893       7.74888115      65.36357547       3.72218481     -13.58375532     -11.63019806      -4.38619729      -6.03667777       3.70472549
Na      66.83602494     -35.95574437      76.68804300      -0.06057045      -4.68217857      -5.00005124      -1.88560903       0.94373084       1.86768121
Na      20.09358353      20.09991547      64.29357005       0.21193887      -4.69902566     -17.31191271      -4.17931761     -14.11811805      -0.52141439
Na      16.88087460      -7.38099215      74.78462079     -15.90137388      -9.32353719       6.20198450      -0.55638734       3.52255492       4.60385801
Na      18.14479883      13.51628733      75.26815920       1.95667035      -6.09708735       9.15932581       0.26205688      -8.85943526      -4.53803917
Na      26.07295476       0.94224578      58.61588506       2.52451729     -14.58430666     -11.29562099      -2.74000713      -1.21770437       2.26605919
Na      22.20456638      10.26655629      56.06459145       1.16107655       0.70984937       0.32894666      -0.02069478       1.92232895      -0.72197037
Na      28.99761780       9.79349120      59.36473623     -12.00570811       1.59944348      -6.84625221       1.08716143       1.73880801       2.66825691
Na      20.58605736       6.02199181      59.77517476     -15.62862231       6.10284768      -8.10424113       1.99966538       0.38617528      -0.83797213
Na      21.48792272      11.04583311      60.59048309      -2.21731834     -15.33334535       0.31666537      -4.84265570      -5.07094166      -0.36700327
Na      20.00479253       7.68731099      60.20671593       2.94524854      -7.53304045       5.48357525       1.49607321       1.88504386       4.69805523
Na      21.52721299      10.62014417      50.48841986      -5.26190278       1.58899460       2.78790480      -2.06792532      -7.55589165      -0.03039337
Na      19.26262051      12.15078270      61.59367415     -14.91733363       5.35616382       3.35052093      -2.34583083       8.59740311       1.15059040
Na      16.52288604       4.26436433      80.60582314       1.95168184      -4.31695232       2.03575859       0.41258983      -4.02578682       2.54841006
Na      20.29699265       5.12730088      65.99249519     -13.47028601      -9.72524452       3.42108357       4.51828213      -3.48083886       2.33380269
Na      24.79312566      10.20515613      68.35823642       8.00039557       6.61267361       0.40729098      -1.74160538       0.04717786       4.54247936
Na      23.49823478       5.52404820      59.20463047      16.90373686       0.20577339     -21.05027583       0.06348989       0.83685486      -0.23988717
Na      61.86461427      -7.44163145      43.54405373       6.07845121      -3.47470270      -3.42113081      -5.63047465       2.65907674      -0.60543238
S       36.08699902      12.39206291      34.91091400      46.28948141      15.32282338     -15.12855247     -62.13962356     -14.92879006      27.05460048
S        7.74942490       5.46369250      63.01456910     -13.86511623      -0.62556279      -6.28686366      -0.89311554      -0.39519670      -1.16322957
S       18.22242643       6.52832950      59.19926608       0.34378558      -3.30866950      -3.01873259      -3.94847527      -3.50831679       0.55862195
S       21.13230680      -6.93630197      58.72347879      22.56672295     -31.60901943       0.22823045      -4.07409333       4.70152282       5.26074424
S       14.14576748      -5.19207949      53.06470630      -8.69104120     -24.72815605     -16.96116560       1.91844784       0.07702073      -0.11585388
S       29.22386109       2.80863594      63.55294539     -33.56246259      26.39392719      32.51132053      -1.21631980       1.80132146       0.59492476
S       17.44627185       6.17714768      61.24953087      15.18055382      -1.33933597      37.38070575       0.60810425       0.09457484      -2.05388166
S     -166.54986187      -0.97571507      13.38169205    -178.28637158     491.03344357     569.77159275       4.84768759      -2.18181849      -1.03905370
S       24.53058015     -46.79479261      61.47253730     -34.97979217     -69.17339182      72.62812527      -5.63158928       6.53078672      -6.42957676
S       13.12452681       4.60980594      71.50933899      -6.31244189      -5.75395151       4.24387348      -6.59208811      -0.94266179       6.91230768
S        9.10565648       9.26146657      62.36448316     -15.60206884      20.65297800      11.96391309       9.43342214      18.93588009     -50.08142174
S       16.44559803       5.68534253      68.48797747     -29.28639555       7.67275736     -10.68250674      -1.94531967       0.35888209       0.88565340
S       27.38435347       9.24407409      78.78150443      27.94897114      18.49709894      51.71675230      -0.18249846      -0.45850927       0.35756020
S       17.35456515       9.75765396      72.75365807      -1.63348652      11.77787529      11.56324938      -2.71978132       0.17223934      -1.19659889
S        1.36777919       4.76681654      73.98270014     -45.10760782      33.68601470       1.11255536      -3.75876943      -2.20482364     -15.51062584
S       18.59337856       0.95142607      68.72369036       7.55346849      -3.69550728       0.15986372      -0.85986669       1.45132706      -0.60340852
S       16.44686874       8.99777414      53.24411305      -4.70121880       5.21764244     -18.04380469      -0.85193511       0.45432609      -0.75743810
S       13.66845107      17.24630180      61.42905664      -1.73379521      35.05703180       6.30484844     -81.46211570    -109.75025882     -44.50483149
S       21.15267352      14.59113570      58.72047373      22.34459585      -3.44199987      14.93977748     -37.02570760     -22.30348041     -24.30256674
S       21.45504384       8.65361464      61.69313853     -16.48758470      -9.09736758      10.89270899      -6.37081965      -1.92494695      -2.85390241
S       19.23375632      11.36645799      58.46949979       0.93998625      28.71896369       5.52373434      10.63780783       6.95589384       9.16580145
S       21.15021553      20.37108571      56.67367920      11.79160390      72.33725958     -45.20342433    -209.21881193     -46.33327017      42.36686241
S       19.74205321       7.85736872      40.38189547      26.26255081      17.74324458     -34.62232193      -8.84757219      40.30284199      36.15419428
S       19.85923617       9.91636351      61.85293065       9.38021844       6.27498526       6.44573396       0.86154086      -3.40891832       0.39484481
S        5.99171791      15.88139490      72.86109425     -48.37922146      14.93028814      13.61573654      -1.11492533      -1.37245719       0.24986751
S       15.80748426      13.57035769      70.83003013      -1.32982187      -2.49316179      -2.95515564      -4.14817174       1.70706755       1.04329405
S       18.67529039      10.87759128      64.88300647       7.10079811      -0.70074180      12.22112274       7.17625742      -0.89199146       4.64897863
S       20.36075964      -1.78664278      69.73668772      -0.46222177      -9.40887661       4.38193743      -0.47664993      -0.62587835       0.13954597
S       18.34061309       7.97686518      67.30246720     -10.01919435      -7.65336884      14.88916577      -5.77649838      14.60598888       6.39824041
S       17.59733763       4.27114914      76.52498831       2.16138776     -22.59782749      25.23958067       1.81931156      -0.99039079      -0.04429140
S       14.05956435      14.47663861      68.76831970      -5.95929127       9.24018775      17.34125038      35.46738962       3.94928052     -33.53532680
S       13.73906180       4.99477296      70.00384831      -2.75684664     -22.68197794     -14.02663787       3.74839854       5.76556829     -15.89376352
S       13.90245822      -8.65900723      67.89044319     -16.81072458      -5.36854866      40.30971977      -1.89355471      10.73145920       5.30043360
S       18.21378017      12.65213726      53.31621597      -0.07629741       8.94442354     -12.53103120       6.34946441      -8.00413262       0.75209806
S       32.95945333      17.34696405      51.98395067     -55.25728883       0.72197095       4.03697881      14.94851802      -6.82352335      -3.10216998
S       32.25380905       2.49172646      57.42735257       6.07523686       4.31867568      -3.79781534      -1.14334775       1.17096472       3.48421145
S       23.83393488       2.06352938      54.72974502      -1.35968359      -6.95627353     -14.86999420       2.05803309      -4.69325496      -7.59111449
S       25.04715306       6.41982246      62.21377080       4.36484605      -3.32603788       3.39609145       1.85314667      -1.51063264      -1.81658280
S       20.53108417       7.12236076      54.13855127      -9.10380346      17.69175544     -27.48240295     -19.00965930     -26.77169143       5.06583433
S       18.74431391       5.80207130      64.90181405      12.05352183       2.45813854     -10.33509531      -3.57615273       1.10679710      -4.70923895
S       22.23434169       5.58093641      75.97395299      16.41469656      -8.54343467      39.42960417      -7.09190027      -6.31460791       3.18520413
S       23.10025004       4.55129149      80.68397395       7.78371733      -7.47143211      14.30703227       3.75178073       1.49177534      -0.07246994
S       27.18375973       6.59138895      70.55990869       2.04538963      -4.47979692      35.92629716      28.37242732       9.30419478     -29.26033479
S       19.01067941      10.61768879      75.50835152       5.50926174      16.81797164       4.16768595       5.12483652       4.02554402      -5.29417518
S       26.03841827       1.55974641      67.06147121      -2.37724489      -9.44505703       6.71018382      12.39435573     -21.86751046       9.34581147
S       19.43022708      37.96687533      12.75418200     -77.81568974     126.88993014    -322.35646003     -29.77180653      56.19525270     -12.68550073
S       18.49533428       3.40358813      68.35063815     -28.13391995      -6.34864924      18.34557245      -0.17293402      -1.48806680      -0.63542689
S       23.69505283       0.41386857      67.83844906       6.62559709      -8.80278831      -6.43797919      -0.16201304       0.19731165      -1.39576455
S       22.70997874       9.51978387      58.34988309      -3.03313654       6.24103006      -5.48915560     -10.53298717       4.27393457       6.35747398
S       23.74735749      12.04247629      65.40141838     -16.18480758      -1.94651095       1.37654369       2.94204790     -10.63527510       0.96970263
S       28.13653502      13.76023249      59.23697772      -2.41267727       0.78272048      12.55556028     -12.46851708      10.73561450       1.87490159
S       24.80019403      17.86362611      53.91479042       8.69248123      18.02095985     -13.76418293      -5.86383522       2.15845913      -1.30116134
S       27.19672002      12.46507830      54.45165555     -10.52884826      31.43260193     -19.24737373       1.30201759       3.79556169       6.52976257
S       26.31965103      12.96758993      62.34752165     -26.17598055      19.91517950     -25.09443491      -7.39844720       4.05060996       6.18490521
S       26.30083296       9.72522108      66.95684743     -15.72278028      16.49393531      15.03362110      21.73432766     -19.39218343       5.27113133
S       25.73167503       6.39554163      67.82648708       0.71429985      -5.82152773      21.28730854       1.27606433       1.72710995       0.92535935
S       23.07455209       9.05162305      62.54804989       3.99061140      -2.53037204      11.60709177      13.53253789       8.19997073      -5.78828112
S       15.99993428       7.72831371      74.26665329     -14.63605810      -3.58299426       1.94134367      -0.48366243       1.09663476       1.33026450
S       29.34910884      10.39697822      66.82859617     -11.05615548     -38.18902787       6.84173112      -3.17370582       5.61357872      -4.56396754
S       25.34857827       2.88430427      66.61240390     -17.53805151     -13.38788173      -1.50914768      -6.56343547      20.31848010      -1.55919040
S       31.29686976       8.43717216      61.23067706      74.96971553     -39.02281827      -9.59710629     -18.00830532     100.55058337      68.16829872
S       14.84239202       3.84805519      72.21520445       7.45075030     -14.06544995      -4.22094033       1.81322472      -3.96077280       4.24933947
S       20.68893566      11.11123956      65.61615205      -5.25521424       0.66838739      -4.82809076       3.24820950       2.17046253      -2.07533558
S       24.94767794      13.29732753      66.49507773       8.26641765       6.40852132       4.91427657     -12.59784477       9.07872431      19.71757623
Sb      11.46994435      -0.12110680      70.69474808     -15.61499870      -5.24796648      -0.14175440      -1.66110436      -1.35220012       5.59575229
Sb      20.23782471       4.72460259      54.77756641      44.88668461       9.55797296     -59.50448096      -3.37500525       6.06564218       2.69687894
Sb      14.69613361      13.09277416      64.38417273       6.23663181       8.86256933     -12.89237458     -16.17181089      61.70271916     -73.09554345
Sb      16.67522786       1.93495995      67.48123814      -0.07383506     -42.06521400      12.81380992       0.65717923      -0.74234961       0.20302014
Sb      13.91014600       6.26093194      57.72940451     -17.88290240     -23.98963141     -21.69002530       0.41889000       0.17499457       0.78950291
Sb      17.91567522      11.14939109      59.92799736      -2.93288944      -2.58907601     -22.76241480      -6.55290001      -2.60157253       2.16375203
Sb      17.35205567      10.25618370      63.49381599      40.98472803     -20.02121775      43.58953216     106.73927305      78.44499072      90.39607492
Sb      15.71559353       8.16675942      68.70038259     -24.59001801     -20.30121199      26.64884447       0.39261583      -0.53720749       1.29243075
Sb      22.49068719      12.90465514      59.36375313      21.82565629     -11.29719463      38.88563261       6.06042096       2.50156257      -2.46241400
Sb      24.04439725       3.54381674      55.94067440      -8.02815133       6.55917535     -35.60728614       0.11910073      11.82945782       7.25329942
Sb      21.38950436      -2.09180951      62.56157115      21.47976942       1.79396660      -7.86136805       0.86691988       0.52286236      -1.78261544
Sb      28.12808350       1.81900101      71.25668045      39.63395773     -11.89870357      31.81718240      -0.47237327       0.31861779      -0.55787465
Sb      20.81562566       8.05926050      56.14272513       2.96812812       8.17137538      -7.17011438     -19.06927680      81.76789568     -48.00103759
Sb      22.93054325      12.47045571      62.06354696       2.90694607     -42.05778718     -18.06504468       4.22207075       2.87703962      -3.19828053
Sb      22.21721924       9.30756156      64.41597248      22.86433120       0.95417113      18.71155515       4.21805304       4.62145150       4.93091623
Sb      24.49684769       1.22150609      75.09399343     -16.28347002     -58.19733120      58.83421196       0.29667178       0.41483346       0.37895180
Na      28.23705703      17.41586403      26.81951204      -1.38594939       0.37420536      -6.13586669       0.73791356       0.30198831      -1.17328818
Na      16.88558339      28.49173025      32.86803103      -3.90017701       3.82718581       0.96751261       2.01535762       0.49877921       1.11680545
Na      17.56520605      13.01102849      27.96211182     -12.47167285      -0.28212746      -0.59363284       0.05212779      -0.05120979      -0.43938509
Na      14.14163301       9.99032650      33.02300718      -0.79468282      -1.27035251       0.60218928       1.61964034      -0.63085414      -0.51299310
Na      26.83780225      29.89244525      31.62795792       1.23488624      -4.67189321       0.87185111       1.62905896       1.85392929      -0.71054714
Na      21.39141834      16.98660066      25.24208342       3.56447717       4.28513878      -3.09543331      -0.02300668       0.44837301       0.12292943
Na      13.88756697      18.17833995      34.49747301      -5.41880169      -3.29685167       6.68996954       2.47962183      -0.91769571      -1.06073676
Na       8.26606439       3.75924950      33.42058742       6.84387029      -0.80551008     -10.60522410      -4.30604987      -1.08873333       0.56003468
Na      17.67207169      14.90134215      38.81806030      -0.55251926      -0.05423461       0.54125724       0.98231897       3.79086727       4.85948221
Na      14.19825528      17.25422755      37.74432435      -0.17363801       0.14878967     -13.81405996       2.27856209       0.30109689       3.71546814
Na      13.78731247      14.72779606      37.82112705     -12.75895877       9.44508588      -9.85530458       3.96430984       2.41929580      -1.69987391
Na      18.28802136      18.43117330      34.05373912      -0.75466140       3.30079065      -6.13856750       1.09817244       0.80727205       1.34125851
Na      27.92487655      26.18068421      27.76182615       4.69371008       6.17885854      -0.73652090       3.54053559      -5.78442972       9.47263152
Na      17.62906227      23.26052153      34.31901888       0.84034405       4.24349444      -2.45957020       1.44659939      -1.04195681       1.69938146
Na      18.22018334      22.67708115      31.28598896       1.30817094      -4.27644573      -2.60842172       1.04773952      -0.32710741      -1.28489156
Na      28.74605528      24.88568032      33.19181248      -5.65885103      -5.36090143       2.77949946       1.03450893      -1.56633213      -1.09228595
Na      28.04755791      21.41731133      27.31996133      -8.65965656      11.18798504      -1.18426535      -1.30632872       3.53186427       0.25986649
Na      16.90062905      24.71552742      27.39648855      -5.85503051      -2.64933479      -2.72339976       1.46632965       3.25353563      -0.90310264
Na      26.65432562      22.67525077      31.84916274       1.56149458       2.09941724       7.46737387     -11.93763548      -3.73553033      13.80242198
Na      17.31983703      21.15565297      41.02454804       1.48056143       5.59406537      -0.24998895       3.00683498       1.99151257       1.41672037
Na      17.87602862      20.80505513      37.26408843       6.60687779      -4.03161538       3.07745394      -1.04713769       1.22177853      -2.17333327
Na      29.08476073      26.94025133      37.80115298       4.10551054       1.47058211      -5.55556897      -3.86025945      -0.42480709      -0.27644398
Na      29.65471014      21.16683932      37.82975503       2.48313415      -6.47130342       2.16534707       1.43095334       5.93945527     -17.52501341
Na      18.39410076      26.06147162      34.63467086      -2.23163488      -1.24249583       3.87851623      -0.28128364      -0.97709880       1.87960648
Na      22.88524681      16.68959562      29.31741724       2.33686848      -2.82280269       4.18213232       0.75560615       0.75000587       1.26560456
Na      25.29768145      30.47026536      33.69977526       3.33524486       4.44534800      -0.55067801      -4.99153481      -0.50726000       1.74927726
Na      25.53578923      16.14294025      23.62056157       1.89802717      -1.60935535      -6.14378856       1.83321263      -0.44684851       2.22176804
Na      20.37453828      18.77006431      31.45054103       5.73970137       5.36233854       5.93663837       1.29219389       2.69681205       2.27641592
Na      24.58209794      28.40897495      32.21827926       3.90096960       7.25982062      -1.05365800       3.16857062       3.02110587      -6.90461138
Na      23.75417861      18.03270310      42.89480516       9.68491653       0.33620778       5.85384610      -5.00306986      -0.01110697       0.91356143
Na      21.61932103      18.40875303      35.02274691       3.97689369      -2.20699510      -2.30433501       2.82762990      -1.51410096       1.99040858
Na      21.56043709      13.03938151      38.07615096      -7.34041882      -3.94560523       1.96130318      12.07036421       8.71561911      -7.10518207
Na      26.63396087      28.29215113      35.85226169      -2.04486412      -4.47570264      -0.80477152       0.51162714      -1.71778237       0.39514582
Na      21.23506258      19.73961503      38.20354935      -1.60686907       6.49956010       0.51951603      -1.35569638      -1.37219925       0.04339243
Na      21.70210333      31.04361870      38.28033474       7.33586465       2.37226691       0.62299165       5.20309043      -6.65626413       4.37898914
Na      23.82285885      18.40136998      34.14844371      -6.10439292      -7.99961285      -1.14886865       0.20126680       0.45393519       0.36788279
Na      24.07757539      24.34992605      28.48957052       0.43780432       0.74751950       0.44650317      -3.27739244      -5.65413370      -5.22013098
Na      24.15587507      21.52555332      33.39526704      -3.37039350      -2.14665762       5.16296356       0.38429412       0.27817364       1.64625294
Na      24.12937776      21.91102878      29.96091051      -0.65315647       1.83344260       3.14702891       5.19574765      -1.85113197       0.64707217
Na      22.57537102      26.65285235      31.65498530       3.60086778       4.42013624      -6.11824640       2.99252609      -1.57447575       0.60573141
Na      21.73667680      22.31084184      30.69509613       7.74053497      -0.04996110      -2.76042131      -0.10648661      -0.47619034      -0.00068877
Na      25.99004291      23.78700445      26.58364811      11.00599737       0.08646803      -8.60742370       2.74809130       0.40477334       2.94750378
Na      21.48827025      24.28442926      33.86543821       1.53249899       0.86465581      -0.21769460       0.88718758       3.01020657      -0.13526037
Na      26.07492640      22.40343255      41.50293575      -1.22117515      -0.37362828      -4.01775995       1.07106060      -3.58513184       4.26636798
Na      25.74620839      22.12478386      36.06869626       4.30119008      -1.54697614      -1.75124885       0.05928634       3.84988483       0.53439534
Na      20.55154789      25.87046501      37.18378190      -1.45763921       8.08939045      -6.28838593      -2.92968818       2.41612023      -4.00628110
Na      20.96966159      22.44322919      37.65777809       1.36895527      -6.34204815      -0.04233896      -0.64624587      -1.52831257      -0.53024255
Na      25.70090269      25.14572816      33.49766218       1.21050649      -2.98377857      -4.27050860       0.38064218      -0.49192006      -0.01154895
S       14.45372914      15.06576433      25.69889422      -8.10325368      -7.38860200     -21.08718714       0.56699978      -0.95378218      -0.46715926
S       15.19231504      20.21518854      33.14112090       2.73267587      -4.48818094      -7.73917634      -1.50808556      -3.25890039       1.90714673
S       20.30204929      19.09877404      27.10860148      -3.38497064      -2.50413178      -6.23528181      -4.65821070      -0.80727542      -3.18445068
S       20.98033658      16.25636951      33.76136166      84.06511231     -16.19559707      19.05453820       0.23484034       0.96199205      -1.68271455
S       20.31637458      17.09544946      30.14091955      17.00327508      -6.36943068      -6.78776652      -2.34885679      -3.15823210      -2.21721919
S       16.77311226      20.95563752      32.33225249      -3.71050578      -1.02902662       1.24869856      37.28527482     -32.17412750      16.56016082
S       17.36330913      18.55963508      28.16284490     -36.94449441     -49.99985818     -27.07142708      -0.96792521       0.47727913       0.42210097
S       16.46264211      17.18603592      33.49409449       3.41148946      -0.49474015       5.08801698      -0.94672291      -0.87165193      -0.54774132
S       16.60194316      15.92307733      36.40186966      -4.21956879      12.71996415      -2.81588751      -2.04912539      -1.41190069      -2.50702679
S       15.65452832      19.65763466      40.52015469       8.08629976      11.46568302     -24.47597367     -99.02890124      66.25557570     -50.77434616
S       19.56344530      20.31135680      35.63581183      -0.18344164       3.06772231       1.04758864      -1.01804964      -3.76980626       1.77436774
S       19.51454183      15.98155481      41.60814448      11.46760721      -2.30869880      11.74843613     -24.40510421      21.01904880      -1.84655111
S       19.07531644      18.24023956      36.85088680       0.27063587      10.50994622      -0.71967994      -0.17676837       5.86129734       0.36528698
S       18.68064113      19.91745986      39.06679677       1.45041699      -6.86002556      -3.97762963      -1.55672115      -8.98806971      -0.63944789
S       15.85748789      18.94844178      36.78044617      -4.35450430      -4.35125878      -1.97121130       0.43052753       0.67445318       1.84142708
S       15.76637428      16.56862552      39.77443562       6.24265193       5.48564295      -2.95183008       1.54136163       4.86426728      -0.80130778
S       16.08598252      22.86110952      27.92811295      -2.27359690      -1.75964861       2.11533710      -1.23794106      -3.26849180       1.16291326
S       16.49824760      25.98905305      32.94788310      -1.99333900      -0.67095215      -0.02240219      -3.19746603      -0.07605879      -0.55989877
S       19.85372016      23.72259974      26.63960874      -5.95592473      -6.55773733      -7.46329117      -0.48765306       1.16467000      -0.71684993
S       20.04690948      21.19066661      32.28918097      -0.03819593     -14.45141948      -5.61231189      -1.37160783       1.05103955      -0.15906174
S       21.52281213      22.44121732      27.94087139      27.00941236     -21.56254319     -15.34606923      -0.30645481       2.65039720       3.52033714
S       19.72251193      25.64592021      32.84913933      -3.63998424      -8.43305804      -2.31011669       1.28804208      -2.04465247      -0.26142471
S       17.46339448      29.05381407      30.55203471       9.02608766      18.73149701      11.54170644       0.88841110       2.28037721       0.75837961
S       16.41832358      23.72266153      32.47099392      -3.32113146      -2.36848510      -1.97375235      -2.61031665      -2.83891680      -1.68748512
S       15.76879637      22.04845648      36.82299052       1.77326579       5.35267453       6.66017773       0.87401292       0.58204719      -1.98381929
S       17.58145284      26.94862726      40.87971849       7.68795790       2.48098496      -3.77209451      -5.21634424      -1.13573981      -1.09476842
S       20.24611978      27.15896221      34.98969119       0.36612673       4.73023163      -3.54112875       0.25362456       6.40076298       3.31300801
S       20.15469599      25.06613573      39.56416933       3.39446664      18.61274685      -8.38805265       2.78226413       8.24437193      -0.15175140
S       18.25266563      24.05507797      36.54338910      -7.38630814      -3.40117764      -0.62161262       1.42281069      -0.68224963       0.28870528
S       19.47797353      27.46715421      39.21300252       2.74740585      -1.76828458      -0.84136321       0.43401682       6.30251935      -5.06007676
S       16.22692875      23.98527196      37.42357406       1.72391823      -4.52376983       5.22163697      -1.57733728      -0.68789896      -1.35240011
S       19.69167326      21.26068464      39.35390418      -2.27472974     -19.01401058     -22.89392283       5.95312867       6.74994446       4.78538213
S       22.81478886      19.10553007      31.70422442       4.85836844       0.09336520      -4.28488876       6.65564990       1.78738052      -2.30182083
S       22.23486296      20.25735796      33.49836185       4.33665877       1.31379671      -3.46703626      -2.27517339       1.62303830      -2.87292900
S       28.18661201      19.46941096      25.11994800      -2.84266053     -11.00785015     -21.68777909      -1.27738312      -2.77978538      -3.05140235
S       27.34895241      21.38964481      29.74770259     -10.52067388      12.28124104     -28.99449617      10.52572886     -28.11839054       1.81300014
S       22.88828687      20.88532829      25.70855257      -8.50780730      12.82036738       0.47461986       6.15151094      -2.35319717       0.21676529
S       25.86725452      20.08722254      32.81147712     -16.72284550      -9.38335015      23.80569088      18.39239733     -13.14646127      -9.29511814
S       24.05923183      19.28251937      29.62154165       7.61932608      -5.47480228       5.58305088       5.34743724       1.66989075       7.99618052
S       27.29061323      16.26059445      35.26693425      15.77500554      -0.63708533      -7.21907019     -16.01307061     -53.54055510     -52.87967584
S       23.11101822      16.73320249      35.97905581     -11.21692196      32.84246629      13.75563098      -7.18055666     -13.19545227       0.09683180
S       22.83601897      19.23434080      40.14782412       6.06572810     -20.60748617       5.96096708       1.16002215       3.11625897       3.30522456
S       26.68037803      16.71714738      37.06635170      -1.29244304     -50.59927185       9.27256311       7.41135181       4.86107209      28.19170889
S       26.86036275      15.03953852      41.21541317      -4.68029118     -26.21065931     -16.72350740      11.62764326      15.73471924     -12.69184427
S       24.81565263      17.05637681      35.96293809     -51.77345450      -3.79212350     -24.31351895      12.24157783      26.26807784      -1.33473910
S       24.25571258      21.19506376      40.88009421     -16.11381011      31.68329413      -5.18054575      -4.69850521      -4.67251056      -0.69595831
S       23.72493768      19.88568523      36.52156523      -1.81987745      -0.32131162       3.30808714      -3.50157529       2.62747177       1.04372570
S       21.87624735      17.35566773      41.87171652     -14.03009372       7.16073035      -7.43077237      -8.04842579       5.51758223     -21.61352278
S       25.80333143      21.62721701      27.18771283      37.07836889      -3.44877755     -11.31810449      -0.75037805      -4.91763764       2.29963389
S       23.80344288      27.71981974      33.80733151      10.77080688       4.79646552      -4.65475084      -1.79708146      -4.62951964      11.40618347
S       26.91731340      26.86605310      26.38988618      -9.23455371      10.61508249     -20.22000598      -4.62026639       4.18591084      -8.28513684
S       27.48380165      21.54742421      34.07944500      14.20625459      -6.50026265     -10.93686993       7.37403268      -7.93795326     -12.42386782
S       26.23505672      22.47510758      29.13469362       2.22563032     -15.43575466       3.07844335       0.06745571       1.28234745       0.99168540
S       27.12226424      27.69514670      31.02052108       5.55926344      -0.07182426      -2.01996410       0.24080513      -2.18141850      -0.99798514
S       24.32262158      27.54475070      28.46086771       6.08785489      -0.85151473      -3.03644823       0.67574133      -0.46884279       0.24246211
S       23.54177644      23.61337073      32.03521052      27.21410826       0.32716939     -10.87467134      23.94575636      12.47808217     -19.21499124
S       22.68781004      23.36866989      35.99383570       3.21134906       4.29346508       1.60551086       0.05171634       2.01500595       0.97306787
S      -19.62806441     120.41200700     182.95447424    -217.52052581     423.39378937     526.37924143       2.64601627       0.98254539       2.73033265
S       29.73019694      26.69459419      34.91066556      -3.31901438      -0.78135646      -2.06661118      -0.32649168       2.26084081      -3.78027682
S       27.97225597      17.34766591      35.69748292      -7.65100048     -16.11713369     -18.65802903      42.47566559      72.10356263      -1.02023690
S       27.36065240      24.02378277      34.90312257       4.26227854      -7.09539609       0.67780758       1.60419763      -9.37862088       3.16078507
S       27.92628739      25.20671009      39.15537319      -1.19774158      -5.03895757       1.11309991      -4.29458322      -2.30473715      -1.08532409
S       24.17417411      27.21924290      36.55970187       8.72873160       4.12525865      20.41481624       0.15031160       3.69149126      -4.25429282
S       21.67709442      24.47387841      38.61763253       3.03392001       6.54296615       0.46642634       8.96358723      -2.52368781      -0.61336111
Sb      13.46487675      14.15233786      41.71534115     -32.12187504     -24.27716956      -8.59223100      -6.95048557      -3.93184448       0.81256048
Sb      17.61720330      18.48658710      30.91133977      -3.44191007       4.12333485       0.60590543      -0.29973877      -0.29168171      -0.70476807
Sb      16.00799168      26.83599925      34.93006228       7.19218388      -7.38765172       8.96426847       1.98585887       1.22616413       5.28336876
Sb      17.36491629      18.04153298      38.64536846      -9.86059820       4.57511985      -4.52043599      -1.36304074      -5.54125997      -1.54736324
Sb      15.77443926      20.56500949      27.26695918     -15.50382300     -18.15090971       1.92996095       0.53050486      -0.62134587      -1.01290010
Sb      18.00408188      25.67263828      31.30752647      -0.09227936      20.78241656       2.03690715       1.19365390       0.22603468      -3.92667799
Sb      13.80777314      21.25106890      35.22113207     -25.11326141      -7.78830680      17.86165067       0.62183599       1.58867090      -1.00190586
Sb      18.04546244      24.71660378      39.56423098      -7.77673332     -19.63287851      13.29541149      -5.87610857       0.21588968      -1.21230435
Sb      21.89394002      28.53955144      25.73490207      11.93564691     -10.56848360     -10.06359713       0.93352703      -0.04512411       0.07047607
Sb      25.52389538      17.77900717      31.19283573      11.86018871      13.51552220       8.80874018      18.66713868      26.40990182      17.59949608
Sb      22.08235678      14.46057268      34.52070825       7.99440476      10.26486187       0.84345066      10.61729788      17.00595366       4.35056676
Sb      24.96548703      19.67374783      38.41232505      12.20574356       4.02972056       3.96543414       9.72401394      -6.99667526       1.31900719
Sb      20.88120390      21.41406107      26.04322581     -11.71701359      -0.15637492     -20.27393859      -7.37226894      -1.73526120      -1.56575151
Sb      25.19575351      25.38485882      29.96122390       5.07252422       2.27497666      -1.77237460      -1.11017540       6.54541070      13.00109742
Sb      21.13031383      21.93749396      34.75036979      -0.22328883      -4.96808492       0.66155527      -1.92754830      -4.08044837       0.90258951
Sb      25.89605528      25.81470368      37.27640772      10.39308113       4.38574638      -8.75889169       3.23731304      -5.43884300       3.92591326
Na      28.59658148      18.27397758      43.79334510      27.46113266       8.58309035      26.49264544      -0.26675960      -5.73580678       6.58137778
Na      17.87440189      28.57021749      48.53478377       5.62974676      -3.16394768       2.23658426       4.19643646      -2.68120782       7.67489452
Na      18.19628560      14.15526080      44.02951544       0.89650323       7.22460345      -3.60451367       1.80059476      -0.25431390      -0.76587239
Na      11.94376061      20.53717357      47.81465176      -7.62549882      -5.37108473       5.65602683       1.25703646      -4.83268460      -0.61417419
Na      31.54885785      31.12716634      43.53487696       3.99123063      33.51994702      -6.01004611     -15.28176092       3.96511507     -21.75673510
Na      18.53447905      18.48497053      41.31461624       0.40226151      23.18175447       6.27783547     -28.38048620      93.51944871      24.41901801
Na      17.30615121      20.14700376      48.05227881    -136.19540600     180.90620247     100.10979887     -21.82682634      -3.16741825     -17.93090630
Na      16.62741545      15.01269725      49.92656325     -16.66473811       9.58351263      -5.61344220      -9.24756957       3.54489299      13.36438762
Na      17.14656568      14.16192015      53.39220295       3.97925755      10.63386967       3.38243034      -6.11775451       8.64826701       0.00867146
Na      12.08692632      18.61375974      55.97741193      -8.25750175      -2.28489554      15.35531526      -5.30819327      -3.28828980       0.31422898
Na      13.42218313      15.54313362      53.45331994      -4.31008600      -0.31236319       9.99466336      -0.50936838      -2.44800540       4.22562535
Na      17.58749511      19.54709633      49.01935095       4.43916896      34.95523315     -13.48838352     -18.29087774     -23.89805928      12.87565041
Na      25.95325003      23.93963266      40.45146095     -21.35343811      14.17506716      -0.08096158      -1.98006526       2.11518979      -4.84420578
Na      16.60857428      21.38011812      46.40877978      -4.62940492      -3.65203008     -10.23093213      11.09905206      -9.46368726     -11.98448915
Na      18.33636692      21.88946186      45.14597789       0.94976186     -16.73524276       4.47707855       5.28819259       5.44372848       2.58482838
Na      29.55294333      26.02126725      43.15123898      -4.30837397      -1.46512393     -13.56652733     -16.12039204     -28.29647907     -17.18904964
Na      30.33246427      22.30726964      47.74008343      60.27687205      43.16045535      46.59748475      -2.41148078       0.72571954      -3.35886945
Na      17.27225234      24.80375567      42.42889882      -8.78333089       1.23785508       0.21909817      -8.08222336       2.59324959      -4.29703699
Na      32.98116126      27.62323792      50.27146188      11.62270769       5.52846525      -0.71313148       5.31877554      -4.19206359      -3.66749455
Na      15.87693419      25.71130445      62.33934474      -3.60964033       3.91280531      15.63111886       3.35431677      -2.57890590      -2.85690690
Na      18.53312932      21.01889153      50.41917428      14.76293658       1.55225918     -10.18990512       2.52917217       3.14448999       7.15979671
Na      26.52669941      26.65394168      51.03865546     -11.61303429       1.56799648       3.25366294       1.03282596      -1.77122296       2.43003208
Na      27.62091210      23.84793482      52.11341355      -0.89729144      -7.58409815      14.53297948     -28.12744287     -11.91505775      -9.08719024
Na      15.93116207      25.42771130      51.19580772      -1.64094784       0.23153646      17.37481033      -4.32124584       0.85050084      -2.26681114
Na      20.77405286      19.36929266      48.04689529       7.09286318      -3.38981455      21.81622599      -4.08607114      -3.36053568      -0.16315916
Na      26.31638326      27.81816457      50.10142156      -1.89883700       0.51109915       0.01381865      11.81050414       0.39531790      21.08364573
Na      23.55081724      14.72769373      39.91846923     -34.59515355     -21.17527859       5.91029543       7.01426562       1.99688455      -4.51421915
Na      23.83901494      14.27369639      42.86493861      -3.19264114       0.09759806      -1.31298144       0.02285418       6.77342585       4.16621760
Na      18.99393717      27.37510634      44.15668565       7.71263771      -1.01923920      -8.82710517       4.99393713      -4.24983992      -5.91177013
Na      22.50428081      17.11587399      56.01630719      -1.33621081      -5.45163241      -5.85874539       1.11018682      -0.06603728       1.90639343
Na      26.55940756      15.73709005      47.64003476      51.40436678      -9.29170655     -13.64055938      16.90119947      39.57878300       9.00976527
Na      22.33532579      11.75211032      52.95328244     -28.09803810     -17.34448831      -6.13341213      -5.35123004       1.37481283       1.68458250
Na      21.53748065      32.28809955      53.35893439      -5.56361819      -3.14849615      10.47575050       2.83695577      -1.59768272      -3.73220661
Na      21.99805197      16.73888982      53.93924686     -12.15413229       5.91044297      13.07925831       0.88810096      -0.63899223      -2.10441726
Na      20.47110423      28.97911717      51.30522816       2.62601523      -7.27576341      -2.66149262      21.35677250      11.33063567     -20.82889160
Na      27.22269950      19.56573481      51.04776041      -2.27515934      -0.04130568       7.35919351      -5.86180533      -5.85241466       7.08712536
Na      21.09758443      26.25561091      42.28966873      -1.61936474       1.98343887       0.44869394      -1.34433618      -3.74989555      -2.06452536
Na      22.33936597      27.47931618      43.26110524     -28.70993762      35.60845126     -28.46072361       3.50445723       0.45887379       2.14391286
Na      31.82265250      27.92066307      33.64986955      17.66833476      28.33053352     -56.06087221      -7.08895427       1.79424165       8.29738341
Na      22.37060164      22.75286754      45.02743040       9.79254204     -10.24360501       2.91286286       5.18448172       6.01406028       6.37587418
Na      21.87181544      21.93908851      44.25525530       7.79571301       0.02208483     -11.88810799      -1.82459837      -1.66195000      -5.33096231
Na      23.66657039      22.36753196      38.77375197       1.13348014     -12.59502823      -8.81474992       0.59195813       1.48345168      -0.86726146
Na      22.97005885      25.37854126      46.58522153       8.60078663      -3.64128749     -17.16541621     -20.00609387      14.76668596       3.79054668
Na      24.90053647      21.16650007      56.92873605       2.61811494      16.04093420      18.89243088      -0.09347066       2.44486302       0.63389715
Na      22.70311566      22.22980736      54.18004984      -2.22268322       3.99284936      -6.57048543       1.56151687       0.38563333      -0.48047893
Na      20.96322005      21.37253668      53.09859471      17.19005927     -16.10524486      -1.15520540      12.71286407      -6.33925009      -1.33278006
Na      19.43080352      20.16553652      53.69165709      -6.48628047       0.36161581       9.28440517      -2.90538516      -5.95438794       5.45135692
Na      21.92061331      29.15657703      44.13254848      -8.63135408      20.43447722     -12.48704502      -3.23817988       0.95130030      -4.90061671
S       15.71363768      17.11457953      45.30491795       3.72280617       3.61403800      -2.63544837      16.35276044      54.79431470     -61.39426046
S       16.26166320      23.81629232      48.01046277     -27.55333719      14.18123698     -20.45039726       3.57954288       9.59980890      -1.09103351
S       21.21301886      20.15982936      43.99805530      10.06858052       0.03478115       0.51893206      -1.50611580      -2.72389964      -1.40187592
S       26.05853038      14.61351600      47.25436881     -32.43878215     -19.49122374      23.80883260     -13.05893801     -40.90357240     -12.56034769
S       17.10867129      20.66120144      44.44346887      -4.12961594      -1.31622277      -5.59669388      -4.49378587      -9.57439508      -8.54262696
S       18.92998431      21.07983505      42.91649489     -10.88580033      30.43003778     -36.45651821       1.36205343      -3.39652659      -2.13403304
S       15.43288768      19.91823154      45.34341421      -9.28066436       5.53227086       4.42716348      -2.13480264      -9.75190289      -3.23341276
S       20.13751543      19.30419786      52.01713707      -5.52835450      16.21482185      -7.66381718      -6.70281948       0.59216018      -4.79759471
S        8.35370709      17.10890877      46.55573939      -5.02616848      -0.45819394       9.78497132     -36.81213933      15.96048845     -44.09094072
S       11.27715762      19.84862185      53.73950554      -0.73113636      16.58122645       0.44931245      -3.15689697      -7.45349355       3.72091939
S       18.55049714      20.50481890      48.65486720       7.27005075       5.54078486      -7.13124790      40.96884100      23.05889141      -5.39972092
S       22.11346116      15.06932913      59.69789841      14.01295367       6.82132669      -4.13964940      23.06565222       8.57556907      47.25068874
S       20.50491030      14.68865273      54.82774879      15.04175083       3.97469281      -9.72525689       2.13636264      -0.85718500      -1.80806594
S       18.39341346      21.50675921      55.46456407      -5.63021608      14.64393870     -10.21540532       2.84131172       1.72496118      -2.69886653
S       14.90490801      20.96933157      50.99586954       8.81566371     -10.60490742       6.65738807      -4.90856590       1.67162361     -18.75058129
S       14.15428696      14.17883119      54.51529471      -5.11868486      -8.40482678     -10.11294028      -0.19365636      -7.15760977      -2.05410645
S       15.58702211      22.93298377      42.62150323      -3.48466946       3.61608192      -7.01018697      -0.82966848      -2.04995616      -1.14970938
S       17.14923102      27.49507213      46.72389745       9.61195624      14.56882868     -20.58738735     -39.48465736      -5.65413646      39.06462427
S       18.35914293      28.12029596      42.01924546      -2.63045838       1.67953519       1.35395176      -0.15018023       1.79303061       2.03841240
S       19.79587207      24.57388796      49.33348964      20.69169911       7.43725692      10.60895627       6.29492997      -8.96999001       2.80028156
S       20.42712530      23.47222427      40.51141065       5.18074728       9.71636570     -11.70540877      -0.17632065      -6.97637135       2.98107178
S       17.20348123      29.34410177      45.84281177     -20.93163325       5.43134662       0.88149093       0.01139356       3.50593259      -6.44713498
S       16.04521559      25.42222921      44.30823873      -6.08944151      -6.57800631      -3.20200495      -0.16068160       1.14595195       1.52082391
S       12.09722406      22.64221621      48.25754207     -24.78606253      17.68110633      -0.87178376       2.68548405       9.25142811      -8.80896400
S       16.03215937      22.14383313      47.54775921      -2.13773564     -13.47373499     -18.70201164     -10.17388584       4.75649073      20.30071510
S       15.00158114      23.88135692      59.80933828     -11.25550629      -2.56026552      -1.67166214      -0.74921983       1.30941363       0.40756778
S       17.22902206      26.45746928      49.31856673      -8.41675160      -9.49248826      -3.36058460     -14.50624467       7.73992723      -3.43407443
S       23.89597600      20.68763230      51.07455908      13.99303039      -8.18433607      -4.86467258      -2.33372513      18.13669696       8.92760235
S       18.05380793      25.19535563      50.32061268      -7.62983450      10.95554529     -12.00594044       3.07951225     -11.00941648      -4.54065008
S       21.37305126      28.31292792      47.19099181      -1.13487435       4.07556277     -24.78942523      -0.85885247      -1.51823932       0.54092881
S       17.33414823      21.86646493      51.87060206       6.19099982     -18.68709785       4.55227934      -0.12240517       3.60954826       2.59474935
S       21.24018842      22.12958981      51.11090093      28.04950569      -1.74001386       0.22866220      -3.65198617       1.51617877      -0.98295928
S       25.87543233      16.56366757      41.46898043      14.47062695      12.45374792       0.44299975       5.48697781      -7.61969739      -7.19881191
S       20.71642886      21.41663438      45.90307993      -4.38204160       7.28869399      -0.29170703      -5.33099480      -5.10742262       4.20424666
S       27.31576302      14.79702787      37.14756021      32.00534895     -20.31200435     -29.90015853      16.13905208      49.40783713      16.52946629
S       26.21662756      15.48705442      49.78458779       7.27759935     -12.72346323      17.60124305      -4.00496105       0.22654769       6.54241046
S       25.69381694      18.00266319      42.92340734     -26.44578250      11.68930147     -31.26702454       6.65234825       0.42894500       0.60207759
S       21.91888271      21.09728756      48.20627352     -40.49244979      -6.40201920       7.52696750       3.66561514       0.84739381       0.84004919
S       19.50203927      16.55902725      43.84766863     -45.29200274     -10.28015054      -1.05398315       7.27929987       0.96885420     -11.35694125
S       21.60090667      16.81386801      43.27173401      -7.80944384      10.79321171     -17.29426692     -12.58890530      -5.53238639      15.48575198
S       22.03430602      19.38759858      51.46124059       3.27091555      37.62573718      10.16875288       3.57781824       4.17598809      -5.74003231
S       23.53773505      19.96418293      53.66022566      -5.00385961      -7.56298688      -2.04916967       5.97922278      -8.18082239      -7.41825985
S       19.12147201      31.75551942      82.17741738      -2.29236418       7.83312858       0.53882111      -0.09222989      -1.21560997      -7.17346024
S       24.03386477      22.19519177      43.62783384      -8.49126877      18.09336879     -23.84248635       1.42191134       1.45213655      -5.24943744
S       29.46465110      23.16773873      52.34226973      14.17021071       5.85453817       2.39879317      16.65610579     -24.17944805       2.90652185
S       25.06731058      20.25651542      52.49569802      -1.30301636      -4.11660659     -16.90212682       4.34352015       0.51756085       2.52830798
S       21.61521861      18.44406971      52.91435201     -13.80297721      -5.04389452       6.53017829      -3.48548010       5.15311042       2.27131229
S       19.97305671      14.13416178      52.51655067     -24.32768794      -1.74902149       1.88421484      -1.47114701       1.60902753      -1.55978815
S       23.13497467      23.43627501      42.17166398       6.84410989       4.42725668      -2.77093631      -0.13582916       0.38679407       1.70126904
S       18.93010905      24.38056876      43.21800961      -0.11556771       0.20833722      -5.45032018       8.46194308      -2.12916901       6.31597709
S       26.61245316      28.87195877      43.11188209      -2.82482491       5.40928865      -2.68666573     -12.68675423      -3.39018882       2.19053549
S       27.42114650      22.37973056      48.72159725      -4.17596254       2.77422455      12.07108659      -1.10569289       2.09915619      -0.10938694
S       26.88586657      23.44231782      44.17978785      -2.08526374       0.97663220      -0.24862653       3.16693148       0.57440238      -1.03881362
S       26.56658768      27.95831165      46.26451918       1.95540787       3.41083640       7.54422583       6.57528980       8.86662233      16.49107042
S       21.32081608      24.19230054      43.91190436     -20.62237095     -14.96705310     -21.38471207      -2.95311119       3.49900037      -4.23339097
S       22.72960675      22.69213393      47.11369019       6.53965519      -4.98482206       6.93659437       1.81951379       0.91848150       5.25035285
S       15.23342019       4.26896820      44.28107357     -48.81616567    -106.96931377     -24.92488926      27.43476426     -25.42442332     -37.02308834
S       21.30150613      29.78738057      58.75207850      -7.67483038      13.75831273       8.55254013       1.73512913       1.71490249      -0.40015246
S       26.20910981      30.24959165      50.61862933      -5.12326523      -7.45863746      -7.22939656       1.58283153       0.44783773      -2.92068721
S       27.70046411      22.89961869      54.73783334       6.99624044      -0.73426323       5.88321508       0.51911369       0.45142978       0.33446520
S       25.90968432      31.68732149      42.07244077     -20.62178120      -8.05000848     -11.41931987       8.18283167       4.71234527       4.35745512
S       27.13870265      24.71326647      53.85370563       1.42859337       0.58055516       7.25861530      -0.66978229       2.76366757       7.47448319
S       25.88163608      27.52570371      48.14467640      18.56958157      -0.65532223      -7.81264894      -5.72715684       8.65728279     -31.65534894
S       25.57322781      23.52615166      56.89684083      14.31502489      -1.17000636      10.35768367      -1.67518015       0.35662655       0.59996157
Sb      16.18029466      13.62094038      57.55572484       0.50596857       4.89820676      18.28804569       8.42388441       8.41022193      16.14479489
Sb      17.71893257      16.55510442      44.46637011     -10.78415799     -36.15976007     -41.34181271       9.91657766     -15.33246737      10.23971153
Sb      13.33407592      28.04958425      47.65033294     -11.26717885     -10.89913595     -22.59762688       1.47922194       1.43917525      -1.42125058
Sb      13.98819292      16.91513074      50.98428809     -36.87135574     -11.57776215     -14.29068642      19.00480687       9.90411971     -14.35691443
Sb      14.20567890      21.90694602      40.87476838     -16.02965282      26.08383288     -47.12961472      -1.92600818       0.07428528       1.20361063
Sb      17.46868087      24.63121771      46.18185330     -14.41480655      12.11971427      21.49107552      -0.82955276       6.77886650      -3.20452918
Sb      12.02834961      22.53423192      50.28099055     -29.24302130       3.41936879      12.48323242       0.36893250      -1.53952669       9.76243393
Sb      17.25844548      25.05165569      53.03455890     -18.22586330     -17.08762677     -14.04900329      -8.32196536      -2.71093323       1.51263570
Sb      20.72996633      29.33595255      41.33557266      -3.71368516       7.78634324      -5.61595950       1.83338136      -1.06615396      -0.56986151
Sb      22.87001488      19.24262581      46.22024655     -72.62914111     -10.60281753      -6.93293536      -1.63154181       0.61208492      -6.14862499
Sb      20.49877693      13.60333314      47.89797376     -19.92839780       4.13461818      -7.47188811      -0.62493799       2.39277719       3.01004149
Sb      28.53932144      15.89229355      50.41551406      48.85771423     -49.82114520     -82.29252658       0.53410921       3.47049225      -3.37995837
Sb      21.55572404      21.69865314      42.05015498      17.69318169      -5.83096621       4.42876935      -1.67944584      -4.36271103      -3.13750683
Sb      24.81583121      27.59251073      44.63935232      -3.97158502      58.57173726      -1.07996986      -0.33132709       2.12478191      -2.69883879
Sb      19.52660105      23.35678252      46.82778897     -35.08566215      37.30620471     -36.30882008       1.52726077      -0.06519724       2.31344905
Sb      22.13772063      26.05844019      57.24753253     -14.36867901      10.64785259      71.14955333      23.14574176       3.82393403     -41.43693427
Na      36.37264521      20.65499748      57.51613056       9.91571657       6.41898073       2.49205495       1.50742018       3.08544974       6.69564690
Na      31.06286672      33.61055845      62.35213775      28.37078349       9.77305973     -12.78625525      -1.81512567       3.13742894      -3.15613529
Na      15.32059630      15.29639420      56.05166768       2.30064535     -11.26597046       0.08296586      -9.33283006     -10.91338599      19.68480684
Na      11.30943375      17.21862107      64.90691785      -2.55314680       1.96806824       5.17022210      36.60531542       4.28841331       6.68947364
Na      26.53082105      27.36271145      60.57172903      -2.87883373     -12.66231341      -3.18744218       2.91319374       1.42041764      -1.39627973
Na      13.42723792      17.13047604      53.42313314      -8.44368842       2.41056872      10.14944797       0.54378940       9.01003196       7.49544834
Na      13.36665164      19.57361922      63.63189668      -6.11812348     -12.77576851     -11.07877387       8.75011518       5.09132512     -30.25502784
Na      16.28146318      16.85523525      71.07633046      -3.46497570       4.36466002       0.14829828       0.63980444      -3.06948309      -3.50567554
Na      16.61595390      12.76968081      63.24430287       2.32743555      -3.26650278      -0.29267285      -3.21334771      14.09420158      -2.44008565
Na      13.65175836      18.14920425      71.17725419       6.46150231     -11.74552901       2.49710440      -1.31817111      -0.38925942      -0.71934318
Na      12.21252372      15.13772205      64.73591919       0.29767634      10.10799762     -11.77957625      12.75080005      -7.04707526      49.81492155
Na      19.72848289       4.27211216      70.27573212      14.65290757     -15.65922305       3.69954678       0.20479154       0.36078637       0.14564401
Na      26.19644301      25.93858362      57.48125661       7.85675403      -4.62847267      16.05796874      -5.49976317     -13.50437242       9.63239502
Na      16.41800510      26.88821989      64.27732334       9.41133854       0.15589179      -4.88122613      -0.35697859       0.31850496       0.83380178
Na      10.22483792      25.01458434      60.88007393     -19.48374469       0.77836748       4.92207417       0.14692525       0.56402833      -0.29617930
Na      43.53320211       2.94202320      77.30520357      13.95477481     -33.93064234      48.35002434       0.92236283      -1.39931205      -0.40979477
Na      35.37485150      10.39013341      62.03296315       3.83009522     -45.92653886      26.84358475       4.89342873     -43.43406222     -18.15328973
Na      50.45056871      25.04216112      53.16827807      60.79561979       8.10380231      28.53293752      -0.73610500       1.35020713      -1.71345029
Na      19.61128495      19.29716144      85.31220165       7.49372351       2.04619142       4.46446735       0.43947408       0.16355631       0.50277781
Na      -2.31997546      51.18015558      81.51065048     -35.93948921      30.98719130      22.38758290       6.92612005      -1.08768243     -29.00499864
Na      44.33709206      19.60278786      71.36065509      -2.65346203       4.52895196      10.23878987      -1.07873124       2.25837184      -0.87106182
Na      10.27710849      19.52878579     -72.66224499     -47.63151269      22.14090116    -168.94130732       8.36081926       1.60173163     -11.60153981
Na      38.29115836      57.27137161      88.32023456      -8.82886483       2.45832202      -4.00660373      -0.72292116       0.57045019       0.55931199
Na      35.44379709      35.10946464      60.06270246      42.87266636       3.60612799      14.58887621      -4.73598991       0.51915004      -0.79916348
Na      22.44274250       7.56809837      55.19515120      20.21780316     -43.00223955      -0.01717721       9.10302658      -0.20270792      -6.05580496
Na      35.52319656      30.85939773      77.78078203       4.82742382      -1.07845974       0.24557775      -2.31228899      -0.89359585       0.29621860
Na      28.26620195      16.09624472      57.12485090      -3.74901070       9.67972117     -26.74273713      -6.30757893       9.65947117       3.43658810
Na      24.07472078      16.42422639      66.11830581      -0.64413151       1.48617778       9.78929191       0.34512034      -0.18644780      -0.21634257
Na      18.31479920      24.15777344      63.75693651      -2.50290969      -4.89929513       7.42923926       1.23513820       1.25607526      -2.06430531
Na      20.80840459      24.41088310      76.83019092       4.26765702       0.38790500       1.53805199      -0.16996425      -0.01707437       0.11068879
Na      22.59933824      17.77273230      68.59270889      10.15098733      -2.26549028       3.76056315      -1.22865453      -0.87207175      -0.47288239
Na      19.71239564      11.10779556      69.44016727     -17.35499433      13.59833994       6.61073697       4.00791168      -6.76876998     -10.33347330
Na      17.80098945      19.32053482      73.12410101     -22.10824368     -18.76984111      19.79917234      -6.41316061      -5.56198193      -4.97380831
Na      18.46274290      15.92883039      68.41915262      19.34469741       4.79241429       0.95673394      22.18885103       1.98794187      -0.28082728
Na      29.89198051      27.60120800      70.72092568       7.40947757     -12.87593183      -8.67145166      -0.47164744       0.95536014       0.72812314
Na      28.91172345      16.09954234      64.41421883      15.59528730      -0.53918061       0.13575383      13.15313137       0.44954226       3.58674271
Na      17.63583405      17.92254475      64.75668106      -8.21499536      -2.46754287       2.41145821     -13.28474999     -16.55543588     -14.06839885
Na      22.98516697      31.98564815      60.44610143      -4.02905926       1.49887460     -12.16600122       1.04663195      -1.64709828       1.80077577
Na      22.95671622      20.89143162      59.45246458      -4.89151443      -2.63559364       5.37141414       1.89956114      -3.30311415       0.07814858
Na      17.60984262      22.50299942      65.07521887     -16.40130476      -3.27295230      11.41968548      -1.17504675       2.00833649       2.05383490
Na      23.33454112      16.61146778      61.06245644       8.55038488      -2.72648508      -0.59314772      -3.85740650      -4.14277474       1.16001557
Na      22.00804623      25.34443851      59.19217446       4.30902605      -4.30850425      14.14095157       3.70614881      -2.87372613       6.62864200
Na      93.81683514      29.76643731    -146.07776953      17.90938415      67.92663912    -154.26367098       0.64230875      95.12810787      10.77953071
Na     -38.82469538     -11.97939252     148.56034826     -12.58712172    -202.29084997      76.48971055      -1.52375014       0.20136019      -4.36143760
Na      60.20336609      27.99418800      36.04384491      -0.78703858       1.71635332      -2.29004120      -8.95352339       0.11452227      -4.31665650
Na      36.60354280      30.54722455      81.54601060      12.93424607     -11.75792094      19.54462207      -0.50403456      -0.19568322       0.51224850
Na      29.30348289      24.27695399      74.94570938      -2.06707728       2.40801357       5.43342473      -0.24753346      -0.55699966      -0.72020581
Na      44.33478804       8.73903277      83.84163585      -1.86578906       4.26293122       0.44621207      -2.66838680      -0.44584671      -0.18327138
S       12.79631806      16.44266141      56.48719196     -19.42518232      15.44897908      -9.88368174       2.05660915       5.52378362       3.99079617
S       14.18315475      22.63452625      71.47577440      49.37858279      41.91194312      31.51970707      -0.65052177       0.18722708       0.34044429
S       16.52744646      21.70180091      55.94585514      -3.46021620      11.08250585      -6.41323693       2.10922500      -6.03785225      -1.14886074
S       17.90526816      14.60837705      64.70378389      -6.15596301       3.08669131       8.42827709       6.17240644       0.81997355      -1.00856107
S       17.74809461      16.35686601      56.61184233       2.27132469      29.87954891      -7.05734707       1.52582279      -1.46400707      -4.30861577
S       24.14134840      20.18751650      63.19082141      17.74301650       9.29590154       2.51495530      -0.47576304       2.48258014       1.38606601
S        5.48915316      13.39392815      57.87979356     -29.96205847     -11.87774715     -14.55673978       1.52277630       1.01693382       2.26576883
S       12.80275291      16.50595355      62.75808960     -22.64975188       6.62313174      23.68927477      -1.13072249       0.47393921     -71.41409541
S       14.40050694      16.60048833      62.27770087     -62.24864761       8.19152279      -4.35272747       1.85346839     203.11539166     256.32930581
S       16.17638363     -40.66591891      61.69049589      37.79141670     -31.70803396     116.07078440    -147.23952201      48.97386208      32.67970673
S       19.56694258      15.89109436      64.27604108      -4.87442258      -5.38317041       3.94690677      17.79604736      -2.05408941      13.52736576
S       19.06112786      18.51193747      68.76745307      -5.32252332      -8.05865502      12.33311355      -0.63396665       1.29909362      -0.73746542
S       19.37870059      22.98629393      61.39836829       6.27268636      30.44994859     -19.73957408       1.47695181       2.61770566       0.49825766
S       22.34920626      16.37173623      73.19449469       2.74725132      -5.45971945       3.73279421       0.09728613       0.26365120       0.60770676
S       25.54276043      14.23076607      72.93318033      52.10103838     -27.25874321      21.96380417      -0.04966297      -1.40307285       0.16650988
S       14.33863563      12.14975501      69.20757271     -14.50905832     -10.53783092       4.21030220      -2.23040154      -0.82624940       0.54410714
S       43.97567358      -9.09008355      21.38012465     104.71270995     -27.48564923     -88.15088972      18.49631589       2.29666318      11.40051450
S       70.32124712    -129.04184758      69.69065686      72.89384531    -419.92644886      -8.05737794     -43.03642444      -4.58147488      33.21085802
S       19.65155771      26.34184765      49.87473317      -6.49973607      -2.33090130      -3.17472405       8.73725313       7.80621424       2.43384550
S       21.29292745      24.54609786      63.64437993       0.49403484     -11.58966316      11.85135833       0.20619044       0.15687248       0.33639241
S       19.06156561      25.35720158      53.44658101       1.87195100      -3.64068823     -35.72925785       9.01885679       0.47877218       4.02618164
S       25.08069365      24.28521029      63.71187788      10.32310471     -17.79480233     -10.07581532      -0.51297529      -5.26636703      -5.09143437
S     -329.42249051     291.56880408     146.13482412    -907.42233820     681.98428902     243.85499756      31.32645175      39.97974302     -43.51959296
S       36.43299477      23.21656489      73.14692920       9.60929966       2.88876384      10.38183431     -24.48306877      -3.13138853       2.68482970
S       13.88639680      47.71696279     121.06654637     -89.70558191      31.04684430      67.60146675     -27.64430073     -57.26907959     -41.88723847
S      153.54842258     -90.35248906      57.64696800     327.24572477    -295.20925115    -341.32262958      34.12077548      -4.49506282     -42.39550004
S      -14.76449683       3.53044773      61.08041851       0.36090040       1.01224114     -28.79670773       0.28072796       1.48009573      -0.35809970
S       -9.75653666      24.20222030      15.70921089     -21.18749439     -60.45186430     -34.34606594     -23.45209676     -19.31586399      50.39872017
S        3.27416226      47.25822382      43.20494637      31.43496379     -10.27894993      -1.33557802      -6.89500037      -2.08694568       6.30604423
S     -131.02911444     167.89990399    -275.52868986    -242.66505225     308.23560853    -691.14794999      -0.16934632      -0.38599678      -0.24940899
S        5.43085031      55.22857174      70.06856402     -83.64946638     106.35069228      78.98837354       4.85202149     -15.22664403      -1.04985870
S       88.61397073    -115.55115505     383.49251928     160.13144838    -316.88392224     567.29262457       4.76166315      -4.24323133      -3.97151397
S       17.22583997      18.77886533      58.22856526     -24.13970321      25.16715267     -19.90928862       5.65066131      10.27966144      -9.27800996
S       26.91318214      17.33473210      58.37701399      -2.54274578     -32.25946474     -29.96452099     -17.49815627     -36.19742805      -3.59311925
S       25.75370128      17.81622519      57.14581988      39.68665318      -5.48562390     -34.57095291       1.84154516       7.56655247     -13.37751832
S       23.84091549      22.39097048      64.48112461     -26.88606381      38.28590724      30.82558469       1.26425138      -0.44052106      -1.09582712
S       22.70878996      15.56400462      58.13796790      -9.92150999       3.22124390      -3.42696383     -45.51305476      47.13144281       0.74083906
S       27.36147330      18.54084667      59.07919393       6.81474985       9.76065405       6.33761585       8.99594007      32.31510488      17.80142509
S       23.86954102      14.29933525      56.02271102       3.53920012       7.53047992      -8.46586669       4.92979902      13.44400550      14.88895663
S       20.01523155      16.05499129      66.92529343     -19.72048472       6.04429467      32.56437425      -2.71307147       3.78311157      -9.14245278
S       21.10787666      21.61320841      63.46905732     -15.61622668      14.28845325     -28.15993524       7.38357729       0.41889634     -10.41572838
S       19.37372643      19.19487258      73.93947341       0.63715731      13.32672707     -28.43391260       7.73048745      -4.65617869       4.94351332
S       29.99508837      26.17877156      60.62350181      22.60526634      13.31591628      -0.84051648      -9.77882292       2.32334906       2.75603340
S       27.37568451      11.54262717      70.97400052       2.57065791      -9.77559781       5.38279465      -0.49488012      -0.67392650       0.05053255
S       27.05161692      20.16512453      69.62996018      -8.04757918      28.21116071      -6.02951969       0.01630465       0.96363614      -0.84055936
S       15.82301392       4.93089719      70.48893020      11.49674778      -1.02703888      -0.84843690       5.20860577       1.63698090      -0.99773035
S       38.87513945      35.72978624      72.94043760      19.21303086      13.96871135      48.34389915      -2.93906733      -2.00481298      -0.98152621
S       30.77479147      14.70861961      65.94264833      28.48680158     -15.04871231     -19.36153918      -2.08901683      -1.07884757       0.17464134
S       22.72214925      23.52039172      56.94330253      -1.37661587       1.83776906      -4.51683603       2.68573159       5.15322798       1.93085685
S       24.74585834      29.95002534      60.66013809      -8.17116631       2.60273070      -6.01853438      -1.29635725      -0.60060074       1.21347518
S       22.88760994      34.39808198      69.06181819       5.42975531      50.92648271      74.64062525       0.04086388      -0.32506586       0.35433642
S       32.49943491      23.31403574      76.82371192      -1.68498325       3.73230138      19.36850342      -1.34634547      -0.16764674      -0.81406129
S       21.74238333      23.48887405      59.78980919     -20.36785595      -3.62694281      13.02568494      -8.71038717       1.89203510      -1.55482640
S       27.54764869      19.84450127      65.03652585      -7.56820921       4.72714439      -0.63137285      -0.59877243       0.31356318       0.48925088
S       19.20865624      30.23768140      54.24669252      -0.24424407     -22.80020145     -21.60934278       0.13488189      -0.16002754       1.21789553
S       28.07253966      22.05206212      57.78824337      -1.48082394      -8.11017445      12.55670769       1.90374707       0.14479869      -0.37172587
S       25.41321627      18.60603979      75.74552518      -7.50265014      -3.28508678       0.29434615       1.56404892      -0.23520309       1.34803782
S        4.12071616      44.15235751      91.64308419       8.35627218      -1.86363065       3.89944582      -0.06162235      -0.29550983       1.00411257
S       29.64612477      34.40060660      52.90860547      11.43566744       3.31739142       0.91755037     -23.18713636       6.10249169      20.16079005
S        9.51726867      -3.71744636      83.08513859      14.49594558      -9.56013940     -21.00708413      13.29048519      10.10886734     -32.67747517
S       90.36038321      23.70866973     122.80650664       0.85550447     -12.48487726       2.54758252       0.02380675       0.20200861      -0.30863534
S      100.67523280      33.84536044     129.55137081     -20.61367650       7.88551056      -3.43318847       0.48355951       0.36894491      -0.45749043
S       14.56076915      14.32661017      88.33793622      -0.74711325       1.24660959      -2.65449886      -0.44365299       0.38815554       1.72874482
S      -49.58872371     184.57164176      27.13345198       7.18585479     -11.69558634      -6.95096596      -0.56389152      -1.33673337       0.88541461
Sb      15.77114106      14.56963660      73.76380185       9.54936409      -1.91495939      10.38073386       0.63987767      -0.10516453      -0.64835570
Sb      17.23997926      19.80359246      60.35753705     -11.64289987     -14.93406353      19.73843086     -13.43579513     -27.31748992       2.97027946
Sb      39.13506621      23.24100048      90.42696448     251.74501509     -23.52633652     273.84528805      -1.28058270      -5.99034310     -11.91228974
Sb      13.43591097      16.63464986      68.33503965      -3.55484286      31.30698436      -4.89250476       1.87037148       2.07167404      10.83768272
Sb      15.30768833      23.25463962      56.23374435      25.17895656      15.27041410       3.64319607      -4.86642422       6.78771057       0.39083604
Sb      11.11798115      21.22748619      56.83594092      -7.44515076     -56.05822821      28.14104671     -11.95313305      11.51736412      -2.55239019
Sb      13.11437361      23.13473084      62.38467276     -19.89764866       4.62394520       0.81482309     -22.81602838       2.00449633      13.77496206
Sb      19.99827027      20.21164528      67.16553121      23.82575708     -11.45835435     -11.56373099      -0.06007985      -0.56245560      -0.48394876
Sb      21.48501841      30.74497016      55.79119516       5.95292258      14.30032500      -9.55298009      -2.25358450      -0.15363494       2.53612184
Sb      24.95968052      18.12581155      60.13079950     -18.33099371     -19.63011573       6.42399206       5.98525118       2.51778775      13.42464589
Sb      22.10452391      12.96638984      64.70500806      23.85473312     -18.01968480      -7.43683151      -8.19098523       5.64463277      -2.74917833
Sb      15.72399708      22.97242292      77.22165299     -18.03815287      13.78277452      15.30590212      -0.01348105       0.28594196       0.19451407
Sb      22.37963225      20.61375505      56.38469223      22.07316717      -3.45280443      -6.53216191     198.65615421      43.38075889     -38.10985047
Sb      24.95811174      26.50693772      62.07264016     -42.71118469       9.44445967      33.44960156      -3.54255766      -1.47984536       2.16618453
Sb      20.15454777      22.29228989      65.05204769      -7.28087092       4.73689875      15.84186875      -3.22827748       6.90734295      10.54458495
Sb      32.83674268      29.89587055      70.98447378     -10.62479177       3.38989183      22.66894417    -552.69957766     304.39111718     787.34114927
Na     -13.47913950     -15.16516683      86.23310654      -0.75546533      -2.74097147      -2.71653103      -1.22293902       0.87652666      -2.29124720
Na      -0.07199194      -2.53637606      80.84055931       5.81768618      -7.32898720      -1.57975158       0.45320080      -0.44266136      -0.66154391
Na       0.69317233       5.53718887      83.58395608       1.38776023      12.35591557      12.53938893      -0.09488007      -0.33548788      -0.31760091
Na       9.08796949       2.31155033      85.20959960       0.75156278       2.72513122       9.09864383       0.07799779       0.01139341       0.79577933
Na       1.37018251       0.13677584      82.04681924       7.49867753       3.65742636      -2.26176692      -3.70331983       5.54903119       2.16949843
Na       2.73381933       6.51869568      85.46033350       5.23003466       8.44032911       4.83303826      -2.18370546      -2.43404981       1.28352339
Na       0.58986458       1.76721021      84.28446316       1.78781164      -0.32930936      -0.27992217       1.41709950      -0.58084821       0.89803323
Na       1.02901310      -0.06503337      87.53350589       0.48536828     -11.47886751      -3.58728348       0.01320939      -0.55524872      -0.62288005
Na       1.35678938      -1.60859654      83.27320087       1.24841643      -0.10431761      -8.31567841       0.51169374      -1.81262429       1.61439187
Na       2.11652271       1.51219931      92.74979821      -6.97544124     -13.22234485      -7.05439440      -1.96472685       0.12152807      -0.06825286
Na      -2.86599706      -2.45388833      92.81654635      -4.95320428      -3.93500273      -0.00109422      -0.04935386      -2.26806545      -0.29182764
Na       2.62048080       3.52130434      98.16005543       1.21381127       5.06661672       9.59838790      -0.46064965      -0.30100215      -0.11317064
Na       0.67561697       4.89916623      56.19756463       3.83485302       4.19317776      -0.39589354       1.83783047       1.04427981       0.95981799
Na       6.32053723       5.48437123      79.92951656       0.34664207       2.16113199       2.51068041      -5.20162908       1.30605115      -6.09211999
Na       1.14344277       3.45128474      76.14526665       6.18931299      -2.72146088      -0.49764067       3.29378971       4.08915571       4.41469869
Na       1.01002765       3.44384466      79.31552439       4.02645806      -8.91409289       2.85713542      -0.00462962       0.06467664       0.86944901
Na      -1.19407730       2.99717661      83.57588659      -3.09339122      -5.69177369       5.90519744       0.74730779       0.03243606      -1.39120523
Na       4.44604857       4.29221707      82.09373364       1.11170240      -1.90023842       5.34155544      -1.02394359      -0.84750845      -0.19464702
Na     173.33901137   -5006.69361814   -3460.61067130     242.97927698   -3119.54394849   -2517.58332490       0.95621705      -2.42080340       3.48853750
Na       2.93457900       5.52550405      88.49736302       1.97910808       0.70820255      -5.88697705      -0.15237264      -3.22365380      -1.49200936
Na       0.14014599       3.69023626      90.89055711       4.14244961      -3.24064117      -0.43236453      -0.30554651       0.63979366       0.39078757
Na       4.26625788       5.41777036      91.62866222       7.65520362      10.81214704      -4.57518709      -0.97887169       2.75196949       0.40533877
Na      -0.15050737       5.06088936      94.56201027      -0.25548078       6.75485868       4.58460427       0.42470243       2.44860610       1.28327073
Na       3.91913167       5.81032278      96.87935088      16.33164460      -5.67021064       4.27832832      -5.26451958       1.77930652       1.75767906
Na       1.34766110       5.56662796      71.04436448      18.71256578      -6.00343198      -5.16883551      -0.52907293       0.03904953       0.49975824
Na      -0.42541364      -1.84374509      93.88024737     -10.86059923     -45.39945306      74.95786417       0.06691460       5.39922857      -5.54319477
Na       4.04189353       7.33680942      78.15713310      -1.90601313       1.06138316      -7.79257082       0.20968509       1.14611958      -2.99867218
Na       2.88507162       9.31690157      72.55318547       3.44398897      -9.73107624     -10.49945013       3.22362826      -4.27582947       6.73913152
Na       2.30447094       8.04326669      82.83687461       1.77821706      -0.26152212       3.46506387       0.83993711      -0.58679598      -0.18499737
Na       2.28838997       9.06789822      85.29277182      -4.26183334       0.12770265       0.56213572      -1.33058002       0.99964775       0.31330370
Na      -3.04768259       9.72171854      87.01707475      -8.05120870       9.39967506      -2.78820383      -3.56411284       2.97192515      -3.03001751
Na       2.05776418      11.05578721      87.07444027       0.28590118      -2.39410702      -2.15065792       1.14941447       0.66044461       0.64885066
Na       0.33609056       3.28074005      87.11383522      -1.08829056      -2.50643583      -0.02360677      -0.55821636       1.11951757      -1.36045524
Na       3.03160001       7.21545258      89.57991057      10.08152411       3.27619637      -6.82903022       8.59935740      -6.07519012       4.90504089
Na       1.19007255       6.78359298      96.69965254      -0.07060008       1.85736756       2.09750414      -0.27334631       0.43931385       0.35852204
Na       2.62741293       8.74041395      89.05375979      13.46712703     -44.58919941     -72.53221992       0.96892884      10.21854567      -3.03289729
Na       4.24527979      15.32624841      66.22196252      20.14730957      27.62148178     -23.31945112       3.14638987       2.99485981      -2.02453088
Na       5.31736443      12.86322163      83.99737514       1.72993265      -4.34726927       8.32454385      -6.21979652       2.23233601       3.58619404
Na      -3.16347883      12.73244368      79.18750450      -3.22897023       4.04395164       7.35517515       2.30818354      -1.15020812      -2.22462864
Na       1.37035890      13.20099174      81.61779805      -6.91842068      -4.67816969      -0.04182668      -0.60288563      -2.12183948       0.96522262
Na      -4.47327418      13.79068840      80.32692535      -7.66761098       4.21670349      -1.26651386      -0.03006118       1.74984156       2.15829405
Na       1.58564338      13.87993940      84.81930091      -7.10009464      -3.33336541       1.78505058       0.10078466      -0.02819952      -0.14845161
Na       0.01344773      11.79633587      85.80853082       4.35592192       0.29808291      -5.03879248      -0.16323213       1.73713161      -1.52389809
Na       2.93632906      14.15938873      89.86031970       8.47433354       3.38533442       5.77641430       0.56622718      -0.53894374      -0.78049023
Na       0.60817471      15.08374014      90.80108424       2.72235403       7.71032588       1.74808677       0.40653710       2.66691402       0.24284452
Na       2.40304876      13.95288666      93.24837061      -4.12244832      -0.94748012      -3.03735465      -0.10233291       0.28177102       0.03574070
Na    -392.33148962      17.18531995     341.12357576    -848.46909694      56.52464043     404.89913818       1.18373688      -4.50732465      -8.27558945
Na       1.86222697      14.93646242      96.12123925      -7.92160460       1.41131051       1.86639832       0.26944585      -0.18044299       0.36004734
Na      -7.65097191      20.10700464      72.76320231      -6.35015703       7.87571982       7.56162702       2.17230346       0.66393986      -1.82351002
Na       1.69839526      25.52339997      76.89487814      -0.54563856       1.62077158      -2.23339222      -0.39481028       0.05856473       0.80755988
Na       0.65594032      16.71554962      75.16103527      -0.72838246      -0.73367861      -4.03127250       0.36270383       0.23071173      -0.61618598
Na      -9.29415687     -16.80737913      70.68174340     -17.70913486     -21.38836813       4.92074157       0.00450177       5.64003810      11.64445006
Na      -2.24216535      17.93435122      83.02189292      -8.23761311      -3.89757167      22.30660042      -1.03085922       1.26871158       4.76198542
Na       2.71052840      16.38152826      83.66149760      -1.41421315      -1.52936927       1.69533905      -0.64507574      -0.55555193      -0.06119848
Na      -0.01568436      16.38689551      85.81928469       2.91616946       4.62884317       1.11447116       0.40494621      -2.35519183      -1.20639478
Na       4.78504074      19.87556526      87.73160798       2.18054916       1.35334869      -0.77843060      -1.09452643      -0.81053570       0.87571553
Na      -0.16740836      15.86476859      94.39860125       1.66455607       1.37494452       4.90399008      -0.08151939       0.48580164      -0.47917827
Na       3.54047710      17.99959792      92.40866845       0.19771005       1.01068906       0.99013562       6.93290784      -0.12607963       3.58850630
Na      -5.28229143      16.02314541      97.03629605      -9.48757323      -6.86622866      14.35813473       3.30445652      -1.93773023       3.64300006
Na      -8.51075449      22.85383418      84.14676818     -36.28420276      14.79807530     -45.36962211       6.96516671       5.67146641       1.91468080
Na      -8.18275485     -14.00732212     138.21899765       1.58646315       1.87579492      -0.64313344       1.19028962       6.16145808      -1.75372978
Na     -11.43545864      35.84509104      72.31014862     -12.86376627       3.58239366       5.11555663       0.26533478      -1.24703154      -1.38807409
Na     -10.69291875      20.25275172      64.10005787      17.81947609     -19.96189300       9.97221729      -6.82390400      -7.95338130      -2.17487389
Na       1.58812615      22.03390460      81.70152413      -1.02256467       3.88211633       2.34582759      -0.66404470      -0.13903586      -0.61794531
Na       3.12849862      18.57697947      82.43583104       4.73045257      -3.88713562      14.35540939      -1.91649700      -1.16012466       1.08482350
Na      -0.54138697      20.88631146      86.15584540      -4.97197580      -3.18824869       1.52389190       0.99466671      -0.87528935      -0.39595197
Na       0.04171039      17.94085464      87.33549366      -0.35929784      -6.37312302       4.55307748       0.37974300       1.18039873       2.25733713
Na       2.38386682      23.64520379      89.29152197      -0.44609308       0.76754350       2.16785047       0.43876176      -0.61196956      -2.76720643
Na       1.36119782      19.41183692      90.81446989       2.62347597      -2.27237653       0.57677420      -2.59912197       4.54821561      -2.10971058
Na       3.29662410      21.09719793      92.41274916      -0.00073097      -4.22945990       0.65660326      -4.02849440       0.30836627       3.36059452
Na       1.29662263      23.72673715      91.08753842       6.33546717      14.64640682      -8.17573210      -1.51377051       0.00237031       2.58161936
Na       1.56400824      26.27490842     100.79897603       5.79851851       5.76274148      10.01006690       3.53365106      -1.58783845       0.94949581
Na    -198.61464397     -68.06733997   -1521.34567018    -146.48668465    -126.36329554   -1037.25487927      -4.81402071      -4.34428131       0.35524630
Na      -3.27770896      10.69594361      66.51432832     -20.36060855       0.76134525       6.48179529     -16.28514650      18.62280288     -12.28154187
Na      -6.11620349      28.88230322      91.06957988       1.40149845       9.16962863       2.68314718       1.43013650      -1.17311799      -0.19131726
Na       2.67611779      28.92071001      78.32870718       7.81415807       1.69867973      -5.64762260       0.10563026       0.16063642      -0.11673636
Na      -2.57953045      22.54266600      82.44441725      -6.95422778       1.16897906       8.57263191      -6.97516877       0.82795418      28.91164959
Na       1.14932898      23.61975473      84.33455017      -3.87084308      -4.40910396       1.06761255       0.15712328       0.31052895       0.49448646
Na      -5.26034751      17.34291513      79.98080132     -19.38070926     -22.33050972     -16.31081166      -0.05902027       0.20929064       0.52678115
Na      -1.40796936      22.88243011      86.55511319      -0.96138730      -0.48470906       0.99782935       0.80289213       2.98952377      -0.77847904
Na      -1.47273471      26.86300819      90.16693618       1.51014953      -3.67771121      -3.86449597       0.44086437      -1.12959654      -1.27391766
Na       4.12295735      29.48669290      91.59765900      -3.83422437       5.06303286      -1.42745681      -0.87889299      -2.10016950       0.22282619
Na      -0.15968738      25.64327840      95.11558527       0.86136284       3.38019138       4.67494576       1.16915270      -5.48673600       5.70425833
Na       0.48557262      19.50506124      94.73014057      -6.95375430     -17.15159243       3.24899393      -0.14765025       0.02254215      -0.39882971
Na       6.97471630       3.76369852      68.40441236       0.69093233       3.89106745      -7.34535423       1.38620390       1.67645415       0.73252751
Na       6.12230635       0.05357753      74.40477879      -4.93912893      -5.47337267      -7.83260396      -1.56552108       0.71895154       0.00289263
Na       4.07108516      -2.75400697      76.81412022       0.84537512      -8.95160672       1.09946137       1.11776336       1.04933350      -0.55062583
Na       8.21108058       3.25148593      79.23167180      10.12431571       9.09050347     -11.84160540       1.72490099       0.74060237       0.00827290
Na       5.24810193      -2.31578755      81.22969624       3.08918203     -11.95619334      -1.75313463       0.87149783       1.70520583       1.36611021
Na       4.19379169       0.26099047      84.91688766      -1.92716599       1.41482254       0.26482738      -0.47625232      -0.45579533      -0.04193480
Na       1.80659303      -2.00299794      89.90856124      -1.69265366       0.76414198       3.00873923       0.31017209       0.31401349       0.26151711
Na       4.88748065       1.31230423      89.19302684      -1.81423802     -13.44800587       2.91514900      -0.06083809      -0.06392411      -1.35074319
Na       4.22126174       3.37953176      91.08355716       0.24881107      -1.70119412      -3.61354783      -1.09985192      -0.44562631      -0.78353749
Na       7.11383669       2.85750563      94.65349741       1.84717415       1.60093265      15.41490576      -0.23753471      -1.61280205       0.34305333
Na       4.86339932       1.14113255      94.44530296       4.98335425      -6.81011965      -1.51373933       6.97453720      -5.29894958      -2.50853389
Na       6.28623760       2.47219460      97.91352555       1.35258654      -0.41826607       7.12996939      -0.00391750      -0.00245422       0.27949590
Na      -6.44135040       8.67000483      97.81851995     -68.73407234       7.80224610      69.43666716      -8.45875246     -11.48299080      -7.66534726
Na       6.07910475       7.22267411      72.86093533       1.92425088       7.27308974     -21.66654250      -1.60404959       1.24017057      -0.37524292
Na       2.97004969       5.86942246      79.19389597      -5.66697205       2.54477560       5.82091144      -1.41663090      -2.06560979       1.46512637
Na       7.53577821       5.04064987      80.86836785      21.43805053      -6.90521292      13.03853618       3.73250611      -2.88886735       2.04364955
Na       7.36136980       4.57022269      84.12192806       7.12126702      -1.29452519       0.44559656       0.46563505       1.65344809       0.54230927
Na      12.38463213       5.26360238      84.90718200       9.97066811      -2.61128370       7.85430879      -2.68060752      -2.02397202      -1.13999195
Na       4.17518819       3.09021143      87.06256936      -0.69808800      -0.73217437       4.55296644      -0.13173984       0.17020895       1.32176119
Na       4.43449057       8.65460821      87.76899146       0.10131360       2.75153257      -1.47004326       2.05221805      -0.93197190      -1.83470670
Na       1.15347561       2.27659358      88.97184533      -8.03044780      -6.61572036      -9.65702728       1.11354913      -0.79078896       1.20432055
Na       7.61317915       6.39208072      92.19990222       2.76892683       1.20407673      -5.01450869       0.35132003       1.77980715      -0.04604026
Na       4.41305603       4.03653551      95.37999457       3.55269892       3.72435318       5.46615922       0.08407731       0.42141730      -1.44462678
Na       5.69037338       5.75081263      96.58718216       1.84593740       1.32956257       3.00885078       6.38750995       0.98394569      -0.41084750
Na      -4.37180171      18.97518666      48.39343837     -28.69903531      39.26376684    -100.87338523      -6.38774332      22.44840427      33.13601610
Na       7.32182552       9.05602842      79.97181004      11.85078223     -10.13670457      18.25444736       0.92653861       0.42078571      -0.88289815
Na       7.83781020      18.57607326      65.42833630      10.33026819      51.42241398     -41.13534035       7.97824100      -0.71290944      13.26076261
Na       1.29587500       3.45594563      74.85090284     -24.99122072     -43.05287710      -8.79537433      -0.04369806     -13.43933320       2.00607491
Na       5.64907307       6.51309505      81.83874345      -0.42656343      -0.30159839       5.14707829      -2.12783377       0.78061153       1.85920229
Na       8.46701291      12.51093770      84.63908491       1.38739057      -1.62163402       0.50844235       1.41906280      -0.84595766       0.65320484
Na       6.22334142      11.02412493      87.79503365      -2.35520081      -0.66756590       4.70022036      -0.27021605       0.24041873      -0.87553826
Na      -1.22624383       9.87395860      88.29271171     -10.11214242       7.78797663       4.40635446      -4.21497063       6.54347394       4.12248281
Na       4.66827971      10.25053328      89.51706354       0.12585063       9.45368470      -3.81482997       0.07509150       1.14424541       2.32483430
Na       7.44381445      10.60604055      92.33352067       4.62624267      -0.83982589       1.68789346      -0.42103896      -0.32441081      -0.45635882
Na       2.03818559       8.16224754      93.86862787       5.66335841     -10.83906236      -0.96294662       0.74595547       0.61994993       0.29944320
Na       6.32262547      11.78352074      95.47693807      -0.16799558      -1.31433770       2.45174962      -2.22281830       0.91905170      -0.78913766
Na      -0.49071908       9.10140449      88.40804166      -0.37429681     -11.40990435      50.90250393       7.96091093      -8.20314695       2.98637734
Na       4.60618751      12.23050012      74.72522507       2.99666938     -10.98486996      -2.83556220      -1.78913198       0.06499003      -0.98273498
Na      -0.28798564       0.58083628      42.89400637       8.08836997     -40.05981117    -125.87670062      12.72233743       2.72621918       1.07540126
Na      -0.41170959      16.85567486      81.05357297       4.94836433      -6.69002839       3.59440332       5.95324842      -3.54783327      -0.44499969
Na       4.43010466       7.58258465      85.04682960      -0.13588354     -15.58926026       3.72939211       3.53881738       0.70106801      -0.82793421
Na       6.43367880      16.00970477      84.88908841      -8.15088682      -3.97321695      17.35019680       0.12248512      -2.18218875      -2.32029185
Na       4.66286993      14.22798967      86.00787699       2.25644925      10.22807050      -2.78514647      -0.64407289      -1.12075946       0.62130460
Na       5.71945797      15.47291997      88.38307171      -2.75542636      -2.50846857      -1.40832349      -0.30302471      -0.92679173      -2.56379941
Na       4.66500187       9.56867382      93.32036230       1.10781299      -6.35854320       3.54673630      -1.76631323       0.92950440      -0.56637686
Na       6.80181223      14.27928060      90.76179431      -0.61604743      -1.37945875      -5.19703166      -0.00343845      -0.93630132       1.52493812
Na       4.60164160      13.33835473      94.46317674       1.89236542       4.78598207       0.46334687      -0.74597565      -0.06759544      -0.53801420
Na       5.67511501      14.23652671      97.03195273      -1.19005095       1.64805857       6.29746355      -0.25045071       0.44548768       0.04357087
Na       5.60578854      18.94622872      74.45502660       8.35040167     -14.93613740       8.26609268       0.17922812      -2.35734202      -3.70484993
Na       1.31441156      13.87253059      77.65231260     -23.89208813     -32.57467876      -4.13704224       0.46332661       0.05769827       0.28640954
Na       4.18667432      20.30787438      75.46733743       5.37346931       3.37973841       0.41208805      -3.28970734       2.58578818      -0.77588610
Na      10.42298017      21.49385246      74.25816730       3.99022499       3.12299294     -17.54960089       0.07050579      -1.92376621      -0.84019007
Na       5.06207829      16.95734900      81.60276386       1.06439120      -0.14429514      -2.99257748      -0.23974194      -1.88542130      -0.11521147
Na       6.26286392      17.85613469      85.59288598       3.09038442       3.06728907       1.69926614       0.34524910       3.01023655       1.04518861
Na       4.10199456      16.68706368      86.05935108       3.44667109      13.34936174      -0.67954996      -1.98299720       0.82151007       0.86992629
Na       7.56478046      18.91234164      88.33603714       3.76843150     -13.52548059       6.84497280      -0.02314262       0.16334488      -0.61540510
Na       2.12420527      17.69024939      89.05527962      -3.32150908      -2.03417035      -1.07850942       0.87661884      -0.72454723      -1.15473599
Na       5.69540901      16.51349328      90.07294386      -3.63258848      -0.25195486      -1.77457676      -0.04158295       2.84566860       1.93169677
Na       6.51744409      15.30577227      94.00477541      -6.07869782       5.56877915       0.92291951      -3.56465359       0.94884228      -1.10194058
Na       6.30382341      17.91619637      96.21764223      -1.13117049      -0.35330806      -1.17467305       0.30205326      -0.12983372      -0.13368675
Na     631.90991507      63.97708355      66.85293973    1002.74760451     104.59532411      20.20663794     -12.21800930      -1.36524171      14.01419379
Na       7.15265619       3.59777069      66.10482118      23.00841581     -15.15396696       5.27937305      -2.03325995       1.85643478      -3.49393418
Na       7.75583520      20.11169796      75.16082558      18.45849877     -11.91687321      -3.97565776      -1.40905016       3.42261487       0.84146276
Na       3.85695693      20.22125093      81.39979980      -6.16574544       1.93182254       6.05977306       0.64152229       2.13470462      -2.41096640
Na       5.58255236      20.11514522      83.44236661      10.17280176      -0.86578028       2.44449294      -1.35666827       1.46303901       1.22523664
Na       7.57735839      23.59542026      83.44304832       4.58586038       0.93528083      -5.86710496      -3.55375364      -2.07599683       0.00283074
Na       5.46032825      21.45519102      85.99075766       5.41671088       2.98915490      -0.48011366       0.50839858       1.02065373      -0.71194790
Na      -2.99562435      23.02807229      93.16876566      -4.15807893      -6.33488897      -2.08678325       0.42277544      -0.64690173      -0.11469473
Na       4.75204559      21.11500351      91.33623641       7.23015133      -1.44178662      -1.04800547       3.80445963      -0.80171032      -3.01411756
Na       7.07897403      23.03689506      91.85958397       4.25312231      -0.59634250       0.96217337      -0.61230706      -0.27579913       0.45870808
Na       3.12751070      18.38301385      95.88415163       2.02831954      -9.01432113       3.62266304       0.17996613       0.67651242       0.28595634
Na       3.65480402      24.26280212      98.76140909     -11.27954334      -3.54195319       9.94754376       4.64546112      21.70291995       3.43540782
Na      -8.89193816      22.44766542      81.05322109      -2.44714963      -6.60919130      -2.38044431       1.81780436      -0.55505328       0.04537780
Na       6.96576200      25.68750406      78.86019456       0.97014570     -21.40820024      17.75704715       0.00891584       0.50978845      -1.29911131
Na       5.65822204      23.74326611      78.19997331       3.58136529       1.10955403      -6.64748466       1.12539405      -1.03524993       0.36162379
Na       6.29806650      28.02875203      79.14649791      -3.52306533       7.75779215       7.88882717      -1.01478466       1.13000859      -0.41634882
Na       2.98104467      21.59896430      84.27196038      -4.51160119      -6.85817147       0.98057905      -0.03358451      -0.25753442       0.56341227
Na       5.97361745      26.12603761      84.52969390      -0.27454601      -1.15838590      -2.35348113      -0.76232700      -0.66487146      -0.07884173
Na       4.24034608      24.79593533      87.04055791       1.79639345       1.71114238       0.48890562      -0.02498541      -0.17662737      -0.23425002
Na       5.28720772      27.60465581      87.84966265      -1.85134580      -1.05614341       1.35353516       0.29680110      -0.37893886      -0.02372499
Na       4.60558087      23.78557905      90.52940146      -3.86456647      -6.42602543      -7.80757554       0.45049959       0.44689373      -0.12122431
Na       6.29506340      30.41706911      91.40435223      -2.79108679       3.82153943      -8.82281015       2.64613084       0.02108289       0.30977417
Na       4.41940992      24.00204366      94.26186335       1.46437013      -0.96109297       1.50484727      -0.53065959      -0.26773335      -0.51787145
Na       5.38262150      26.33187450      91.66631952      -0.41470212       2.93612594      -4.28901115       0.16851012       0.39724560       0.09063801
Na       9.24110799      -5.20622786      72.99867511      25.68162585      -0.74635830       2.02297335      13.26083662       4.17988934      -3.11645091
Na       7.26514851       3.99965813      76.06901704       2.05427058       8.51609278       4.06225737       0.87764206       1.95976166      -0.83473708
Na      10.93990207       0.22595371      75.77793074       0.93073626      -6.33769811      -0.84270418       0.81449709       0.03665958      -1.12457344
Na      10.15480363       3.08857170      82.72976588      -9.62478226      -1.80731652       9.95358676      -0.48877292       1.47959795       0.49011749
Na       8.41114731      -0.84694668      83.50788304       8.79740760       9.63968729      11.92839117       0.29806641      -0.11753445      -2.50595035
Na      13.33162457       2.69049704      93.92821866       6.72970747      -3.90755201      -1.93137729       0.85860286      -0.70773689      -0.39284394
Na       7.40729667      -0.33924867      85.22219085       6.73791023     -23.53078951     -10.40234462      -1.59202488       1.53428952       1.82342334
Na      10.60798042       2.91658219      88.20977972       2.15029498       6.42970321       0.57936175      -0.94675431       0.88716558       0.09957382
Na       9.09174971       4.41767314      90.97759540      -3.74778046      12.51723495      -2.17501446       0.29740196      -2.00645148       2.62329913
Na      11.30916521       4.00622662      94.04466057      10.09395961       9.81138486       9.93513101      -0.68008542      -0.03119930      -0.69519775
Na      12.57509407       5.36932051      87.95021845      29.30784939      28.78675345     -51.43856860      -0.17631892      -5.06176771       2.33445406
Na      10.75947546       2.67469623      97.14995552       0.37447736       2.41296301       4.36899821       0.51183634      -1.03133591      -0.72155780
Na       6.80480233       6.58706446      77.13099534      -2.26192663       1.14326635       1.97089380       0.61419267       0.20629619       0.04035951
Na       9.69760565      -0.11975436      77.89909627      -2.89195338     -31.61237171       8.95867998       0.21345279       0.12164175      -1.41700374
Na      12.33395382       4.09828113      80.44393370      31.62052716      -1.54286936      11.88635449      -6.84141776       6.88667168       0.37497298
Na      30.16661739       7.67406613      89.40804998     101.14973304      -1.72176689      38.93883456     -12.85028230      -2.18682532       1.07357860
Na      94.72100808      26.64409966      57.29277979     169.62644362      53.46533123     -27.74642865       2.41629384      -0.72259891       2.45775088
Na      10.26816357       8.47327532      85.38276043      -6.33299039      -0.00732338       7.59092838       2.15766089      -0.18621816      -1.10878208
Na       8.01555909     -19.31898919     105.97009207      -4.91281968     -38.33531989      46.57543748      -1.64501167      11.86209733       5.45283978
Na       9.01721893       4.88852040      89.04106306      -6.10660298      -2.52940340       0.19694246      -0.71039655       1.50626821      -3.21680184
Na       6.44428424       4.60681953      92.63464425      -1.85235896       7.72863853      -0.80997952      -0.56561168      -1.21763378       0.50143342
Na      10.39179624       6.46203152      92.21953069       1.60304618       1.03813215      -1.82282211       0.51491051       0.05723441      -0.41125213
Na       8.64840524       4.43187412      94.76784918       4.49713241       1.88605869       6.16478975       1.04466587       1.65199974       0.55352057
Na      10.22201723       7.10926247      97.26356962       0.14417250       3.33703534       7.40632972      -0.25686847       0.01500654       0.52272145
Na       6.36153647       2.39150756      83.67328741     -13.78948394     -14.94108365      44.20816560       0.38158119      -1.43120994      -0.71069850
Na      -1.57557453       1.83495780      62.24618229     -36.00011592     -42.91105528     -41.95388019      -8.83210890       0.23657891      16.67196171
Na       4.89540634       8.26619396      79.88311893      -6.12659458       7.47762697       9.93466826       0.03979003       1.43667588       1.46919442
Na       6.63096040      12.31723103      75.74837409      -7.08499212       1.19793841     -10.40412748       0.88231903       1.06412091       0.66509585
Na       7.17616716       8.15104919      82.40240584       0.89010675      -1.33490365       1.86276426       1.18264834       0.85095717       1.13781183
Na       9.60757646      10.30042477      83.09958158       0.82154541      -7.64935298       0.98445513      -0.62553626      -0.45529833      -0.63774630
Na       8.53235980       8.26443932      86.11690199      -1.27889534       0.15462347      -0.93510644      -4.01553094      -0.67061526       1.82435723
Na      13.79741623       8.36563022      93.35981058       2.16656185      -3.34689721       2.53943209      -0.15050771       1.07873451       0.31357825
Na       7.84295017       8.30700246      89.88934995      -0.00455898       0.28762771       0.35305802       0.19165392       0.18696311      -0.29508275
Na       9.38979526      11.06206730      95.84468026       5.09641085      -1.46307418       1.92711703       4.07402840       0.70400791      -1.17505432
Na       8.18576435       8.93643895      97.09554807       3.15470651      13.06257869      11.69642919       1.11968534      -5.09851740       1.70778716
Na      11.22363178      11.82151519     101.15878540      -0.48086930      -2.02876584       8.07118533      -0.12970870      -1.07626504       0.23446909
Na      -8.30061621      13.03722801      75.45902191     -61.82245959       6.52090269       7.46436766       2.24475445      -1.25714316      -0.13658158
Na       9.36994414      15.97802339      75.68890977       2.34776150      -0.61431711       4.43303807      -2.93319929      -0.69138959      -0.45447367
Na       1.72802329      10.49780845      63.58625066     -18.14704684      -0.98488389     -39.72515962     -13.24862589      -8.33179933       7.69269320
Na      11.25008202      13.64914388      81.67310024       8.90035192      -2.37886614      20.77363834       1.06709272       3.75419545      -1.67182953
Na       9.68558510      12.51378879      80.86748186      -4.87832441      -4.89522723      -3.81440104      -2.80966298      -1.26024999      -1.26463675
Na       8.81914178      14.76799646      84.88900790       0.52773710       2.66547143       0.61996048       0.01920827      -2.28333953      -1.20603027
Na       8.49972367      11.99905562      87.30090643      -0.09167897      -1.27122714       4.04885554      -1.13755147      -0.61875667       0.01434870
Na       8.32958865      14.83633483      88.45047492      -4.01418069      -0.08689475       0.09372600       0.83869097       0.16328493      -0.54493400
Na       8.30592874      11.95482113      89.92876218       0.29571204      -1.23616456      -2.74137261       0.51873790      -0.20707002       0.49554756
Na       8.54615221      15.31604645      94.31595487       1.32925787       1.06560744       7.71786286       0.98444759      -6.16687509       2.10212384
Na       7.98566011      12.64911603      93.96044494       3.41613872      -6.53495634      -1.26745045       0.39005533       0.99903202      -0.53319974
Na       8.96260511      13.94336265      97.71499001       6.12386159      -3.50944632      21.67092278       0.07281119       0.45510400      -1.52014587
Na      10.83798774      16.80153210      74.47044309       4.88011915       4.99244244      12.56568976       0.95020590      -4.01050673       0.85475967
Na       8.57599109      16.37110706      73.13858712       4.46578062      -9.05352059       3.98858082      11.63126875      -8.26206912      17.08686150
Na       1.93009570      15.02410590      80.66607097      -8.94379668      -0.51762190       2.40834579       0.86561284       1.98856595      -1.15932745
Na       9.06220256      16.53399987      80.51716474       5.53047418       0.73762019       3.32254703       5.07625069       2.27847968      -7.18516072
Na      12.21637288      15.80359644      83.55119853      -0.05475577       5.70032159       4.49337485       0.54448322       0.23502486       0.31351443
Na      13.76016965      16.94891992      74.41729336      15.77205903     -29.64820716       2.26506914      -0.18244825       0.92049954       0.66399610
Na       9.27181677      16.58214670      85.44014649       0.35320499       2.01177477       3.12495999       0.79193660       2.33749391       1.89827878
Na       9.90343410      16.69901565      82.64870705       5.86876930      -2.46804411      -4.04989155       6.47332842       2.49807220       2.94322094
Na       8.66471487      17.44649240      89.96868171      -0.05619985       3.43796887       1.44902911       0.28373567      -1.08392015      -0.05841746
Na      32.33503992       0.56234059      97.95564430     -12.26137268      12.06127652       6.78647221      -0.10434703      -0.41673477      -0.27237451
Na       9.17799757      16.88571374      93.92353661       1.02383683       1.37150077       2.94479983       2.10820009       6.44977540      -0.42990478
Na      12.09234863      19.16167506      99.39044044       7.42673600      -7.12342708      15.42130940      -1.55537522      -1.22130471       0.15307555
Na       5.94823187      12.10028458      81.35825169       0.87858635     -21.95183058      21.77527753      -1.69519219       0.17771693      -4.46969293
Na      17.22139966      23.20189314      69.45243724      -8.05755198      -8.06816836      21.36420866      -5.66723850     -23.15863294      21.44096704
Na      17.69752583      17.56894972      84.10196994      -1.25239078      -5.50494319      -4.50815419      -0.94483172       1.09315572      -0.69145289
Na       6.94511816      21.81010236      88.51318601      -5.57707096      11.18266250      15.19436758       0.18098702       1.04939962       0.45687979
Na       6.65652127      18.59768262      81.05595676      -5.87408780      -2.07513120      -5.15739715       0.26994336      -0.11510592      -3.63704321
Na      22.51724331       9.53774953      76.47192425       0.65858198      -6.15986391      -3.92082011      -0.47707887       0.24020174      -0.10947091
Na      12.63536218      20.96587551      87.33067904      -0.01510118      -3.74140281      -0.35604991      -1.57148584       1.21788033       1.02917036
Na       9.72886825      21.52302240      88.88933751      -3.64295245     -17.95142396      -1.68488007      -1.54818390      -2.48208568      -2.90283228
Na      -0.75921832      26.53857588     100.03444203     -25.12930318      24.22341995      16.77336903     -13.97396993      -4.30274028      -1.04607622
Na       9.42007678      23.53616349      91.45097841      -4.51539915       3.26415695       6.55931509     -16.66396899       4.34379077      15.99676459
Na       9.69512351      18.74925755      91.72018680      -3.00784084      -5.65215419      -6.58668616      -2.09712315      -0.05203091       1.44374521
Na      11.11671828      21.86064212      99.04019177      -1.27045450       0.08104016       7.72405854      -1.88025223      -1.21901440      -0.90791472
Na       6.70851842      25.70242812      74.08099286       2.55502794      28.30797401      17.02106484       0.34562132      -0.78189447       0.90491199
Na      35.90365311      24.30961233      61.29189052      10.92464755       7.07861426      20.55054037     -11.89421885     -15.48063231      13.05785406
Na       9.51159452      26.96603400      80.24443150       0.49807670       3.99717293      -1.49801297       1.26893371      -2.92002444       1.32307068
Na      11.39637300      31.02056380      80.78279331      11.19714017      -1.83465355       5.73167025      -1.95106354      -3.22515795       0.08449939
Na      12.11658492      22.99023448      89.35131189      12.53238967      -2.74357796      11.10910755       9.31964259      -3.95040550      -9.16098263
Na       9.10559094      26.84746996      86.71266182      -8.30082664       1.12659948      -0.46235931       8.12007837       6.04260099      -1.08568997
Na       7.99120566      25.82591188      86.82231828       0.40279863      12.28722236       2.42858904      -8.06645171      -8.18536162       1.14586756
Na      12.05210631      25.73528490      88.29952653       4.17598644      -4.64336483       8.32224809      -2.05193467      -2.38593449       1.85195269
Na      14.56181388      25.93019740      97.08820932      16.75073364       6.73619433      10.33921879       0.40411841      -0.94392133       0.07428330
Na      11.27286792      24.60420480      93.31013089       0.33287192      -7.25851688       8.12409720      -0.06716023       0.50427184       1.19515073
Na       8.15213446      24.18962085      99.78927865      -2.16155160      -3.81195423      14.33742289      -0.98448951       1.06996610      -1.24539406
Na      10.50040139      27.80416552      96.25139318      -1.56219982       1.18492222       1.16260434       1.23332588       3.80369931      -3.79000476
Na       9.03962147       2.48981815      73.93699988     -12.06754615     -10.31968042       1.14136686      -4.84399249     -12.64640938      -0.28497979
Na      21.25967847      -1.74644134      74.82336410      10.19840666      -4.33119160      -1.12054057       0.30816092      -0.30172164      -0.30992410
Na      13.06045803       1.53873655      78.89982816       1.39151339      -7.51965840      -4.00080327       0.78894703      -1.95052068      -0.53517777
Na      12.30418052      -4.92371339      85.24147223      -3.18469720     -14.05578926       5.82406585       0.38613596       0.77175064       0.59350733
Na      11.35829842       0.87273573      83.43645062       5.88396952      -0.20052123       3.43956579       0.58395730      -0.44533889       0.55789578
Na      17.50074993       4.04323544      88.07633655      36.93376913      11.13044106      43.45192624       2.43587924      -1.17897178      -0.21091645
Na      15.19726872      -3.34595004      85.48350281      -0.49064920      -0.22535132      -1.05806198       1.85348681      -1.44849320      -1.51570774
Na      16.03402470       3.04557145      88.82825976      -5.13586917      -3.34112214       3.15748950      -3.42760709      -1.83631593       1.17341535
Na      11.33281064       0.19512099      90.63375696       0.88775485       0.67433053       2.53710600      -2.36780021      -4.23425581       8.08622540
Na      17.92440495      -0.24807997      94.79146884      -3.13487805      -3.25376242       0.87347960      -0.53300344       0.27206545       0.12807110
Na      13.35992331      -0.76861255      95.65516416       5.13948493      -2.76873106       3.22301175     -27.99067071     -15.28544294     -58.76148576
Na      15.19323385       2.59465102      96.64982086       2.56638882      -0.45559842       2.33857887      -0.33355226      -0.06979765       0.40200664
Na      14.43685135       7.38624076      62.16357781      -1.79423733      -1.43015984     -21.78518850      -0.20550030       2.04671119       0.67643317
Na      16.35888513      -2.47549748      82.68061619      -4.14203501      -4.11624718       6.04534972      -2.79427344       0.20485114       0.73249383
Na      13.65827841       5.55984938      76.68084721      12.29546431       2.88850908      -1.08037718      -2.71148323       0.68370067      -2.08300936
Na      12.37423911       3.63898900      78.60155532       2.77811383     -10.37126686       1.02200356      -1.26989678       0.52333670      -4.76273688
Na      13.35689644       5.77344217      82.60613004       3.51819110       3.40479363       2.70293862       0.73526106      -0.91465244       1.39224235
Na      13.81713766       6.53706703      85.92870043      -0.28812479      -4.09864652       7.95070036      -1.51497010      -0.41981737       0.46774659
Na      12.36711456       2.27177550      86.63580516       1.48147000      -1.19683198      -3.32521485       0.36354089       0.19706211      -1.11012807
Na      14.97548886       5.98157332      89.39358826      -1.63099007       1.82613439       0.28376427      -3.24124179       0.12302022       1.67006930
Na      12.69953423       4.15644131      90.88978203       6.03454643      -4.83942757       5.71393649      -0.20739969      -0.84627883      -0.17334810
Na      14.10126313       5.91508701      92.57658739      -1.45913532      -3.14931562      -2.54506163      -0.11069294      -0.16589676       0.02811953
Na      11.70986727       6.10584898      95.34665031       1.92792282       0.38866855       0.59187215       0.70328238      -0.17719937       0.29454144
Na      15.02128046       6.07739881      96.04614425       1.46290359      -0.65804192       2.26158115      -0.85044566       0.11663389       0.94200245
Na      14.36125632      -0.03900320      75.58421125       2.99268956     -23.35664116       8.95128575      -1.17518664      -0.03121678       1.00629482
Na      10.74061238      13.72257272      75.47259222       2.56573288       1.26932795      -1.49445700      -5.84924876      -1.56826813      -2.01889083
Na      12.25311493      11.55189063      75.43833499       5.47992275      13.70634483      -5.76930206      -0.81288332      -2.14760459      -1.67630187
Na      14.51512217       8.97241520      80.85856292       1.04145890      -2.08510219       3.55413059       0.79311071       2.14197584      -1.07266546
Na       7.94406614      10.47548842      76.54373013       2.79548441       3.68833331     -11.48789736       0.61637537      -1.13820211       0.44422933
Na      12.48481120       8.92322021      85.17229931      -3.61929634      -3.93628182       5.87203926       1.41102351      -0.94382304      -0.64949047
Na      12.35879738       6.99455790      87.25431794      -7.38312175       1.53308729       6.11754475      -3.09686444       4.69432464       0.25905450
Na      13.73714465      10.83099163      88.49978546      -6.21315858       5.23890050       3.21255662      -1.42062410       1.52237506       0.82469091
Na      12.00218951       8.19119833      89.69815501      -2.47704314       2.07071908      -0.07914007      -0.83788858       0.49772029       0.78452488
Na      15.64118604       9.03526240      91.19783461       1.34518402       1.41269890      -3.23132830      -0.34029137       0.55881099       0.31555443
Na      11.04375176       8.33524213      93.83348124      -8.72363158       2.04819268      -0.22045385      -0.74560208       1.33777675       0.34785011
Na      12.62330793       9.03728685      96.78992274      -3.01780076      -0.41821619       1.32454593       0.20236393       0.56479908      -0.00459472
Na      10.60661397      18.96260225      75.92262780      -3.63628467      -0.31499315      10.79540354       1.29139590      -0.40008352       0.87688871
Na      14.25905728      11.82775396      76.67754888       7.19925904     -10.89932080       8.42142188       0.19668525       4.52701385      -2.86534585
Na      10.38751119      12.12075035      77.63570181      -9.35426014       2.36581489       3.75794415      -0.29639260      -0.39582913       1.12604874
Na      17.91623992       9.84853292      76.82427523      -9.18432203      -9.00995573       6.52374142      -5.46977834      -1.57611221       4.96790460
Na      11.75321459      12.36428738      83.05127457       2.45929805      -0.24902450       3.88510180       1.47623789      -0.80555122       1.17600434
Na      15.84230630      11.49903754      83.89173976      -1.37726551       2.81755349       0.60849914      -0.85883741       0.78936876      -0.16118061
Na      12.01330577      11.03834109      84.74181405      -2.43386301       4.26467282       1.21277945       0.41281595       0.79809175       1.07711767
Na      11.44955396      15.26425058      89.34649561      -2.63813042      -1.26941187       0.80972422       0.56286377      -1.06178711       0.20024596
Na      10.05340731      11.68941051      92.55812553      -7.20247585      -7.53757405       0.50933628       0.33834359      -1.49444744      -1.34420321
Na      13.45398053      13.60917798      94.16221910       7.37074531      -0.33644708       6.75721080       1.74471509       0.24222728       0.10954370
Na      12.01356319      13.52479569      96.28072599      -1.01283823       1.48614211       5.32398091      -2.02569456      -0.87907990       1.12183330
Na      14.19945221      14.21594684      97.05094230      -0.08730368       2.66083970       5.09534361       1.63846446       0.02636465       1.00567648
Na       8.93451409      16.50858829      78.59182372      -1.98928061      -3.12135125      -1.46320159      -0.42044669       0.03306854      -3.74774745
Na      16.34330218      17.63943959      72.98636757      12.67311852       0.91173158      -7.67590514      -0.58818481      -0.57347177       3.81765303
Na      11.48843134      15.92842831      77.22486149      -2.23231453       3.58250168      -1.37822775       1.07212875       0.92523477       2.01177362
Na      20.91441635      17.00024982      82.97323754       1.53128735       2.00301405       4.73325951      -0.35202942       1.11797383      -2.78303997
Na      14.41155014      16.15604749      81.55313682      -4.99210679      -1.59968592       6.34715962      -0.07828186       0.15680567      -0.27842569
Na      10.54750152      18.67840674      84.91966794      -1.81009731       9.00897503      -0.51978306       0.60580044       1.08533825      -0.07480877
Na      11.76253164      17.90769066      87.69687312       2.20290072       4.67725050      -1.83305269      -0.18321628      -0.44353876      -0.92848717
Na      12.14870354      18.18491032      90.00354846       2.56567399      -8.44930465       1.02009255       7.34028313     -11.97159109       2.45001153
Na      10.97804744      16.35342921      92.08106809      -0.61764727      -0.23711827       3.88926503       0.96893771      -0.84226056       0.04747557
Na      12.07024160      20.17241439      94.42130701      -1.03244489       3.06408842      -1.77732971      -0.39199094      -0.53633304       0.17782451
Na      11.42393527      13.19507496      93.47399653     -14.68067730     -32.87135494      -8.50956740      -0.99756278       0.91895790      -0.38207223
Na      14.35545912      17.41858947      99.37005293      -8.64675362      -0.38458489      15.61348225       0.94320651       0.55010381      -1.38769213
Na      23.17468169       9.49491395      70.00739278      11.62390552      -3.05541657      -2.05123723      -1.68392044      -0.13166263       0.76169173
Na      11.15932386      23.49378634      76.48029664      -7.36973314       5.25809207      -0.48432114       0.45559431       0.54378615       0.24146694
Na      14.42370177      18.32674237      78.57729636      -5.82601548      -6.89065717      -0.21148861      -1.33780559      -3.29384163      -0.49896284
Na      13.04700423      20.56549141      79.86449796      -2.16082631      -0.85254008       6.83623503      -0.70261995       0.64480773       0.95313617
Na       8.77529432       0.16565358      79.87026858     -25.55458843     -97.35141437      -9.80403189      -1.16054454       2.23901731       0.98040374
Na      10.91542004      22.05387729      84.20988536      -3.65794191      -1.46048858       0.63136603      -0.74703477      -0.93899803      -0.73574529
Na      14.14256333      19.85032211      86.44343640       0.21977734      -1.25485582       2.33417066       1.95387596      -1.31113907      -1.08175923
Na      15.26119476      25.12670120      88.60992865      -0.76925935       3.06208142       3.43057240       0.27732369      -1.15238605       0.85894453
Na      11.09078156      20.23474186      91.32413622       2.65611459       8.24852148       0.79761861       0.89097795       4.22232556       2.00791721
Na      16.32971835      22.37413074      93.41960424       0.55684975      -7.69745669       3.17259490      -0.21319418      -3.99647618      -5.69903225
Na       5.38511338      25.01672447      96.57596961     -16.85537864       5.19457045       1.63745098      -0.12615529       0.62506249       0.91558555
Na       8.74318286      26.94646673     100.21417000       3.29213843       0.31108990       4.34961820      -0.00528757      -0.00104133       0.15213889
Na      23.32831654      39.19925214      86.18340534      17.26903165      22.28648011      16.27352288      -1.92389924       1.34379181       1.12693727
Na      24.57841370      33.19875133      71.92636470       8.64896589      13.74293989       5.17816439      -0.84916971      -0.99918331      -0.26647813
Na      11.31493704      26.23400014      77.13347608      -2.04117335       8.87960863       8.92746082      -0.08634960      -0.08938951       0.09840459
Na      13.76792147      25.86907564      78.88202204       1.69792927       4.58196131       6.89093875       0.25487007      -0.16546361       0.16335469
Na       8.79990265      23.22807701      81.07689159     -15.63564154      -8.37508343       3.78349524      -2.30688999     -14.35960874      16.19862719
Na      12.62819719      27.62455647      87.45015679      11.52236331     -12.99078932     -11.54599512      -2.52240120       3.62327947       0.27319509
Na      13.86204927      26.36559151      86.68049798       8.25190080       9.19208185       9.63823012       1.20862617      -0.41797437      -1.84444142
Na      15.27234227      27.75037116      88.94710626       8.44300161       1.46443807       4.22145369       0.48785531      -0.45467336       1.10835555
Na      12.15639286      24.05377835      90.98825636       3.51526601       1.26679233       1.73323933      12.41036986       7.45999710       6.53320429
Na      15.06987496      27.80660133      92.50334299       1.92333464       3.82620358      -2.59468848      -0.29582106       0.69731521      -0.26075249
Na      15.14286931      24.92009832      93.11414933       3.34727810       1.35071085      -5.71890846      -2.46910621       0.05380746       0.39508828
Na      11.43723358      27.03936974      98.85440308      -2.26117809       2.10179057       5.26886472       2.33902353       0.14844006       2.20485195
Na      32.25391887     -26.67913444      94.96731981       8.20824075     -16.11526541      20.18608952      -7.55710380       2.72909202       2.99578934
Na      17.94835360       3.38062374      78.94201243      -2.85216112      -2.26780897      10.84406967       1.26921528      -1.41261064      -1.40388174
Na      17.35276803      -0.15420887      78.68584230       0.23426753       1.41709874       0.99843395       0.17745790       1.59013730       0.32748432
Na      19.10331148       7.97292733      77.81204176      -1.95840497      10.13122922      -9.00022996       2.72287390       0.03697948      -0.40424902
Na      15.41513513       1.17341420      81.58888394      -4.54791117      -3.78619034      -0.74636325       0.15811448      -0.92088572      -0.31733805
Na      17.33671091       1.78689741      84.39431577       0.27905842      -0.47274901       0.80747400      -0.13219349      -0.52770584      -0.62994489
Na      14.33510380       0.90728029      87.67297158       0.31806767       6.45745611      -1.66367659       0.58535490       1.15333771      -0.20020382
Na      18.77331701       2.63628326      89.59928112      -2.19929697      -1.97687364       5.28068417       0.65694655      -0.98707533      -0.49410098
Na      16.77345574       0.69822880      90.37921381      -3.11492114       2.23356200       2.82454790      -0.13113981      -0.58315014       0.55979442
Na      18.38624973       2.02892936      92.19415726      -0.88827681      -3.24352417       3.77716528      -0.49656374      -1.25120535       1.60231000
Na      16.87304231      -5.44693834      94.81094323       4.42977410     -16.29424395       4.61167379       1.63627192       1.95263622       6.51546529
Na      18.11302124       2.46257985      97.42032439      -0.53609258       3.23688215       2.69919579       0.08483020      -0.28707760      -0.81036618
Na      15.64903274       5.18501255      77.09297704       1.97917892       2.51340282       8.00727560       0.24917445       1.09154616       0.53283639
Na      23.54828691       2.76811841      68.53928546     -10.80297430      -2.73568241      17.89925544      -0.37293578      -0.02814221       0.56332314
Na      13.67597372       3.68020282      80.84428336       3.40617674       0.27227050       6.96981719       8.35120492      -2.38380051       2.40153588
Na      18.38171621       5.33988486      80.57868392       0.16230306      -3.49561488      -0.52795769       2.41498542       1.94349369       0.79266420
Na      15.20818749       3.12064174      83.29904624      -3.66835525      -3.49569270       1.87351169      -0.33318438       0.64867728       0.90055474
Na      15.68377585       6.81608580      81.35753488      -1.78345637       2.88347222      -7.76727644       2.65797200       3.84715386       6.41537992
Na      16.98166278       4.61398915      85.93436460       1.79442663       4.99101366      -5.99323560      -1.57230710      -0.90822242      -2.53972907
Na      25.71739507       8.61693205      88.31680843      -3.71391604       6.42566014      -4.76819535      -2.64036548      -4.43983380       3.81477436
Na      16.35339445       3.68591696      92.12069173      -3.83767893     -16.97283106       2.51360697      -0.75862945      -0.01980087      -0.78681761
Na      18.53273340       6.79089273      93.04303887      -1.68359286       6.03396334       5.54732629      -2.47072057       3.51718166       0.38501397
Na      16.61803475       4.75279738      94.74863665       0.73748571      -1.10768563       1.34432088      -0.35881875      -0.68120772       0.01344902
Na      18.39321333       6.57223184      96.38236761      -0.23931217       6.02629240      -3.47937195       0.09547488       4.90367818      -3.46662105
Na      17.44148025      12.16243748      69.77816390       8.66814610       7.63615918      -4.61349366      -5.67169315      -0.02956380      -2.28023028
Na      17.50811489       6.96943356      77.09632754      -0.64913707      -6.09984994       7.21734631      -2.12000765      -1.66723071      -1.29830905
Na      13.31775911       7.64755174      78.03859443       8.25405128      -1.14032298       3.14422986      14.57894266       2.76057392       0.41314081
Na      18.65423922      10.50493044      79.86108695      -0.39793271       4.22636717      -6.04265223      -1.25708843       0.87873306       0.31523177
Na      17.30619719       9.29097559      82.64107793      -2.24969709       0.03011867       2.60480023       2.41389325       0.23487579      -2.12664664
Na      17.56139783       8.77643162      85.40272448       3.44629112      -1.30769990       4.52721902       0.46777210       0.51647921      -0.59199871
Na      15.01838497       9.36838324      86.88574919      -5.23480711       1.64985746       2.98453870      -0.14265664       0.10264887       0.17728462
Na      16.62075068      10.56656908      88.31281258      -1.52282940       1.51167596       0.25075119       0.34811625      -0.03056107       0.74658233
Na      17.40849301       7.29732860      90.35978815       4.13819579      -1.67237957       2.95411567       1.03486844       0.18567483       1.91443758
Na      18.21571470      11.16388869      93.45440111     -16.96600966      34.14017656       2.75631464      -9.55218367      26.29143766     -24.68072778
Na      16.74447349       7.98553718      94.58269632       4.65862619       1.17906818       4.56737389      -0.15689645       1.31265492       0.32003543
Na      17.67755289       9.02698603      97.32372145      -5.21169538      -8.41312470       1.66338114      -0.33893262      -0.26712734      -0.93920870
Na      11.83661531       8.55946298      73.41395678     -14.17906371       9.52873228      -2.85459105       1.89074693       0.87880810       0.17367744
Na      18.06195886      14.90764845      75.97627159       3.37504047      16.06079373      11.42561617      -0.78661667       9.03524053       4.70656253
Na      14.18636957      10.44044118      77.64329131       1.85027319      -6.06386419       2.80805827      -0.10285231      -5.70914378       4.44877459
Na      17.04489986      15.03542828      82.42541398      -5.04248258       3.07406312       9.16243135       0.11032275      -0.33429224      -0.23944007
Na      15.12310033      12.05200414      80.47538976      -2.86968791       0.39180624      -1.76969798      -0.29132816      -1.02054465       1.34603661
Na      18.61158977      11.87121721      84.34897899       2.38757951       0.64788324       2.93298015      -0.23159252      -0.10884553       0.07668578
Na      16.79634658      12.78343866      87.54725249       3.51411863       4.61380052       3.79807882       1.47172817       0.80823614       0.74356210
Na      20.05348863      12.54291602      91.13902048       1.61413416      -3.03673148       1.15444234       0.75962267      -1.56539984      -2.24136336
Na      17.01738351      11.59792559      91.32768065      -5.43740725       0.39641360       5.02294380      -0.04877281      -0.05661575      -1.01133863
Na      14.49448861      14.53556979      91.62400562     -17.41595523      -2.59755124     -14.33418513      -3.78358149     -10.66965032      -7.35786966
Na      16.98378970      11.43162101      95.21051801       1.83998838       0.75296956       2.58010008      -2.94581593       1.99798491       3.07207981
Na      18.50471302      10.47578712      99.03293390       3.48282584     -11.46358324       9.21235913       0.41137693       0.64376514       0.73235742
Na      17.57529690      20.65987549      73.20359384      -6.59096994      10.40342641      11.55164967      -1.16587466       6.09293764      -3.67617647
Na      11.87118881      20.61347473      77.18349591      -1.56112997      -4.39738593       2.53993031       2.00306723      -0.07050878       0.18951997
Na      13.67178030      13.75222263      79.13359340      -3.42260540     -10.53932524       5.06183637      -0.98447853       0.55623416      -0.19208604
Na      15.46019195      20.03841036      78.70520428      -2.78372665      -1.43114571      -0.56917747       2.36520478       2.68465332      -1.09517950
Na      18.73162447      15.69835547      85.20326840       1.58652627      -1.67437911       5.89405314      -0.43527194      -1.36719278       0.97961494
Na      14.88456191      19.79788445      91.12019637       4.57899991      -3.81939086       6.93562059      -0.62629213       0.51089352      -0.08404445
Na      11.97717575      14.96720526      86.23632220      -0.21749072       4.75731522      -0.70212427       0.60762291       0.02987755       0.17511628
Na      18.17263733      15.34551065      88.69398030      -1.26642983      -0.88143148       1.09405750       0.09352849       0.26038725       0.25350227
Na      15.62839361      16.97658401      90.40306554      -3.91640114      -0.14590207      -1.60060646      -0.68411160      -0.12714871      -1.81571831
Na      17.50699725      17.75063061      93.98141183      -6.58480509      -0.75545313      14.41873196       0.01792275       0.05151736       0.15990962
Na      22.52424676      14.61415754      95.33732711       9.56653185      -3.77822064      -0.35673547      -1.71286881      -1.08854313      -1.14900295
Na      18.23610841      19.55436741      96.96087115       4.15189890       2.71136418       0.99717808      15.43861828       4.18345292      -7.51863207
Na      10.67584071      27.06427074      83.76049323      -4.14372487     -11.10400859      18.70971018       1.95979242      -0.28404765       0.40313322
Na       7.79708903      25.15578414      52.40235819     -12.90659078       0.97858337     -27.49519504       0.51416989      -2.68086784       1.27675785
Na      13.56432175      30.85459442      67.30815985      15.83847225      18.26863096       8.24696576      -0.24633718       0.22324717      -0.03450942
Na      17.88026480      23.05832855      80.06801274      -4.87981178       2.22902275      -2.00652539      -1.87808533       0.38918989      -1.04466248
Na      16.39223679      19.87821828      81.30825413       4.20434585      -6.36544136       5.44001734       1.44138778      -2.30491467      -1.46084652
Na      15.70328709      21.22329659      82.61813713      -0.53915603      -0.93926489      -1.70391447      -1.08187752       2.28365228       2.15882688
Na      17.39971034      21.44807014      87.22943798       0.78098943       0.13299721       0.49715324      -1.12865168      -1.29282645       0.44225788
Na      18.41017232      19.85284552      89.26675130       0.93338988       1.82261221      -4.91998638       1.87103174       1.87187081      -1.97119625
Na      14.06051312      21.89091658      93.45295536      -4.80339887      -1.71952210      10.43336716      -1.71675749      -0.00917247      -0.34940423
Na      20.19566095      21.07457019      94.07293047      -2.02237812      -2.96193627       3.20001658      -0.44277295       0.10632842       0.04324388
Na      12.77218433      16.23320705      95.55757803     -13.94447598     -13.23056617       0.03156078      -0.28769116       1.18022230      -0.33616705
Na       7.54580621     -18.06308867      96.58170607     -54.48046663    -171.58161140     -11.69495274      -2.88187410       1.97877965       1.68878107
Na       5.57064748      19.56883345      76.98260897      -3.49072523      -4.75790385      -6.67255449       1.25870650      -0.60174354       3.24659574
Na      23.18072802      22.57156403      60.44480632     122.83561280      39.86658412     -86.58442895       8.28218214      -3.01405177       5.63911306
Na      17.25496529      26.25311528      78.14741143      -3.11216323       6.22959821       0.85431648       0.08363619      -1.03393580       0.33459094
Na       9.69907635      23.81475321      79.71155702     -18.56220181      -1.03966506     -27.24828046      33.47058637     -17.69079292     -14.99891182
Na      18.20855033      23.26133051      86.23973162       1.06296348      -2.24899127      12.04775393      -0.77996505       1.99240122      -0.88694099
Na      17.42014955      29.49506089      86.88404757      -4.86624473       2.20256326       0.55454845      -0.24330971       0.39129248       0.76045622
Na      17.43122443      23.64969272      90.10091371       1.98986605       0.42666582       1.48905701      -0.54982600      -0.43118455      -0.99253297
Na      18.51645622      27.00760437      87.49880541       1.37771542      -1.79290801       5.24793845      -6.17033683      -2.50855886      16.21502494
Na      11.60024594      19.18514247      89.79548792     -27.54235098     -20.79350765      -6.52252041      -5.29671479      10.65472424      -4.19418897
Na      17.17853593      25.19318373      92.42205558       0.41931739      -3.13062056      -8.11400235       0.40878261       0.68434886      -1.36243183
Na      13.48255379      20.60152827      97.79991566       6.18681322       0.60186678      -2.29190574       0.97028916       0.16029463      -1.94563945
Na      31.79885695      14.50051761     108.73234014     204.94546864    -104.53261264     -62.75129181       1.15181789      -0.75036771       1.15750563
Na      23.67120361      -1.58630292      66.25271444       4.81776802     -10.14442312      -9.00555488      -0.76720260       0.24553641       1.26726481
Na      21.49378418       1.18074242      77.05443832      -4.26029237      -1.90895195       8.38587696      -3.95431548       4.06971591       1.45203981
Na      22.78872621     -17.09616039      67.95621213       5.15594669       1.27823949       0.18454538      -1.86382069       0.91873706      -1.94149562
Na      21.25552564       3.61817086      80.83400594     -11.66622992      -6.00721600       1.29089732      -3.42865229      -1.84479909      -0.02079821
Na      17.98761117      -1.12497499      84.79944346     -11.06256728      -7.00732364       2.09551525     -12.15545140       3.09331072     -12.30131620
Na      21.61077919       0.96993237      83.33534175       5.30604265      -3.91269197       2.48864470      -0.45692118      -0.11349619      -0.01313298
Na      20.78818266       2.23676761      87.35337286       0.09615193       0.02865131      -0.78553271      -0.52804869       1.53832735      -0.36711535
Na      21.39144345       4.14796397      89.15228310       1.24980039       3.90123531       3.51790864       0.44278658       0.48097657      -0.33420841
Na      20.29417286       0.63132524      91.26425481      -1.26487520       2.65995098       0.72215957      -0.82525330      -0.52252407       0.06356582
Na      22.12470777       1.78734280      94.24691567      -2.54637983      -0.85327313       1.39373866      -0.63053273      -0.61009594       0.73093739
Na      20.48157249      -0.72752387      94.22115009       5.62582713      -2.02686000       0.32870555       0.18218820      -0.32177395      -0.01882379
Na      22.29693024       2.10652906      96.90197806      -0.41462418       1.56301389       4.40554346      -0.09564778       0.08395492      -0.13591245
Na      20.96577329       4.34612392      73.94276386      -9.30334394      -3.28422415      -5.37355351       0.06686283       0.00137008       0.67476369
Na      20.43048128      12.94575967      78.42659557      -2.25677920       0.32005893      -4.51878487      -0.77640977       0.01357497      -0.30353499
Na      24.65333163       0.57866831      79.86847313      -0.48131521      -6.70066605      -1.87037513      -0.16774693       0.29856257      -0.37116102
Na      22.85796303       9.13521557      81.32788974       3.09780037       6.24224718      12.48759266       1.71132809      -2.05992110      -0.18725787
Na      18.97936486       3.50482702      84.06327008     -16.75489249      -5.68836421       4.43253362       0.65652872       2.15364416       6.38557109
Na      22.42359843       3.98053544      83.56713428      -4.69594060       1.29992867      -1.02387765      -0.44638373       0.40733134      -0.22846538
Na      19.40535214       4.58350988      86.63977111       1.73663011       1.56238348       2.49810503       2.28964313       0.82039191      -0.99743336
Na      23.49031503       6.29608527      90.08683125       4.36638319       1.72348788       6.76158879       0.05095851       1.16492596       0.96364347
Na      19.23956372       4.49646420      91.53427539      -1.20712891      -0.46349185      -0.49991644      -1.70454178      -1.40608205      -4.35213155
Na      21.69584616       4.83914614      93.09142724       2.68290867      -3.68415818       1.38872736       5.05233316      -0.94532959       0.96384636
Na      20.21551712       4.30999759      95.26995383      -2.09746469      -1.38931112       5.95922901       1.95111112      -1.36005507       3.91404689
Na      22.85524206       6.76811386      95.81075634       0.31901309      -0.45045779       0.67937753       0.20005424       0.11920659      -0.53803179
Na      24.63521270      10.89695135      73.86621784       3.99213778      -4.65703748      -6.18771313       0.15153091       0.49928527      -0.20915954
Na      24.09539774      15.66669436      75.35849016       7.98062923      15.63065437       1.71961578      -0.85216326      -0.76644321       0.24930579
Na      20.12390164       8.37208274      79.94975610      -1.89190629       0.33277804      -3.39204907      -0.25946673      -1.94680037       1.54163683
Na      21.73057131      11.45520013      81.11257664      -2.97693033       4.64933214       7.29393468      -0.21938738       1.78080466       0.56799112
Na      21.06267755       9.57264350      82.83019998       6.44181789      -0.24626413       5.97210352      -1.37974519      -0.01266986       1.62657077
Na      18.14776886       7.18050308      87.28068323      -6.62497237      -6.54105883       5.30439157       0.07909744      -1.96837714      -1.68328028
Na      18.49074523       8.76592708      88.68827447      -6.82922502       4.16711626       1.45283607      -2.48256461      -0.84272546       7.99948392
Na      22.18400343      10.62995712      87.90003917      -0.98803870       0.18880721      -1.95501318      -0.19324586       0.33228590       2.96833404
Na      20.26671679       5.87422042      92.56847514       5.43191965     -22.30829837      20.93642411       3.94341112       7.20863525      -3.28720128
Na      22.94130808      10.67391099      95.56716952       2.03307746      -0.49758150       4.60045382       1.01851504      -0.69907320      -1.10666223
Na      20.34993971       8.54385441      94.57147952       0.52169036       1.10915405       0.55266905       0.66472315      -0.68322438       0.22151315
Na      22.78190627       9.47888745      98.42186353      -0.57378535       0.26224425       6.80807253       7.98615307      10.98486689       8.82540608
Na      16.40964616      13.26551776      78.89358302      -5.53829377      -2.31057402       2.48312685       1.44713790       0.74147788      -0.21950828
Na      24.60573530      13.19065741      69.56968703       4.50418738      -3.45277801      -9.59481924       0.63782135       0.35070039       0.35958888
Na      16.04354113      12.95230431      76.16397862      -5.72013875       4.06939460       4.15733708       0.31921001       0.09191594      -0.20804773
Na      33.79958899      11.90667005      79.43605703      15.29225837       0.34202989      -2.71280459      -1.07117006       0.04096909      -2.39973760
Na      19.73430594      13.08650412      82.24339789       2.33578521      -0.77615616       2.56007830      -0.04226522       0.65902971      -0.33957733
Na      25.54441140       9.83303098      90.29933815       5.78057051       5.34863789      12.81416399       2.34259276       1.83326681      -6.63511667
Na      20.58669192      12.35946152      86.13418601       1.39742170       1.69603042      -1.28784431      -0.02489872      -0.19053814      -1.94474362
Na      20.89141520      13.58477183      87.84584854      -5.36896299      -0.06086968      -0.23894469       0.04565930       1.40007003       1.64990890
Na      21.85344755      10.25845057      92.10489061      -1.08315961       1.20916939       3.06935383       0.25884721      -1.20668222       0.31095465
Na      21.65959610      14.55996708      91.52687272      -1.16454002       2.57711710       0.36508255       0.63535907       0.88683952       0.25469905
Na      20.27142102      10.80292618      95.83065331       1.50973280       0.62491191      -1.10056895       0.58480950       0.73715754       1.58346204
Na      26.73129342      15.38475673      98.61738717       6.11425076      -1.18474516      -0.85182063       0.26717039       0.09457717      -0.60178014
Na      18.70226736      15.25081616      73.01161714      -1.92874920      -1.34993021       5.30585061       0.61176934       0.32385411      -0.93112188
Na      23.45872571      18.39006594      74.54583814       3.17634406       1.34257217       1.12285940      -1.79760246       0.21462390      -1.04938057
Na      19.76358786      19.31361950      78.39936440       8.40387302       6.39752090       0.61987045      -0.26822970       0.05620884       0.07913467
Na      25.49391544      18.67447900      78.65129861      12.67753002      -0.88804762      -8.65028656       0.32518838       0.74800283      -0.91216188
Na      22.25362918      14.63967916      79.48707289       9.12506870       6.39271574       0.11386330      -1.69053600       0.69709431      -0.42969842
Na      24.37006716      10.04780738      84.76854252       6.09818412      -6.80716445      -4.18351777       2.46577386      -1.34526328      -4.98073498
Na      21.25681616      16.12701859      84.81951468       1.38607485      -1.00717832      -2.37815887       1.55542695      -1.20531767       2.56005580
Na      22.86150799      17.26540695      89.73987807       0.18382423      -3.99330980      -0.04126525      -0.34012424      -1.73543319       0.49438355
Na      17.51369011      18.66271311      90.51292289     -12.29726946       0.97638004       0.69303547      -0.26611255      -1.51765216       2.40778377
Na      22.08098089      18.31592602      92.74112724      -2.67725312      -1.17565068       0.47471974      -1.36199573       0.09310096      -0.27727247
Na      29.27683392      10.78835892      93.67838403      -3.16031331       3.89291723      -0.98872489      -0.08870851      -0.06374972       0.41461987
Na      22.24285082      17.21787851      96.03493967      -4.43977913      -1.96829552      -6.98616743      -1.83726500      -1.56901264       0.25973174
Na      26.72264643      22.97865908      67.87925395       0.11598445      -0.66823390      -3.20329314      -2.95298054       2.50800919       0.78318765
Na      54.39815720      50.23835113      44.91777206     -13.77419534     -13.87548962      -1.04860595       1.97157959      -3.24848172       2.25158576
Na      19.36681350      20.97413384      75.15720754      -0.63762046      10.04864495      -0.13834667       1.16782338       2.74008322       2.86969438
Na      18.20916256      25.98517404      81.79189486       2.69047189       2.92551024     -11.06518908       2.74138641      -0.35363110      -1.24043411
Na      18.94731681      21.81758317      83.76201557       2.51951635      -7.30062335      -9.33833334      -6.81945233      -5.67565124      -2.12839619
Na      22.53322797      24.75457908      88.32058048      -1.55905813      -0.83293846      -2.60323798       0.49822367       0.47141356       0.01465316
Na      22.86544093      19.14986608      87.06722556       0.33177542      -1.86160306      -0.65192529       0.19128499      -0.19809144      -0.77694554
Na      21.97914932      21.28095024      89.03563815       0.83339943      -0.52806032      -2.31622934       0.01875731       1.39117182      -0.33104013
Na      21.60441458      19.05516675      89.87081095       4.70132007       2.63132113      -2.65892439      -3.29718824       0.37076713       0.26949493
Na      21.96398591      23.94383816      90.94056357       0.34155836       6.31512582      -1.95075429       0.26148682       0.17097973       0.65088403
Na      20.76315624      18.32442525      95.49228040      -5.54156677      -0.14410859       0.13709514      -3.67714753       1.77659277      -1.09593337
Na      22.15391599      21.13990073      96.94180476      -1.90977913       0.53218524       3.18736360      -0.14485255       0.38019494       0.35037008
Na      17.73835430      28.93113616      63.34902240       1.03080621      -0.65055637      -1.20858210       0.77549967       1.19245942      -0.50513671
Na      27.40652442       8.56841909      61.98505551      -3.67187463      -2.27391955      -2.39069118       3.60853357      -0.92403448      11.87970288
Na      25.84886745      26.66188395      81.73569395      -3.82165200       2.13343501       2.74591923      -0.75460538      -0.15193015      -0.10946014
Na      21.96282629      28.37478654      79.07112860       1.53743817      -2.22528726      -1.45088604       0.02827176      -1.66770779       1.67873026
Na      20.45767287      27.78754243      85.60848425      -0.12896611      -2.23576414       2.18357523      20.57884479       6.27000233     -11.49434791
Na      27.77940907       9.91174213      86.76371462      12.17995308     -46.66952403      -0.98574590       2.67114864       1.78312337      -6.45863164
Na      20.06753263      23.50560571      87.79330635       2.71363739      -1.07871270       1.50420841       0.43013847       0.00978988       0.66363568
Na      19.20960081      26.03158936      91.47037036      -0.51893234      -3.16715976      -1.95956855       1.15383161       0.85158815      -0.71861632
Na      19.33660307      22.75699285      91.56273945      -5.70801632      -1.69068614       1.88935863       0.37894916      -0.68268103       0.33385528
Na      23.16764083      27.20499657      93.70762128       0.91942457       0.94068436       3.81318193      -0.70629535       0.04549962       0.01389241
Na      20.11593785      25.11328063      96.22299099       2.91815602      -2.76553915      33.14816621       0.92236899       0.02644143       1.08015513
Na      23.48896064      24.42995362      99.53463231      -1.39025338      -2.68823566      -1.44265157      -0.01005679       0.01408609       0.04070305
Na      15.44830338     -16.64679094      93.25005627       0.72961023     -12.77465378       2.39444809      -0.45755901      -0.21422359      -0.00186442
Na      29.32448044      -0.23468741      74.63146396     -37.88715680     -22.77701870      10.97328575      -0.19461591       0.20535520       0.22728589
Na      37.16535550      18.45952587      74.57023339      14.12734514      39.99223159     -16.18815182       0.33026026      -3.23302211      -2.57624821
Na      27.38239152       0.59209964      81.41249824       1.09373976      -2.36119436       0.29169073      -0.23939846       0.47390182      -0.35441911
Na      24.77176055       0.48520062      83.23607312      -2.93000357      -3.51229211       2.25043956      -1.19054352      -0.64156771      -1.54141261
Na      27.14165728      -0.71051080      84.54543331       0.46235693      -1.30524510      -2.17352451       0.52362245      -0.56118541       0.33244159
Na      23.28962743       0.90388699      88.29498475      -3.45661509       1.91791863       8.28943856       0.99980279      -0.35819414       0.08683124
Na      25.40107940       3.11699250      88.37639716      -2.79024192      -2.66850503       8.29578633       0.52675703       0.07827043       0.16751925
Na      27.40036633       0.28374224      90.83204302       4.39336607       3.51681354      -6.28948034       0.59465383       1.81744476       0.09446623
Na      27.95399656       3.22374437      94.41957136       5.95156868      -2.74230401       8.70846014      -0.67185799      -3.55248990       0.20000632
Na      23.54911187       2.45768529      92.48640918     -15.36068161      25.03986066     -23.61050267       0.87578669      -1.71904440       2.19605391
Na      22.06239797      -0.53001716      99.46712557      -7.64267871      -1.45281186       3.76597299      -0.17539894      -0.42779298      -0.11535588
Na      26.65759277       4.86015740      75.81594086       7.68674495     -14.51775858       5.94001776       0.05234343       0.47402358      -1.01316398
Na      24.92463822       6.88567888      77.88776314       1.92150667       4.22647823      -0.98615654       2.57942457       2.81786304      -7.08770568
Na      27.18857475       2.93813611      77.24711627      -3.66635881      -4.96831216       4.24873356      -3.18115147      -0.15696130       1.14649440
Na      25.63628069       4.11847693      79.45408236      -4.42381932      -6.09324119      -9.68618953      -0.10750998      -0.00260835       0.70124517
Na      25.33045475       3.88025427      83.56544525      -2.32307576      -2.23465082       2.97669605      -1.84251876       0.34726253      -1.28248573
Na      26.75917140       4.88849059      85.31748788      -2.45564728       4.09391856      -0.64181322       0.37560767       0.58593866       1.57170154
Na      23.60250882       4.89165565      86.23843165       1.67354978       3.43620258      -0.60181017       0.03813644       0.35398352       0.09308674
Na      47.99184951       4.74692918      93.69429341      84.04887310      -3.95995462      51.64090232      -4.28397322      -3.30674913       3.02303549
Na      25.80471442      -0.49496971      93.32764271      -0.47142038     -13.95771150       8.63203429      -0.21470426       2.95787369       1.07739082
Na      29.37349850     -44.40645979      71.06481198      -1.15745658     -40.07515269      35.04135585      -0.49993337       0.18308226      -0.11403526
Na      24.64922450       4.31177194      94.86295309       2.04199719       2.18045136       3.02055948       0.22942850       0.12538198       0.25473668
Na      26.71587447       6.06115454      98.17765056      -1.95478223      -4.82067862       5.29005088       0.16722445      -0.19391595       0.77699056
Na      41.62574379     -21.15193258      81.49830185       0.98689938       2.32501199      -0.80982962      -2.02825864       0.63197745      -0.72042053
Na      29.61592240       7.55415277      76.66468263       9.51620905      -0.08864305       4.86460252      -0.68690706       0.35569624       0.96418724
Na      25.46886021      10.23887939      80.47982712       3.79160197      -0.17398725       1.01290838       0.92153824      -1.04180737      -0.56496910
Na      28.04829517      10.65625203      76.82648368       6.49547817       5.28829134      -1.30737065      -0.05199389      -0.05882890       0.09318089
Na      29.22845189       8.52836150      81.43265534       4.58270548       1.75575061      -3.02127054      -1.25811830       0.47304817      -1.51867755
Na      32.26513938      10.31505507      82.05385278       0.76528937       2.89793136      -0.07905011       0.11782101       0.40894279       0.25154153
Na      26.05837121       6.65302637      82.67377510      -0.15361610       5.52601432       2.06159358      -0.26205399       0.21817737      -0.86697500
Na      29.27743052      10.80595789      89.97905970       0.33676904      -1.95192630      -0.20827442       1.46477380       0.47602583       0.95510380
Na      23.30845651       7.96127238      92.76791663       0.64372375       0.52021342       2.69375386     -60.57173347     -26.23341947       2.56843328
Na      27.74220537      12.20170653      91.48084833      -4.71331991      -2.47568653       1.78482441      -7.83422473      -5.36224191       0.17734728
Na      24.88227018       9.78863770     103.07953217     -13.43650674       9.83080861      34.49324113       2.20162385       0.40699609       0.16650410
Na      26.17043324      11.32456429      97.38637765      -5.23644572       4.13571066       3.10582759      -0.12610586      -0.47622394       0.47729922
Na       7.27461152      21.70487138      63.14447643    -136.19309424     351.26937006    -331.27158324      -1.46584174      -7.47414951      -0.33415701
Na      27.66423854      13.64073662      76.14281870      -2.70899995       2.19695058       3.16875490      -0.72995770       0.06011583      -0.68918432
Na      21.39395427      10.19337861      79.30509064      -9.40451966       6.44079371       1.68261773       0.91202929       0.49794736      -2.39379732
Na      21.38006072       2.46376752      78.18258787      -0.25039490       0.51113935       8.85733462      -0.69034004       5.56648028       3.83591175
Na      24.06832241      11.74331824      82.13741223      -1.21648621      -1.31816120       7.42646010       0.21764235       0.35077326       1.34665180
Na      26.82373694      12.88412350      82.94677282       1.42133696      -4.14810823      -1.04092199       0.32530507      -0.16722390      -0.39759253
Na      29.50936495       6.41644195      92.82121786      15.98359507       2.39912105      12.67865777      -0.12957239       0.17047227      -2.23986203
Na      26.45382792      12.31313810      88.57032238      -3.70038005      -7.86057720       6.34645452      -0.31587010       1.28813833       0.28080948
Na      23.42540075      15.05407229      88.82257420     -10.33424762      -6.97489609       3.88359663      -1.40169257      -3.08431640       0.38020271
Na      25.66094409      15.08930405      93.26867068      -1.34549224      -0.21036789       2.65129402       0.43322856      -0.56591028      -0.38849214
Na      25.94887733       7.00278328      95.92580659       9.81528245      -8.31541516       4.56645890      -0.47583139       0.73952201      -1.15781488
Na      26.81103282      13.65501391      95.89068619       0.43236755      -2.02429008       1.12328176       0.63117400       0.25498953      -0.06933756
Na      28.21744197      10.73888409      73.27784451       8.22150610      -0.01363628      -9.61862850       0.09004614       0.03342670      -0.25196262
Na     -31.24694530       2.41003993      92.45084230     -83.18616452      -8.71480721      44.57031046       0.64710089       0.47454433      -0.30661937
Na      21.00007465      15.85626234      76.66769042      -1.92391839       0.69483962      -2.71972530       0.02870033       0.33277447      -0.23063131
Na      25.71992088      21.61422653      76.35608534       2.21935735       1.21601757      -3.85926836       0.89097975      -0.75480996      -0.34963127
Na      26.83405015      16.57775664      77.08234719      -1.73247711       3.30098136      -6.63336835      -0.01571173       0.06181342       0.46325099
Na      26.34481831      15.24346829      84.39926711      -0.52740273      -5.46647250       0.91581537      -0.50949601       0.07324612       0.30741132
Na      24.82179791      16.39017783      88.23766691       3.53921483       7.33368668       3.79147839       2.55660066       1.60197684      -1.94780878
Na      26.57737631      18.81766819      89.02189270       3.40417317       0.11540217      -0.31793390      -0.09467196       0.63755732      -0.11405291
Na      26.50931710      16.49203878      90.77529170       5.25779836       3.96044704      -0.08334222      -0.11136174      -0.49074719       0.07577181
Na      26.25598922      18.32634549      92.74536020      -0.21933881       0.18562240       1.80268761       0.46477694       0.92464494       0.53542814
Na      23.86440146      16.94707772      93.48535326      -5.68145121       1.53270560      -7.45695052       0.34168880      -0.62615827      -0.19412553
Na      27.17135775      18.73861972      99.14987484      -1.29345158      -1.30599559      -4.17867244      -1.76509301      -1.04502063      -3.14390307
Na      37.51637364      37.84639361      58.04569805       2.75035151       0.77999939      10.57196997      -0.90229572       8.22094263      13.73210641
Na      26.85506396      17.74846299      81.16886281      -0.10326363      -9.97812193       0.19902063      11.37788927      10.68060443      -2.24993083
Na      23.78719588      23.13961197      76.94053889       3.57452732      10.96737233      -1.46040411      -0.43331797       1.08316671       0.05898228
Na      28.11079739      15.12063886      88.57715380      -0.16189692      -0.62648767      -4.40154360      -0.35350774      -0.47594690      -0.82672095
Na      26.84532595       8.07335241      86.25468194      25.15234675      -0.07376249      -1.27318949      -1.49740056      -2.76678455       6.83924657
Na    -363.57596797     870.99517790     524.54259226    -318.96525234     651.68207690     498.26814373      -8.09876083       0.49496357      -1.72569622
Na      28.13672196      18.65664379      85.08684022       8.78036476      -3.04322185      -5.77881339      -0.23147016       0.73002158      -2.28995039
Na      28.12614227      21.80020845      89.06373126       5.36552421      -0.02955230       1.92515457       0.16835463      -0.19212597       0.82196089
Na      23.87152754      19.25986951      90.41025315      -2.17719412      -5.63581425       1.40797969       2.53052717       1.52821494       0.81819606
Na      23.18050518      20.86899445      93.40462636      -2.57168081      -0.92198128       1.04594728       0.33047844       0.48713379      -0.11653650
Na      23.49257426      18.76737862      95.69988400       2.22112862      -2.87295303       5.61266154       2.90805748       2.82341530      -0.35095942
Na      26.00498812      20.20109681      96.54637544       1.27536025      -0.29424082       2.91624070       0.14985143       0.23237769      -0.08335805
Na     -10.94610642      34.79313708     111.34607826      -3.01734581       6.44060135       1.55548750      -0.61918791      -1.51418127      -0.59416860
Na      33.12345328      31.84544302      84.79676082       3.30650208       1.26450383       2.85661067      -1.28274593       0.95401479      -0.50904343
Na      27.12783459       7.92744078      84.87672962      -8.69930209     -13.27401868      -5.13431503       2.46832142      -0.63874064      -8.55766582
Na      27.59863723      25.11184244      83.71718784       1.16306585      -1.90066814       2.97085673      -0.47676255      -0.22072988       0.07789857
Na      23.19842071      32.16566982      90.94103491       4.93911739       1.13757503       2.37548635       0.12000200       1.18814705      -3.14982695
Na      23.18376698      25.48832695      85.34693606       1.87461491      -5.81355384       2.42695697       0.20355071       0.26131344      -0.14308525
Na      25.28667613      22.21556167      87.40325105      -0.92112694      -0.75924526      -2.54592602      -2.17987753      -0.55980805       0.61866418
Na      25.62823295      30.12833663      84.98745916       1.10733883      11.39661584      -6.39703117       0.02509747       0.60967494       2.57474544
Na      25.46658308      24.96583735      90.57171990       1.95607150      -0.15711477      -2.96951761      -0.81846819      -1.08503937      -0.95330306
Na      24.63741005      61.80135320      67.62228894      -6.67416026      19.92750087     -14.90670731      -2.46449021       3.23735925       1.25300240
Na      24.16494895      24.89360929      94.84627960      -2.97639450       1.78447294       6.27488287      -0.24029739      -0.46230778       0.90298621
Na      26.08301790      22.22593389     100.51486671       1.90471653       1.16984452       4.32197790      -0.05789086       0.29403885      -0.65109186
