2712
Lattice="28.6612 0.0 0.0 0.0 28.6612 0.0 0.0 0.0 100.8156" Properties=species:S:1:pos:R:3:momenta:R:3:forces:R:3 energy=3180.197505466687 free_energy=3180.197505466687 stress="-0.009176365664434897 0.07962996255576972 -0.364897503220756 0.07962996255576972 0.14929124081291328 0.17342902669977645 -0.364897503220756 0.17342902669977645 0.28643627950916833" pbc="T T T"
Na      -0.51490141       0.56367956      -0.75433410      -0.33952564       0.91890377      -2.35345110      -0.12643265      -0.22252960      -0.68299886
Na       2.27556361       2.08655994       2.12780447       1.30947734      -1.21320256      -0.82406961      -0.71295249      -0.48227155      -0.30897663
Na      -0.27820991       1.42779968       3.65097624       0.15008378       0.81898647      -2.82852608       0.06593412      -1.44513744      -0.81873112
Na       2.29694700       2.38210906       6.58717487       4.11214141       0.01778237       1.80364812       1.50451965      -0.53920344       0.16162182
Na      -0.21054506      -0.23042748       8.50504425       0.78024174      -0.15705310       8.82385676      -0.92708481      -1.55768285       3.61604336
Na       1.81537494       3.60862326      10.35978516      -2.80127476       4.13334161      -1.70815900      -0.09531770      -0.77767762       0.36762673
Na      -1.05528496      -1.01653530      13.40164204       7.73003120      -5.14435766       3.24025415       0.49994451      -0.51132690      -3.58593791
Na       6.74429763       1.74909703      16.07183062       9.11659857       1.43869031      -2.21320611      -0.14913102       0.80579961       0.25750499
Na      -4.06835714      -2.41415295      17.59283816      -5.51413123      -4.90825286       2.16145051       0.57557060       1.87919415       1.58359033
Na       3.34753603       3.15305013      20.04899712       2.24930192      -3.07248871       1.89696025      -0.92695680      -1.23811878      -0.56724404
Na      -1.90771238      -1.17300609      20.89329505      -2.28559734      -1.69483574       1.02282162       3.97011744       4.87118819      -1.96125588
Na       2.45365137       3.99989007      24.92324333       2.62057078      14.20386559       7.15778039      -0.34457326       0.54050447      -0.57083316
Na       0.49743992       4.83632697      -0.30378171       4.64901678       3.31377921      -3.10864741       0.48057297       0.15067934      -0.50178266
Na       0.44403564       4.38330210       3.25782457      -9.39788715     -11.08012620      -0.44027282       2.35902132       2.28367232      -9.00117727
Na       0.15855494       4.08605623       4.62424522      -1.19875489      -0.40298626       7.29252357      -1.03268940      -0.45903458       7.98678459
Na       1.82485175       6.16112098       6.12990426      -6.45167576      -1.12506688      -2.29605059      -5.58380219      -2.16943217      -0.13106842
Na       0.14577628       4.72227741       8.53456084       0.60917987       0.25134026      -0.44118780       0.10345602       0.04526206      -0.27247041
Na       1.94478730       6.69918960      10.22995200      -1.00102336       2.73235441      -0.86331423      -0.17527489       0.33976650       0.14394461
Na      14.84360010      -5.26800470       8.47874837     111.95127876     -50.07996504     -28.76263729      -0.89819333       0.75739355      -5.99834511
Na       2.53241143       5.98999995      14.79144126       0.69913986      -0.63947383       0.71618315     -22.74295831     -13.69240732       4.80956569
Na       2.40365021       2.54550474      16.64435585       4.78931356      -8.54640023       2.53999089      -2.23275168      -3.25024209       0.72910853
Na       1.71676539       5.22032133      19.64890299      -2.15552689      -0.57648843      -0.26592590      -0.27054809       1.00650355      -0.36783196
Na      -0.72455442       3.09994095      21.38025204       3.58037841       2.10352299       1.40969163       0.16509594       0.12945766      -0.24041540
Na       1.45303640      10.32593851      24.47208295     -12.58466312      82.86212263      12.53917917      -0.55880591       0.39510973       2.83084299
Na       3.24716938       6.80164364      -0.43594477      15.09863518     -15.90623044      -8.61422510      -0.16568349      -1.56680474       0.89042999
Na       2.60052324       9.76609147       2.29884672       6.32504283      -0.68688921       0.56836841      -0.12728474      -0.05358533      -0.02103549
Na      -0.08163655       7.13102014       4.01695378       4.91328469     -13.74236868      -1.59340181       2.22327018       0.15679113       1.02823190
Na       2.63120175       9.06408898       7.64807107       0.95777932      -0.77898340       0.31743157      -0.72610424       0.94662288      -0.00916092
Na      -0.29861819       8.21524033       8.60363391      -3.21670466      -0.76595118       1.00623771      -0.35495759       0.27943408      -0.06159198
Na       2.06067593       9.99521705      10.47313900       0.10706395      -0.26237133       0.96207610       0.11019609       0.07374774       0.11168411
Na      -0.51635948       5.84252063      12.44783924       0.42789071      -1.92034728      -0.41161301       0.74079781      -0.36973644       0.27232735
Na      -9.74027412       1.08302946      -3.60445157      -8.03909207     -17.41491152     -17.01423770      -0.46356010      -8.75701416       4.89739751
Na      -0.17404610       8.00518113      14.38802865       2.39509118      -2.14472202      -3.76526013       0.15926687       0.34861537      -0.04216586
Na       1.82780385      10.50085195      16.45073642       1.97107870       0.18093520      -4.34409647       0.87887397       0.14911028      -0.62442058
Na       1.58860682       7.72272783      19.47361381      -1.33887626      -3.48076047      -0.28110942       7.63164589     -87.33831112     -24.72390010
Na       1.91513114      10.02427094      22.35688288      -4.82060091       1.96323086      -0.49753198       1.25362613      -0.49085319      -1.83215352
Na       5.91793637      12.03806298       0.37154362     704.57167011     -16.26161028      29.09268849      -5.05537877      -1.62584029      -1.17988205
Na       1.53933861      14.91091123       1.88648627       2.11215461       5.07240643      -3.68960137       1.10792489       0.32787938       0.33529453
Na      -1.00171813      12.70454611       4.76995636       3.38229586      -0.92191827       0.96470265      -0.85629120      -0.66818906      -0.05274171
Na       2.38726083      13.13672707       5.45298833       3.08622063      -3.66335182      -2.33426725       0.63004980       0.48662952       0.38110109
Na       0.13995195      11.91876637       7.99725645       1.23526678      -2.22255435      -1.94019152       0.20933156       0.04011710       0.14734224
Na       2.18698675      13.48666515      10.51115136       0.93519563      -4.25546773       0.54375472      -0.54063312       0.21626750      -0.05924215
Na      -0.32730442      11.05315612      12.22833778       2.72385367      -2.94594230       1.70648189       0.47164705      -0.29177035      -0.19569082
Na       1.14771112      14.30786500      13.33171504       0.48756827      -2.85586605       2.27273474       0.48801089       0.30966546       0.47146347
Na      -0.77825989      13.21342699      16.43130763      -1.12997983       2.09391217      -2.07092313       0.50404011      -0.23192722       0.04213362
Na       3.53901025      17.20850366      19.16187571      60.97340863     105.39133452      -2.19492015       0.68807409      -1.25270645      -0.71087799
Na       0.29609547      13.47984279      22.16057858       2.65201628       7.72239535       6.66874080      -2.83273151      -2.37963450      -1.99944335
Na       1.60935811      14.57374575      22.95084955       3.02107028       1.10454904       2.70279512       3.08428915       1.47715707       2.82976131
Na       0.24308653      16.31441208      -0.84690430       0.98855187      -1.60271598      -3.32207250       0.20377196      -0.07405639      -0.82904158
Na       1.31764312      17.76370157       6.07115004      -1.35450087      -1.57934916       5.21153254       0.39267715       0.42291152      -0.14267863
Na       0.00550443      15.27539920       4.77203404      -2.99129446      -1.10091583      -1.25669912       1.20327951      -0.06820757       0.03061155
Na       1.53381993      20.97980203       6.19263537      -0.42468321       3.90125748       2.04985891      -1.40055742      -3.27643615      -0.38911179
Na      -0.04252139      16.33106820       8.15523130       1.62276593      -0.61345763      -2.01571912      -0.14913901      -0.24053408       0.11296592
Na       2.38949756      18.38816192      11.09818896       2.13537214      -0.18119533      -0.06367478      -0.67855568      -0.58867126      -0.91220108
Na      -0.38803388      17.10675642      11.23512181       0.15069269      -0.74264311       0.43791780       0.79142592      -0.33772191       0.99255011
Na      -0.09470488      17.63032181      16.76381497     -22.95268116      22.25717098      30.84305655       4.32556359       6.60134169       3.36875876
Na      -0.05904009      15.91974007      16.54880038      -0.31016170      -9.92484111       4.03234979       1.28485402      -7.51536135      -0.38153017
Na       2.00310977      18.41609626      18.32235074       0.83564693      -2.60111931       2.89212178      -1.11217463       1.26487032       0.40000865
Na       1.13332327      17.14031536      22.59833696      11.75643557       0.34027099      18.42391916      -3.71139382      -3.66055969      -1.47561503
Na       1.89616868      18.13207619      23.62874087      -0.66225831      -6.65808326       7.41735502      -5.38628481      11.74465826       2.67529824
Na      -0.21285553      18.27273088       1.04968134       2.46259764      -8.40093523       5.39277519       1.28024201       0.14442185       0.48381786
Na       3.08486870      20.94628085       1.62075158       1.51514501      -3.95291887      -3.92339308      -0.62525481      -0.19614846      -0.53985318
Na      -0.22038696      20.82245057       3.98684186      -0.26918716      -2.25849036       2.99018439       0.27896441       0.02769064       0.13702913
Na       2.28478437      22.66699324       6.61117155      11.03523515      -7.17254791       6.75221971       1.66163508       1.69459323       0.37116721
Na      -0.37422446      20.69984395       8.91596843      -1.95903898       1.72839694       0.81449493      -0.01090987      -0.10473339      -0.33976227
Na       1.59598544      22.26892520      10.17305088      -4.17264649      -4.63968911      -3.42612661      -0.21775531      -0.82263041      -0.10706207
Na       6.41111331      20.33711381      16.80900856       4.03339819       9.97345057      11.19605102      -3.00242709       0.83456908      -1.05411110
Na       1.64439570      22.42469151      15.01076203      -0.90611390      -1.18447490      -0.36735740      -0.39586492      -0.12849317      -0.34108481
Na       6.36443465      -4.89355138       6.52387196      23.61522993      -2.23099913     -86.28698878       1.91394698       1.88574995       0.67740849
Na       2.69417405      21.71620538      17.70610734       5.09312511      -4.09305972      -5.63013127       0.35004377      -0.78362201       0.16763650
Na      -0.25516555      20.16322676      21.71420088      -1.58284322      -3.61473174       6.85238888      -0.36964207      -0.89447393      -0.31988136
Na       1.98986330      22.67243919      23.24248680       0.76901074       0.94263572       1.57024340      -0.32988306      -1.34671114      -1.26787193
Na       2.55807900      24.54704337      -2.23069085       7.28818633     -11.01609536     -11.74056062       5.42953158       5.17098838      -2.40838827
Na      -0.30355996      26.03568531       3.04779472      -5.04660556      15.47469782      -3.23201421       2.59178954      -3.89066400       2.45127559
Na       1.97107332      26.66359119       3.09931180       1.15446443      -3.68189854     -12.29276086     -46.36461440      -1.40851655      -9.99062524
Na       3.16339135      25.94857554       7.98566171      -4.20854040      -6.24121765      -3.10528254       1.55961654       0.19533554       0.67171389
Na      -1.38238664      23.69569158       8.06613650       1.42158232      -5.28464287      -1.81562118      -0.23833942      -1.69114395      -0.21951258
Na       2.12152349      24.39424168      11.13886320      -2.40447484       0.86401070       2.49238366       1.92143224       1.15782158      -0.17250489
Na       0.05654887      24.68592846      12.22822943       2.25202901       1.29764693       0.27911702       2.75363256       3.13639004       3.62793580
Na      -1.56473053      24.58769077      15.20319297      -3.62887973      -4.47877843       0.65041998       2.44201504       3.00272661      -0.25625011
Na       0.45646785      24.20342697      17.81344566       5.06226448      -2.92793107       4.19506637       1.96198358       0.64287399      -2.07970632
Na       1.29836663      27.86511443      17.01982382      -2.51491187       5.45997536     -10.14167750       0.01179832      -0.24165711       0.20392497
Na      -1.23118741      24.31351950      21.12731012      -5.40473450      -1.16619172       3.51595410       2.82118050      -3.97317328      -0.95214477
Na       0.94249037      25.37011869      23.50087547      -4.76079251     -10.49893290      -0.29597729      -0.84851388       0.19037838      -0.45298156
Na       2.89135443      -1.05652654      -1.03127908     -19.62946418      -5.99560463      -7.23986915      -0.28270149       0.18229223       0.18656763
Na       7.11316370       1.67389023       2.40127265       4.75742442      -2.33106172       2.62796201       0.02358634      -0.81003290      -0.03977979
Na       3.43531917       6.59912072       6.12003692     -15.92609200       9.95852131       0.23701641     -35.52744061     -30.97273680       0.14339798
Na       5.89375532       3.22673116       8.52228606       1.73664376       6.87342917       3.00813585       0.57837619       0.25169310      -1.51135730
Na       5.20444464       0.56989465       8.17806294      -0.14777189      -1.08783689      -3.86440004      -0.45907965       0.40068981      -0.99286494
Na       6.24942236       3.14985409      10.87301850      -0.67075100       0.46360882       1.16418220      -1.28413141      -0.35014299       1.03409223
Na       6.25002791      -2.12834055       8.41338767       3.38511205      -3.31477022      -4.13103114       0.89706288      -1.43491628      -2.13257909
Na       3.71159693       2.73466435      12.69867938      -4.64130494       1.31372505      -0.03986120      -0.13152200      -0.55251099      -0.71499547
Na       5.53651365       0.20609898      19.15621855       2.30727006       3.74114499       5.70356506      -0.32051018       0.11958099      -0.05731540
Na     322.70231996     -30.73238207     507.03560098    1295.28060032    -132.14191437    1979.03383855       7.33238883      -1.68176079      -0.09439587
Na       0.92984820      -4.86659984      20.11047220      -2.89884443      -1.48003284       1.57512876       1.74436136       1.78564761       1.46651101
Na       3.26585470      -2.44439960      21.01125942      -3.02098156      -3.33429842      -0.20761808      -0.02049739       0.32042350      -0.12063976
Na       4.55933897       2.70119571       1.63001811      -2.22764843      -1.43941009       1.23205961       0.69161238      -0.09268645      -0.78160235
Na       5.29071822       5.86924720       2.17386053       1.07248669      -2.64825455      -3.26965802       0.12157430       0.49178967       0.43212681
Na       3.75764615       3.86704589       4.04089862      -2.82144321      -2.33794770      -3.33405656      -0.24591063       0.82319664       1.03849523
Na       7.18368459       7.96775561       6.34296557       4.96085746       9.08942816      -2.08044509      -0.15501017      -1.67295639      -2.47900420
Na       3.66132044       4.42252953       7.80489800      -2.27826189       0.40105075       0.09629348       0.30592509      -0.16812201       0.74716180
Na       7.12161870       6.70087938       9.98570764       4.71730417       0.13700625      -1.15738610       0.24328101      -1.07368751       1.54374745
Na       4.33943569       5.23046095      10.58082498      -1.03882507       4.29914257       0.89220527       0.30385939       0.60600143       0.59607712
Na       6.24156069       9.38449077      14.37834030      -9.40969495      32.18160700       1.02484695      -2.73558814     -12.50731534     -12.46244717
Na       3.46210072       4.15379150      16.47415643     -12.73551011      -2.65262426      -2.18702554      -6.88597842      -3.64003547       1.17420216
Na       6.62094898       5.62379234      17.80490980       1.55254022       4.81620948       0.29432100      -1.24907779      -1.69463368      -1.51932388
Na       5.28600040       4.21862064      20.90040932       4.16693550       0.16909629       1.02370504       1.76042564       0.40724493       0.66979111
Na       5.89885968       5.11359810      24.05182680       0.27362705      -7.32433369       3.68307843     -13.46462551       5.94230120       7.18810266
Na       2.87650563       8.94836959      -0.75306114     -57.81976246      36.86221710     -53.06158453      -0.24438673       1.62252165       0.10422602
Na       6.12501719       9.99397523       2.88062121       0.08693995      -0.03467622       0.98179951       0.11003518       0.07952886      -0.24949147
Na       4.08037645       8.25477736       4.74596648      -1.52423419       1.42644175      -0.29898612       0.31905085       2.74703707      -3.46644689
Na       6.57295600      10.70214631       7.09946510      -2.48279572       0.32275373      -0.74226141      -1.20717290       0.46450432      -0.16222650
Na       4.73255284       8.00286259       8.55587321       2.03786078      -0.20281741       2.14813493      -1.41767359      -0.05632238       0.99827149
Na       6.54842218      10.22530989      10.48228158       0.95590381       0.79411607      -0.00072915      -0.02583248       0.21472925       0.11547058
Na       4.04568086       8.40647676      12.72196084      -2.62447587       0.87898821       1.77220672       0.31066304       1.96804262      -2.28576102
Na       6.42242109      10.18741384      15.15711647       0.60992056       6.62272599       5.31852995       2.37111427      12.76116081      12.07380360
Na       4.97895830       7.27596160      19.35697760      -1.22759274      -0.52665024      -0.79689781      -0.66791554       0.47738160       0.19101163
Na       7.19128837       9.98563367      19.33418694      -3.76370552       5.15645555       0.17996112      -0.46961141      -0.22127953      -0.10942044
Na       4.77795737       7.62383700      23.22032930       0.88600754       1.02458314       2.98553862      -0.14742031      -0.08092971      -0.04715886
Na       7.12731207       9.87939445      23.87730393       3.09446645       1.57169493      -1.08193558      -0.11797101       0.78134366      -0.35124814
Na      -1.33421500      17.61169883      -4.61881491     -96.90246527     103.15366046    -109.02591518       6.31198782      -6.00467045     -14.38140263
Na       5.59834929      14.72424419       3.06615654      -1.52736035      -0.51776414       1.65003161      -0.06132383      -0.82595671      -0.22685245
Na      -1.74574130       8.56026787       3.42481910     -20.35124799      -9.69358971     -14.77000082       4.50783543       2.47039831      -0.43550187
Na       6.30455847      13.99679652       6.48462857       4.80072639      -4.04153635      -1.31238188       5.71829453     -44.20154687     -56.22990378
Na       3.46509114      12.01453187       7.98483802      -0.91749634      -0.76808046      -0.11299432       0.34033831      -0.08108404       0.36337162
Na       6.48761911      14.01015867      10.50980918      -1.35932015       0.15940212       0.37090007       1.07599063       1.39148420      -1.26465897
Na       4.02801168      11.90279982      12.29843213      -0.62450079       0.34050740       0.16535153       0.32923080      -0.07524454       0.42713624
Na       6.19954259      14.23742824      14.73538009       0.99684883       0.67816667       0.01153143       0.02288661       0.01172437      -0.14315408
Na       8.40354674      12.91169551      18.65609255       0.16895004       0.29088714      -1.87207079      -0.70259330      -0.28947630       0.05370469
Na       6.14277383      15.22087401      18.76781153       0.20467887      -3.96084831      -4.26249917       0.18273330      -1.28235629      -1.29291348
Na       4.05341668      13.32213813      18.07766938     -23.63025505      52.81467434    -128.60037684      -0.29734795       0.03708673       0.01348519
Na       6.36804147      15.09258588      23.26636251      -0.77243507       5.54450133      -2.31375119      -0.60427897      -0.15888729       0.58598508
Na       4.27355542      16.08464587       0.01433897      -1.58272929       1.71839360       0.26536187      -9.61652014       2.62302046       2.46317980
Na       5.96647265      17.37343379       2.36029631      -2.19997603      -8.65135641      -1.92612208       0.08333719       0.56667931      -0.19113752
Na       3.77804785      16.53583225       4.84850040      -1.59660633      -0.83593837       0.78561415      -0.28763903       0.06608144      -0.17195219
Na       5.40492265      18.51093416       6.58615655      -1.13680955      -6.13982624       0.89624288       0.28760254       0.09089853       0.49688051
Na       2.85419030      15.55275727       8.07099952       2.93672558       2.14493070      -1.11092512       0.23552053       0.18154848       0.13355446
Na       6.18872025      18.12674662      10.09367006      -0.24901391      -0.25427275      -1.61880825       0.58738727      -0.32202049      -0.13363797
Na       4.83273927      17.61263782      12.72940184       0.57052143      -1.69259994      -0.53980979       0.58056375      -1.20201955       0.48320612
Na       9.44107521      18.90901088      14.39855357      -5.52876629      12.60917559      -7.73779442      -2.63822801       0.14034584      -0.53740385
Na       4.00896729      16.68614310      16.86039644      -1.45986487       3.35602390      -0.88752813       0.23980320      -0.42685864      -1.62458550
Na       6.57613651      18.77333564      18.32306064       0.86970257       1.51134923      -0.58407058      -0.24085345      -1.44238213       1.52150985
Na       2.86504800      16.00164910      21.11816372      -6.02843222      -2.03385756      -0.61017285       0.56065448      -1.04000568       0.17024388
Na       6.16201932      16.53196642      20.51736401       3.58909803      -5.46798588      -2.53567068       0.14422184       0.94458741       1.37681391
Na       1.52792985      23.58306815      -1.62787405      -7.46541678      -3.11980071       1.45443837      -7.27189741      -7.02968708       3.83917615
Na       5.42630166      22.16068508       2.44041966       0.24600780      -0.33865057      -0.94236831       0.48533912       0.73262492       0.07261597
Na       3.88465084      20.36941392       4.43073878      -0.31412939       1.72615878       0.56167712       0.02610843      -0.47707081       0.16187954
Na       4.92771541      22.91345871       5.85275038     -18.24940793      -2.95875156     -10.37802709      -1.97900310      -2.23285140      -1.08750651
Na       4.01850368      20.92360983       8.60852821       2.99920978       4.15244777      -3.04186796       0.02558946      -0.42574227      -0.22197728
Na       6.22342863      22.59176966       9.98838749       3.38692421      -4.22135766       0.68854509       0.16582413       0.37773143       0.15010054
Na       4.50303886      20.37812800      11.82388567       9.36909997     -10.34041485     -16.46027882       5.56278632       2.21146303      -6.17378972
Na       6.24400655      22.40025098      14.65724466       0.16795734      -0.91871020      -0.44551815      -0.29002615      -0.39512327      -0.53222079
Na       7.27745512      22.13923811      20.92003513       3.91248812       4.09142127       3.15102472      -3.52705657      -1.59837446       1.35099108
Na      -0.02759118      28.56849457      20.02467552     -19.16654197      18.48852844       6.85860412       1.07468498       0.20191292      -0.40911119
Na       2.44478245      19.62808101      22.15983419      -5.61216840       1.42969378       0.13213045      -5.08345471       6.34690992       5.68809840
Na       7.19025695      24.45002809      24.54335616       3.10863028       3.24250443      12.18642242       0.09451573      -1.15134675       0.91805098
Na       4.24667214      24.09810302      -0.16799473      -3.65681368      -0.90519944      -1.38153036       0.68463897      -0.84054151       0.60388329
Na       6.26754382      26.98250156       2.80492090      -0.82424568       2.74392715       1.19545073      -6.06362705       2.57954262       0.44465974
Na       4.35991154      24.71343588       4.30457914      -2.16603915       1.73619933       0.00606164       0.74730522       0.45356621      -0.53648632
Na       7.08248542      26.52956436       4.91218706      19.86270683       2.43682971     -24.98742366      -9.10220100      28.20570116       6.85020228
Na      44.53798660     152.83263338      79.11711304      29.19429403     212.66074369       3.44560228       0.63710729       1.38463240       0.65447319
Na       9.16656522      24.51922721       9.46524521      -2.40357530     -18.69046220      -6.74981067       0.18013750       0.76549118       0.60767571
Na       3.46677484      20.10055952      13.06885079     -20.05628724     -44.96830280      13.60473471      -5.38727787      -0.48430278       6.82350039
Na       6.97423994      25.10440056      14.93170501       5.55118469     -13.42562444      10.96778523      -9.42226239      -6.93720304      -5.56382706
Na       4.37331572      23.73734043      17.06500394       2.61799092      -4.99202679       4.22197432       0.33394734       0.64523926       0.12481005
Na       8.23759169      25.92670827      19.98269058       5.38009293      -1.17317433       3.63053421       0.00172935       0.64353778      -0.18675975
Na       4.45266139      23.58628537      22.53490973      -4.10680126       4.42626167       7.39099654       0.26878120      -0.39657905      -0.14729477
Na       6.11621327      25.95591623      23.02676860      -4.16346004       6.52297019      -2.87478218       0.33274800      -0.15298175      -1.94373786
Na      10.09460631      -1.75345131      -0.55964217      -2.26956713     -10.72873696      -4.15275324      -0.08157124       0.66822604       0.25304101
Na       9.79069321       2.98779616       2.25499974       0.85723338       2.36884762       1.59783888       0.57223130       0.02689106      -0.46943179
Na      10.98447228      -2.31117773       4.64579032      -2.14434397       0.98807940       1.73026051      -1.28449460       0.59996103      -0.50351005
Na      11.00940363       2.03372785       6.47251868       0.62771510      -1.29398106       1.18705765       0.31423258      -0.50564565       0.04506827
Na       8.47730220       0.24819605       8.86984596       3.20777851       4.32702606       1.11185592       0.19789196       0.09003320      -0.06876755
Na      14.32101701       0.15360358      10.27577258       6.60994704      -5.49780940      -0.77191004       0.60623260       1.00560605      -0.29659907
Na       8.30363388      -0.00990004      12.14994883       0.59168596      -0.17145625      -2.69443927       0.15005364      -0.03789658      -0.02553061
Na      11.03522692       0.55336250      14.39440786       2.59308956      -3.57042834       0.11350127       0.18636176       1.48938114       1.25534033
Na       9.25528399      -2.18744538      17.04948891       1.37849479      -2.36034536       0.99933106       8.39154304       3.87514349      11.29962382
Na       8.62080391       1.00396061      19.13227687       0.19090529      -0.09718092      -0.01492362      -0.34159554      -1.70108778      -0.43978117
Na      11.56935058       0.01704713      23.43953340       3.62198814       0.20180609       1.76794287       0.15437480       0.16975265      -0.28474355
Na      11.17025531      -0.19160465      26.64666106      -2.97379017      -4.75169048       4.41734721      -3.90789441       4.78865541      -1.30868695
Na       8.09101600       4.24012291      -0.24730954      -1.06724566       2.08797551      -3.57523839       0.16045403      -0.59775738      -0.40332058
Na      12.23548699       5.54827113       2.24607269       4.66196591      -0.49553738      -1.00802841      -0.18440201       0.23631424      -0.11378151
Na       9.15967366       2.66572200       5.00671561       1.16077892      -6.77258600       4.85571247      -1.00337342      -0.05462155       0.15535403
Na      10.56837390       6.14199490       6.39386972       1.63268852       1.69754866       0.30601320      29.13866194      -6.90231420     -26.33471752
Na      71.78947884    -172.82095358      36.46344043     103.68607160    -350.43198402      75.90035837     -26.78186146       6.46600690      36.49085219
Na       9.87860710       6.33181365       9.47146357      -0.11258992      -4.30066212      -9.70058883       0.66069566      -0.18061945       3.05696036
Na       8.41186683       3.11503218      11.35512685      -0.32276710      -5.09262775      -5.48350548       1.75073338       0.30676685       0.59923712
Na      10.31761632       5.78662533      15.11222136      -1.03071501      -0.69616186       2.71459752       0.19839823       0.05992184      -0.02976921
Na       6.66793359      -0.66922329      14.70861536      -2.28426738      -0.18781302      -1.17218988      -0.25145428       0.05207780      -0.19986073
Na      10.80491228       7.26898221      17.66109736      -5.74469713      -3.83100669       4.73200012      -1.44952296      -1.74094669       2.04608818
Na       8.36524384       6.40485248      18.73296195      -3.24684825      -0.19500177      -3.69877807       1.73769425       0.18733523       2.01944814
Na      18.28350824       7.59707238      24.69655563      16.22412034      11.96555295      -8.70326158      -3.62175389       3.03242266      -7.90888690
Na       8.45893071       5.59048127       4.48649058      -4.04678343      -6.85836408       5.33059463      -0.58814747      -1.79632138       2.71310502
Na      10.24716543      10.10104492       2.67044193       0.46547947       1.30207672      -0.45977203      -0.06640766      -0.05954626      -0.43178513
Na       8.38857643       8.71103491       4.96857551       2.02362837       6.02430949       0.13774853       1.81743309       1.37222693      -2.00525002
Na      10.42428987      10.31978206       6.36237729       0.57781433      -2.15340571      -2.65460915       4.08773534      -2.28952985      -1.49077599
Na       6.82773733       8.07388544       8.08348445     -11.10296503       0.43996852       2.37608458       1.17490612       0.59134673       3.07427903
Na      10.45378170      10.34245284      10.43192348       0.30113289      -1.19135931       0.67128608       0.09865394      -0.33541306      -0.37483265
Na       8.32143528       8.44010796      12.40606839      -2.44784953       2.91268634      -0.81646895      -0.72501325       0.11678638       0.12929163
Na      10.78691450       9.73738304      14.15352907       3.21586375      -2.92619647      -2.85200316       0.22263521       0.57515553       0.24462758
Na       8.04353729       7.89599221      16.46931551      -0.23293108      -0.63631646      -2.53556769       0.19839320       0.56340910      -0.64980673
Na      10.44594525      10.25147178      18.97829350       0.56937939       0.01065188      -0.09362004      -0.44587929      -0.62521495      -0.58953563
Na       8.57465499       8.34098436      22.00314098       4.17137328       2.26128692       6.58763703       0.15993960      -1.36269159       0.02996000
Na      10.44284096      10.15577235      23.23617172       0.16185743       2.75731328      -0.71095655       0.63775405       0.05880568       0.66311125
Na       7.57818985      12.70979137       0.71272769       1.19280946      -0.01168138      -1.57938224       4.76573192       2.21250253       0.67639404
Na      10.37510199      14.17226161       2.11650525       0.59984169       1.05811654       0.01041197       0.10089780       0.15277944       0.00244912
Na       8.30449542      12.42859438       3.64399523       1.03913461       2.34030164      -3.59892591      -0.34825057       0.02605442       0.90673114
Na      10.32259493      13.92090920       6.73954342       1.79682606       0.61117099       2.14728562      -1.38356159      -0.13214440       0.75263591
Na       9.69712620      13.03032098      11.23832658      10.03806700       3.09561275      22.92710466       0.62338955      -0.55407079      -1.65517696
Na      10.46865286      14.61684801      10.55426652      -0.69272692       4.87598589      -0.21264117       0.25080627       4.28615974      -2.64886984
Na       8.56568784      12.18988947      12.49508932      -1.65534496      -1.25789163       2.81736642      -2.67882074      -2.06746287       2.96598070
Na      10.57606907      14.95143203      16.07527869       0.33389457      -0.26828895       2.91180119       0.00562179       0.40217914      -2.65235443
Na       9.12715300      12.37322907      15.71165176      -1.19833195       1.21326475      -0.26734240      -0.18332268      -0.45585551      -0.16387224
Na      10.38196224      14.41737309      18.14560065       1.64680419       0.77527117      -0.48597055       0.20894564      -0.24041579       2.07243046
Na       8.43865335      12.17365979      21.97582229      -0.65723383      -0.69365252       3.22961011      -0.46655380       0.30192308       0.58806476
Na      10.15842158      14.63490140      23.69788052      -0.74441849       2.37755302       0.04508297       5.43256212      16.91705277     -10.88868659
Na       8.43043031      16.32415225       0.63182026      -0.07471818       0.17144744       0.39990231      -0.32892185      -0.43288126      -0.33619423
Na      10.24464234      18.17433454       2.66365703      -2.57038964      -2.42869230       4.95551800       0.38635549      -0.55110064       1.69065669
Na       8.40342853      16.05792015       4.38758265       0.67670777       2.51798026       0.34291559      -0.36685116      -0.05057972       0.61497080
Na       9.97731991      18.35021438       6.24187228      -1.72824278      -0.40264164       0.02128861      -0.87460058      -0.53239993       0.01073555
Na       8.73483559      16.22317057       8.22229462       8.42885629      -7.04056184      -2.14349406      40.52754580     -79.61774022      11.38936966
Na      10.15592351      18.48574669      10.38565509      -1.90248660       1.56101008       2.33181484      -1.52235032      -0.93809829       0.00441358
Na       7.97006532      17.73034568       8.70249112      -0.87841869      11.66684432     -22.17413664     -10.70131541      21.24806139       7.97412295
Na      11.50663943      18.52708873      14.52662929      19.36399462      -3.14800675       2.39422180       1.18804729      -0.06146386       0.34591047
Na       8.17097940      16.18466978      16.70114685       0.23501786      -1.54211300       1.43940606      -0.55950084       0.56341942      -0.18517014
Na      10.28326167      18.03615591      18.55558369      -1.10605658      -2.28294621      -0.51908037      -0.87316805      -1.67236405       0.90376488
Na       8.96071633      16.37657644      21.38966831       2.09191609      -0.36534410       0.33573954      -0.16438670       0.23339142      -0.04808651
Na      10.35796166      19.00208312      23.38538207       0.85835394       1.32616865       0.10134740       0.43381591       0.32808017       0.58955641
Na       8.35017081      22.74216257       3.09593826       1.14076748       1.28098903       1.11418648       0.01976970       0.55883514       0.16984961
Na      11.47757013      22.74979611       2.73803608       0.52239785       0.47635235       0.27888414      -2.02027512      -0.74949447       0.25901768
Na       8.04123583      19.91700171       4.61690372      -0.87362921      -1.60880567       0.85106163       0.09286814       0.57858953      -0.16254519
Na       9.81124503      22.57541238       6.37808031      -0.15517318       1.43175158      -4.77345949       0.67986658      -0.59479402      -0.91309123
Na       8.00539481      20.49028796       8.60789920      -7.48335862      -0.83580373      -0.10250949      -8.09505539      -1.31859475      -0.70824422
Na      10.08795562      22.31584351      10.52408346      -0.85155562       0.47461518       1.94023973      -0.15474259       0.06335772       0.72040561
Na     -17.39599386       6.39354614     -24.44569313    -369.01252710    -206.81903077    -535.49014643       7.27399782      -7.40466293      -6.10235641
Na      10.14909235      22.31041291      14.06516015      -0.74845819      -1.48363623      -3.49305370      -0.59008462      -0.22021771      -0.16820738
Na       8.46197367      20.70164970      16.67248944      -0.74201618       2.16438037      -2.04882599       0.78900902       1.20769006      -1.03183643
Na      10.40288265      19.89473445      17.50970519      -4.67171256      -9.67563265      -1.99628404      -0.57253105      -0.51875410       1.04674151
Na       4.79831479      18.25770732      21.11168913      -7.71609090      -5.37099495      -0.03463479      27.87852478     -13.25885171       5.68400447
Na      10.65318701      22.81938697      23.12975558       5.46536518       2.41841223      -2.95189811       0.63167334       0.27415215      -0.68882634
Na       8.27182670      24.55746424      -0.05772076       2.62228062      -5.15547816      -5.30368745       0.28370143      -0.96035539      -0.42941123
Na       6.40231884      25.97746840       0.75397970     -42.76433122       2.14159845      -7.50191145      -0.65185029       0.01079340      -0.86959221
Na       8.10049305      24.93484078       4.33532475       1.87762790       1.24872782      -0.59679605      20.85913861     -18.87336438     -13.01700726
Na       9.89401007      26.62368819       7.11335295      -0.76603280      -0.61134362       1.74601731      -0.51258512       0.06689659      -0.51168104
Na       8.24805129      24.05567953       7.31346369      -3.54287076       7.94486588     -13.15571920       0.23156104       0.95888798      -0.07967000
Na      10.91650192      26.57784015      11.34364944       6.28036841       2.37516142       5.67321510      -1.49537452       0.05282417      -1.06306432
Na       7.94679969      24.43642213      12.30540710       0.04276862      -1.13405430      -0.05762143       0.17830821      -0.08080479      -0.29626330
Na      10.34256841      26.64921743      14.07202025      -1.94621605      -0.86634551      -0.97518736      -0.56000394      -0.84792391       0.28694582
Na       8.53379599      23.88067782      16.77460299      -0.63181179      -1.68657263       1.04701320       0.28481438      -1.43560456       0.85133960
Na      12.02611692      27.35205687      17.59343523       4.24992589       1.30164245      -3.21076247       1.23605172       1.10858512      -0.85634632
Na       8.06900237      23.85726210      21.52103448      -2.15239585      -9.11553967      -2.93220839       1.34615826       2.23390113       1.67716792
Na       9.28045533      26.44813667      24.10846485      -2.57341616       1.46365153      -0.38881299       0.15109163       0.17547103      -0.23667584
Na      12.88360149      -0.01954322       0.85398783       2.65661045       2.24641786       2.73801765      -0.67788522       0.01734891      -0.46331251
Na      15.32918730       7.57440629       4.74983736       0.32226180       4.53577842       1.63836391      -1.20422720      -1.19880534       0.02243469
Na      13.19408962       0.38065312       4.23995552       3.28138960       4.06707541      -2.07131405      -0.33883011       0.48405787      -0.14024676
Na      14.11018199       2.23719921       6.46867922       0.68892589      -1.94985515       2.90576687       0.19751869      -0.56542694       0.48078886
Na      12.08879918      -0.01920613       8.04843596      -2.33447512       0.04800330      -2.19633311      -0.07181265      -0.31235537       0.20689686
Na      16.27951780       2.76576765      10.54976313      11.61470303       6.29155120      -1.40146556      -0.32440148       0.02746203      -0.32480945
Na      12.29767760      -0.61943781      12.69815151      -0.00574491      -1.83603413       3.49662408       0.99239556       0.98577880      -0.36024165
Na      16.95860327       1.86784764      12.71541082      10.62871240      -1.81681951      -7.25083671      -2.30650915       6.76720951      -6.49808215
Na       4.34742185       4.93190696      16.78185232     -14.60164025      13.81665362       0.28354351       8.02152593       7.16464200       3.65213288
Na      15.51737610       2.90494507      18.59967593      -0.26791874       8.79812938       9.54963963       0.10710091      -0.07919247       0.18932427
Na      13.51269496      -0.61453250      19.57708527       2.12000911      -4.31811695     -10.09527684      -3.33702032       0.35793096      -6.18237625
Na      15.05931905       1.62588366      22.43563779       2.37524428       7.08893140       0.12718965      -0.28434072       1.17754161       0.04901718
Na      13.46380186       3.64510212       0.24192610       5.35344904       0.41745024      -0.02183457       0.34572648      -0.04295093       0.24363949
Na      14.19561945       7.34944901       0.84353049      -1.50859778      -0.95233271      -0.83322056       1.23998577      -1.60022163       0.77277825
Na      12.23156200       3.85735965       4.42425160       1.39372970       1.16255175      -0.79867538       0.24120444       0.13846746      -0.20366589
Na      14.09526779       6.04434885       6.91214059      -4.89099954       0.12460382       4.02831376       1.30040578       1.87227090      -0.46036997
Na      13.03113331       4.33675721       7.41929960       3.83312918       2.00976245      -6.02988949      -1.70448484      -1.04267728       1.41246834
Na       4.16629746       3.76898634      14.72957595     -33.18640886     -13.28761429      12.52995333       2.44474852      -0.86572486      -3.77525907
Na       9.79975475       3.28946662      14.09560589      -7.63395146      -3.49739588       7.83644130       0.37633455      -0.05745637      -0.17221086
Na      15.75346290       5.91702218      12.24645393      14.30829930      -5.30275032     -34.85109994      -1.54825777      -1.12708515      -0.48643539
Na      12.71776019       3.66252994      17.54497872       0.43391151      -2.63632552       3.30281095       0.69707815      -2.12453771      -2.40440210
Na      14.29456174       6.13953263      18.15512062       2.11129156       1.02940674      -7.00418281       0.41844436       0.18472072      -0.08555548
Na      12.93869496       4.05230619      19.80231665       0.01292013      -3.59329687      -2.09175067      -0.26529946      -0.31520668       2.13237280
Na       7.33002362       6.42521384      34.53072836     -50.19782987      25.20452528     101.96611081       7.64778574       5.65578239     -22.10404006
Na      12.38075146       8.41411982       0.29041544      -2.10697206       0.28516480      -0.47230075      -1.87662247       0.94117559      -0.68244259
Na      14.47207322      10.36139550       2.17078672       0.11873992       1.69907397      -0.79377113       0.13562910       0.30886032      -0.14577748
Na      12.47766319       8.27169663       4.13400270      -0.15464024       1.23193395       0.39160177      -0.27373753      -0.17944129       0.05658960
Na      14.48210349      10.09986931       6.34474818      -0.27944254      -0.26180067       0.97276516       0.51371475      -0.04300501       0.11835591
Na      12.22699130       8.31926946       8.23354032       0.36152170       0.37960778       0.60439638       0.04873349       0.05287737       0.21261284
Na      15.00503698      10.15657335      10.36250615       2.41418001      -0.98125725      -4.94728873       2.46092594       2.23329494      -2.31128282
Na      10.66942876       7.60136171      12.37576912      -1.85077510      -2.28150205      -0.17597855       0.90109723      -0.82230978      -0.41575925
Na      15.46645269       9.16447810      13.11208186       0.39898649       0.42237612       0.10835546      -5.11739787       4.88966425       2.85083353
Na      11.73127297       8.37744217      16.08541959      -3.69913464       2.84960177     -11.90476604     -15.28865929       4.24890294     -14.72419206
Na      12.49033114      11.77354545      19.75882299     -97.69367570      75.16810462       7.68431942       1.87209109      -2.28855833      -3.92328708
Na      11.61071667       7.63282951      21.35102627      -0.60144172      -1.42958087      -0.17986010       1.42581086       2.64960532      -3.81899367
Na      14.59648062       9.93287910      22.67080041       0.35912625      -0.23082113       0.10569135       9.28788993      16.07406270     -11.01347560
Na      11.78596756      12.15409936       0.06863160      -0.06729201      -0.57706079      -0.70983757       0.10960380      -0.13596745       0.11463913
Na      14.12165317      14.46051393       2.17909472       1.34764401      -1.12664904      -0.50863414       0.03251421      -0.06768618       0.23937147
Na      12.53757429      11.82291111       4.31114275       2.01486444      -1.02953805       0.31386812      -0.00156780       0.19919854      -0.04074809
Na      14.29720375      14.31235771       6.15522185      -0.60043722       0.01906242      -0.50493695      -0.33418782      -0.97007704      -0.50275229
Na      12.81012252      12.08471857       8.18332096       3.41376424       1.42287791      -3.05869334      -0.15861346       0.09787576       0.30316649
Na      15.84777324      15.32168660       8.18022499       6.71424377       5.70642488     -16.89073156      -7.27060579      -4.08049234       0.76718319
Na      14.37883867      14.03491482      10.98562648       1.04663787      -0.05716267       2.49999759      -0.27071074      -0.30949989      -0.81749967
Na      12.76978036      14.63084233      13.33923299      -1.46209695      -2.66227780       0.04516312      -0.46208731      -0.01519971       0.39826708
Na      12.24603596      12.22920087      17.03250159       0.53647933      -0.58561546      -1.19656615       0.34709166      -0.41934043      -0.88131780
Na      14.11298642      14.14137204      18.99870055       0.53112423       0.03820095      -0.14953907       0.76757304      -0.84782200      -0.11296449
Na      12.00533466      12.51379565      21.33783651      -0.89503280       0.27184967       0.69941357      -1.25461246       2.20295025       4.74635220
Na      13.10175835      15.55815429      22.64540833      -4.50015224       5.07582733      -1.01938208     -26.64115976      17.14302070      -2.68195981
Na      27.77902741      14.65379849      -5.02370169     128.05923005     -13.87140341     -40.48926323      -1.71089553      -3.27563155      -0.04097320
Na      14.12003424      18.97103545       0.99719404      -1.81451104       0.74604610      -2.62073053      -0.06599690      -0.31594662       0.09436307
Na      11.76474109      16.52100457       5.17324737      -2.08006609       4.78919085       3.87257513      -0.08269240       0.02691979      -0.68933758
Na      14.17256443      16.88007272       6.33605415       9.73343586     -12.65632195      -9.60558376       0.30970887       1.03776121      -0.03505540
Na      11.60721102      16.04045998       8.40810259      -2.93225475      -3.99591200       2.24916445      -4.29552799      -3.15201531       0.34761536
Na      15.00398845      17.30549347       9.72728483       0.76751345       0.62729144       3.20923415      -0.71125009       0.11953612       0.23306560
Na      11.97931678      17.44538564      11.67806427      -0.28469109       6.34897176      -3.75587075       0.63053249      -0.23547276       0.05721183
Na      13.89422783      18.01701614      14.56224352      -2.13197915      -1.08591122      -1.28609929       1.47223427      -0.04132398      -0.32755564
Na      12.57670905      16.48092584      16.79892924       3.46868726       1.91287422       1.66713010       0.27968269       0.20581518      -0.19435628
Na      13.43631456      18.79472580      19.76382420      -2.01552587       2.41398560       2.29225246      -0.40500166      -0.13695549      -0.27961238
Na      11.70377324      16.20400179      20.43111903      -0.24596856       0.85692865      -1.07513325       0.74403687       0.20342304      -0.00475843
Na      18.99643816      21.19053117      24.63719626      -7.51017109       0.05283831      -9.44764639      -0.14819997      -0.57904167       0.55994358
Na      12.48505925      20.99542207      -0.19222896       1.30977611       2.59215213      -3.96139769      -0.14054088       0.19230098      -0.68651023
Na      13.64493984      22.41405104       1.63629999      -1.86781684       0.50342095      -9.92223341       0.07035633       0.24666649      -1.72055003
Na      12.22845595      20.75976330       4.80221653      -2.33054458       4.17511371      -9.45093169      -0.15692771      19.55052923     -20.08733826
Na      14.63202687      22.01929117       3.32554638       2.41698284      -4.96203206      -3.33853643      -6.02190432      -2.16171626      -3.23478588
Na       9.62737780      20.62572557       8.69309804      -9.87489031       2.22349675       1.03375392       7.42838364       0.00277115      -0.36661780
Na      13.37282342      21.97031268      10.26678326     -12.48258467      -7.29649553      -0.90397145      -1.36397451      -0.53773936      -1.23585294
Na      12.30880091      20.92414966      12.24782484      -1.11296417       3.92950994      -1.57104093      -5.41646380      -0.62723752       0.57276617
Na      14.27166057      22.66862152      14.46160079       1.16884093       5.01921876      -2.61019475       1.47541666       3.73547513      -2.88768361
Na      11.84175761      20.90271615      16.68243402      -3.96186036       2.30498745      -1.91087112       1.27137249       1.38227940      -0.35083335
Na      16.31031774      22.87034100      17.77480065      -3.40654456       4.31592959       3.87202683      -0.66457551       0.37674900       0.12296088
Na       8.43337338      21.36935815      19.53338666       2.34691616       0.28794898      -3.33629358       2.37416237      -1.25804981      -1.93796190
Na      13.96673495      22.48956316      22.94898936      -0.62804347      -0.22615899       2.55357950       0.41593268      -0.14366167       0.96871416
Na      11.91410575      24.56318406       0.25672069      -3.26566374       1.28924903       0.92474933       0.14276172       0.96151151       0.20672348
Na      14.01543909      25.84241362       2.87791993      -2.41928717      -2.41190347       6.74057298      17.33800775       0.46013530      23.87846609
Na      11.96594159      24.20318162       4.76602026      -0.61502125      -5.91874381       1.68978705       0.41066915      -0.88559197       0.53263594
Na      14.14374854      27.00052234       6.04172909       6.13180818      -1.14353752      -5.55036093       0.20127938      -0.10086083       0.68331915
Na      12.37618816      24.36276867       7.62154383       3.66004993       0.64356134      -7.12385394      -0.37424813       0.15109182       0.17644725
Na      13.42255512      26.53272465      10.78396128      -8.08901383       0.37320624       2.99591448       0.73882928      -0.92671089      -1.06322555
Na      12.17222481      24.26801185      12.15772754      -0.43244934      -0.36857352      -1.19230245      -0.09574749      -0.51817028       0.49868074
Na      13.80152361      26.35732900      14.90578775      -4.66630225      -1.02005488       5.54571910       0.67605634       1.13332360       0.80709252
Na      11.76053253      23.85567637      15.50968178      -0.11402205       0.46351574      -1.49285945       0.13637845       0.75610915       0.57749748
Na      18.32103246      29.34056213      20.97703917       8.60405283       8.42903369       2.71702061      -0.13926519       1.22971972      -1.37280913
Na      12.32039707      25.53506832      22.13110450      -0.88653503      -1.54016110       0.24968875      -3.53253979       0.15428997      -0.27431995
Na      14.27316244      25.51570134      22.16405603       3.28749530     -12.24510908      -3.86909742       3.94496246      -0.26516803       0.09579895
Na      14.18149567      -3.93361429      -1.71710323      -1.00516424      -4.78986343      -5.82068345       0.21136930       0.04022134      -0.24543186
Na      16.68002235       2.69873626       2.49838006      -5.32492134       1.11688328      -2.58805232       0.01772079      -0.35242825       0.04161359
Na      15.54088002      -0.51670127       1.69052761      -3.72521352      -2.82190014     -10.95944905       0.80620660      -0.07516280       0.25548517
Na      19.08837284       1.86826442       6.20183274       3.69906937      -0.78267303       1.13784305      -0.08233512      -0.20488248       0.49196214
Na      16.09724149       1.79176703       5.07072665      -1.93975310       3.62198915       2.72355245       0.41320679      -1.02303473      -0.02647429
Na      20.24334700       2.82710337      10.73632911      -1.17503531       5.73051147       2.76256233      -0.05731676      -0.51505408       0.17364211
Na      16.79916199      -0.61263140      12.27406338       2.41643849      -1.71004195      -1.42300263      -1.18694758      -1.95662042      -1.26148413
Na      14.98273793       1.05638465      17.15715833     -43.83718461     -19.67690840      11.40179101     -49.98913342      70.96187844     125.32625677
Na      16.07094359      -0.76523178      16.31288942      -3.37253467      -3.92983528      -3.06687376       2.10322978      -2.93014999      -1.51294281
Na      19.83711656       3.04082734      18.10335534       3.94013006       4.53715890       3.86416207      -1.60442378       0.58816711       0.42042528
Na      16.02002690       1.74446638      16.17826038     -11.22358902       2.26244511     -38.26196379      13.72024282      15.09896725      -2.94572765
Na      21.46227821       2.55913475      25.28476544      11.10847902      -5.64481435       1.86519709      -0.47342520      -1.26473228      -0.65267104
Na      16.52949201       3.78469565       0.12533081      -0.61777133       0.32722549      -1.88939454       0.23924585       0.42653933      -0.80628474
Na      18.41577282       5.80345658       2.22644591      -1.58531996      -2.02239167      -3.58568675      -0.52763231       0.46696557      -0.01291630
Na      17.11508212       4.27369969       5.15713731      -1.95462325       4.58948672       4.41508290      -0.73394430       0.40965955      -0.01759182
Na      18.05956980       6.48354711       5.98176806      -1.95556342       1.12879281      -2.01558629       0.32583067       0.78151410      -0.06213640
Na      16.27961680       3.95160770       8.21249643      -0.03502768      -0.04479908      -0.56606823      -0.72311571       0.48356684      -0.44248803
Na      17.90644027       6.18302905      10.79315266      -1.71665491       0.85290356       1.77815400     -15.14172693      22.83699521      -6.61416994
Na       9.95531523       3.04047860       8.88984721     -14.70836236      -5.64856450      -5.26438001       0.08534455       0.40618146       0.14745317
Na      12.32328197     -10.94785628       8.17923811      -9.07339482      -8.04228211       9.38200269       0.99306043       2.91599892       0.33129517
Na      16.65675430       4.82453779      16.04552014       0.11740219       3.88069421      -0.61196901       0.01368532      -0.27259230      -0.25894578
Na      18.19526381       5.74292354      19.42631519      -0.04799637      -2.25859809      -2.12401067       0.32883288       0.22544035      -0.39513848
Na      15.99673241       4.79595565      20.74506513      -1.57924865       1.75470484       4.56700298      -0.28053761      -0.61108616       0.25773714
Na      18.31959631       6.96706363      26.15471486      -5.41450428      -6.44997460      31.13911925      -0.70787352      -3.63105504       9.31753009
Na      16.44647189       8.42683027       0.09930116       0.06582633       2.81202376      -0.70204111      -1.08049890      -1.73822380       1.51456301
Na      18.31103691      10.63864127       2.23529841      -2.78600773       5.73872339       0.56338358      -2.56424644       2.07654444      -0.90288145
Na      16.99269617       8.75561379       4.01281069       7.09069953       5.91116701      -2.68579171       1.21488167       0.70831499      -0.84839925
Na      18.37848950      10.02101808       6.42788460      -0.54328411      -2.97118514      -0.25139397      -0.23378792      -0.43708609       0.18370256
Na      16.43050945       8.06336734       8.26713720      -0.34882412      -0.53262689      -0.08017617      -0.86295965       0.16156670      -0.34028430
Na      17.92309838      10.63835562      10.15243565      -7.81001769       2.78890500       0.02689614       0.34508437      -0.27056576       0.65441945
Na      17.31171024       7.67774444      12.75898240       9.33954640     -10.02065434      -2.97699321      15.92810838     -13.55502611      -3.89751939
Na      17.44733788      10.77500489      14.29661512      -9.26176714       5.89080752       1.36777010       0.32467402       0.31823418       0.08502038
Na      40.94029874       4.68144437      31.12999764     198.82921187     -33.90385181     129.47482038      -2.30621606       1.05970545       4.78934436
Na      19.25067870       9.93073052      18.46793986      -0.98991564      -0.50156093      -0.69506592       0.22362384      -0.21465912       0.46738762
Na      13.80959590      21.34643954      15.59553837       2.11100459       5.92446584      -6.33398007       0.32364379      -3.42920315       2.45029815
Na      18.70781832       9.15321669      23.01694495      -0.51501521      -3.45353962       2.07536857       0.73720969      -0.32069333       0.21857320
Na      19.04765549      10.94595897      -1.18113107       1.42050380      -0.28753948      -1.92636973       0.17260771       0.15169597       0.63550446
Na      19.19090190      14.20753468       1.98886834       5.84029176       2.44570594       5.60047752      -0.79556949       0.12853202       0.08368455
Na      16.77987679      12.09115641       4.30387689       1.32648387       1.37919670       0.52043245      -0.64327964       0.16985924       0.26428384
Na      17.47641530      15.00488088       5.46375192      -6.70340248       1.96477288      -5.12806998      -0.79773738       0.18552597      -0.75707859
Na      16.09451710      12.21252738       8.29683332      -0.92394986      -0.71301483      -0.39377166      -0.09723121      -0.25525424      -0.29360902
Na      17.73272448      14.45845626      10.18139366      -5.82678316      -1.12335874      -1.93222209       0.30317031      -0.40812353       0.30933449
Na      15.24191886      12.32727437      13.29397220      -6.86640235      -0.68753107       3.33079226      -0.74962897      -0.31620734       0.24447537
Na      17.57214496      14.86242339      15.23482151      -7.02117703      -0.21569706       1.69914003      -0.64169947       0.01125924       0.51339328
Na      16.34419901      11.43321287      17.48665277      -3.61898561      -3.16589296      -2.63076817      -0.43674536      -0.22788064      -0.01726514
Na      24.07889799      17.90410670      17.43160259       0.23806058       2.83526831      -0.96652591       0.00591294      -0.14477357      -1.68488925
Na      18.42259145      10.70620079      21.38076401       6.37640138      -3.83307925      -1.92567988      -0.18519339       1.38285879      -1.24920996
Na      19.69493697      14.83479572      24.69170809       5.34412591       1.73223980      -1.42982614     -11.81849558       0.53075672     -13.55045163
Na      16.40117784      16.07025457       0.58942868      -1.13093938      -4.20652845       1.89452573      -2.24997557      -4.28716800      -0.89012474
Na      17.64179488      18.01724455       3.38026923       0.77395307      -6.07176896       9.76012395       2.56566548       0.93598952       6.31153445
Na      14.01054290      18.64496105       4.12561008     -10.65771278      13.95327768      -6.99542392       1.15913475      -0.40498169      -1.18725274
Na      18.48833946      19.88842137       6.60290571       2.99144989       2.09437358      -3.68662730       3.33807762       2.22030856       1.63892484
Na      17.25376036      16.03193224       8.06463165       8.47675565       2.13760901      -4.13132988       7.22371551       3.56745496      -0.97462840
Na      18.77302985      17.98296940       7.97768662       2.33301778      -8.99605593      -8.29608470       0.57657533      -1.91260357       0.17616783
Na      15.68533267      15.95631555      12.68592959      -4.56536923      -1.27235137       0.17750936       0.03634668       0.59520794       0.20285795
Na      18.92663059      18.09242247      14.50192122       3.34295768      -3.39512763      -3.81231156      -0.11445742       0.02928376      -0.14566816
Na      13.83753444       8.87749399      16.84029510       8.96988731      -0.48442249       0.21749903       8.12634973       4.25546189      -0.10360127
Na      18.99948760      19.06924703      19.05156792      -0.68463503       0.99853682      -1.70834816      -0.06555861      -0.08584850       0.16067287
Na      16.29016124      17.65593259      21.47746376      -1.33124147       1.89819846       0.48600560      -0.52773268      -0.69210769       0.20276581
Na      19.14765311      17.44851966      22.43327219      -0.28905440      -5.45263411      -2.68795397      -0.48500005       0.34764381       0.56401680
Na      16.67975258      20.75195067       0.93539301       3.01995294       0.56039630       3.68535033       0.07496567       0.07883081       0.41153167
Na      17.46681731      23.40615317       2.94506082      13.84835522       8.64926849      -6.31248095       2.12722154       0.75103193       0.15577935
Na      16.84520819      21.02052674       4.78775526       0.82493125       4.33066971      -1.27560011       2.10590907      -3.34103662       1.49394174
Na      19.30994564      23.05334396       6.05758298       2.61485188       1.31468497      -5.53007690      -1.45802790       1.42561497      -0.68809827
Na      15.39258192      20.06211930       8.57921459      -4.63191614      -1.79579865       1.63783082       0.19567453       0.15075200      -0.41915747
Na      18.77586119      19.66995588       9.98720431       0.34331892      -4.40995859       4.59959224       2.00777419       0.57189174      -0.89261198
Na      16.07177064      20.92156965      12.94621956       1.48110524       4.67096253       3.29816655      11.47308875       1.85252931       5.68458218
Na      25.70624298      33.15887587       6.61574925      70.45823330      98.89641324     -75.30208183      -7.61076373      -5.68097055       0.88871504
Na      17.63692368      20.57373731      16.65623077       3.40932152      -1.27365746       1.65607679      -0.00131407      -0.20075621      -0.36089741
Na      19.03856989      23.20145955      19.25988222       1.30913337       4.65248286       1.12277059      -0.51065441      -0.29643669       0.29849140
Na      16.39187899      20.51988755      20.73865361       7.83232342      -6.54732279       0.05244219      11.16714113      -2.66709634       1.23307244
Na      18.15649016      23.04492748      23.07053976      -2.03634115       2.50813086      -0.29411414       3.47853074      -1.35029280      -1.19569177
Na      16.62262619      23.59728002       0.66683822       1.18971245      -0.75495096      -0.45387272      -0.81190846       0.40333224      -1.25652665
Na      18.33006037      26.10100706       1.78101893       0.04760272      -0.33089648       0.84320653     -17.19440948       7.49013831      -9.83601788
Na      16.40932244      25.35855810       4.94968369       0.78740931      -1.13648947      -0.59870592      -0.25019910       0.29179524      -0.19770555
Na      18.32519237      26.26736655       7.09623226      -2.60164784      -1.01464258       2.81777250      -0.46083133      -0.36722681       0.13118921
Na      17.89155797      23.26104372       8.68165179      -2.89641943      -1.91822658       2.00554557       0.83079679      -0.33180657      -0.03758755
Na      18.86696649      26.47799225      10.84770306      -2.48718230      -0.89057446       1.13626320      -0.70399186      -1.33562178      -1.39304392
Na      15.01611630      24.65875798      12.35310521      -8.31244290      -2.71400012      -5.68658962       0.83015938       0.55882779       0.82488502
Na      18.27020294      26.25109052      14.16776180      -2.97587903      -6.36360385       1.92424698      -2.37645152      -0.89600515       1.29460172
Na      16.97398151      17.77048731       1.85169018      -2.26996390     -52.07960056    -113.07665242      -3.03758394       0.90751028      -0.81826872
Na      18.18152414      26.69598055      18.63365904      -3.28768240      -0.92908244       0.31973707      -0.83697095      -0.05706892      -0.30461624
Na      15.02895959      20.86955851      20.61587187     -14.31741982     -31.13292405      -3.64532079      -5.46324178      -0.35293461       0.55378241
Na      18.45425167      29.70594650      26.02535059       2.56253341      -0.21421725      -1.00293213       0.27612674      -0.13051256       0.92460701
Na      19.84223529       0.94972622       2.96511940      -1.54195367      -6.97525354       5.84617933      -0.18827532       0.65741972       0.80669857
Na      23.64110660      -2.40606128       5.22457353      -0.94908204      -5.27838748      -0.69907394      -1.36361526       1.21352669      -2.15641361
Na      18.56988738      -0.74996432       4.41200630      -1.23524690       0.34004384       1.24664136      -0.46578502      -0.49983438       0.57080438
Na      22.07021756       1.02122245       7.00831754      -4.94394945      -5.74468513       0.36199359       0.29023790       0.49638133      -0.21028103
Na      19.32586189      -0.26711756       8.64698894      -3.48111131       0.56705801       1.06945986      -0.14607674       0.73209835       0.24503160
Na      23.39250473       2.68611945       9.65083200       2.40683110       5.95883184      -2.15140583       0.23657130      -0.50517927      -0.83235837
Na      22.34197498       0.41217415      11.64175177      -0.30499668      -2.83753825      -0.85808703      -0.59709225      -0.12033722      -0.79605870
Na      22.10804827       2.12274781      15.10031801      -7.04761059      -2.20014507       8.21429316      -0.30990633       1.39941743      -1.30169058
Na      20.14500724      -0.02292613      16.63276778      -4.23031991      -0.16097256       0.37056227      -2.49705965      -0.91836401      -0.58544656
Na      21.59258521       1.46798183      17.44147590      -3.60361613      -2.89055768      -6.79775510       1.49294200       0.92835413       2.28657367
Na      19.98781216      -1.48535276      20.81927384      -3.36701757      -9.15367003       7.80758251      -0.75045484       2.39155049       0.91553051
Na      17.39819024       0.14464593      23.10789334     -12.54747373      -3.96488326       7.82588544      -0.10127586      -0.83132265       0.99375954
Na      19.48710090       5.07014580      -1.31041224      -3.16701614       4.22609000      -5.37588306      -0.11846065      -0.31488005      -0.36807080
Na      22.70679014      11.79725186      -3.21835668       0.18455732       3.74018517     -11.20634442       0.71500937      -0.44598546      -0.54862101
Na      19.74677648       3.97237421       4.28222596       0.09060940       1.86157050       0.67581621       0.92784020       0.33603474      -0.29455551
Na      22.68498499       5.02299162       9.36787616       5.04463549       1.96758647       2.00727989      -0.23611709       1.16212301      -0.32428944
Na      18.70788519       4.65642287       8.04850176      -0.05903994      -0.36477528      -0.66000023       0.96371697       0.01659376      -0.50324066
Na      34.15235146      -0.96752696      10.17068156      21.89641479     -11.54309950       6.58281338      -0.66988122       0.30666380       2.52204082
Na      19.67051895      -1.40490219      12.92250547       7.85744431      -3.72427238      -7.84877782       2.22259345       1.92976426       0.14619312
Na      23.57449259       7.55391524      15.13855465       9.54247351      13.81554884       2.61707401       0.22987217       1.72749846       1.52543786
Na      22.73230810       5.61925132      14.31314978       7.44772892      -2.11855013     -11.24022413      -1.67945586      -1.27558980      -0.39310158
Na      21.56684225       5.36872164      18.08708295      -0.47682633      -1.04611156      -1.29035699      -0.08998634       0.64723195      -0.03917777
Na      21.37580210       3.87154542      21.42315156       2.58642725      -0.70455785       1.89837493      -0.01327271      -0.36169516      -0.39302427
Na      21.51931508       5.01336788      24.51439374       0.79797741      -5.43093412       1.79443367       4.39892619      -0.64084753      -4.03916718
Na      18.28035295       8.14675883      -1.00950443      -3.24656494      -0.65840175      -4.83187361       1.47539259      -0.30966678      -0.32083345
Na      22.44217565      11.80989755       2.40718214      -0.85877036       5.11155968      -4.71474657      -0.83276491      -1.11927488      -1.45495051
Na      20.55277069       8.15610244       4.32164925       2.77681305      -2.39264611       4.65620042      -0.12403067      -0.08217605       0.33155738
Na      23.13087365      11.93652296       4.46722846       0.58055427      -3.16834810      -0.03142527      -0.44581026       0.28284045       3.08901387
Na      20.31141805       7.97477226       8.64115545       8.48358935      -5.52349605      -3.83420957      17.06176314      -6.21898818      -1.10436287
Na      23.13980841       9.45254449      10.65690787      -0.56069968      -0.25013021       0.19158415      -0.73555762      -0.16720709       0.04448627
Na      23.49155563      15.80940367      10.70521006       0.22483620       0.71195645      -6.36846880       0.10503817      -0.12588968       0.19608366
Na      16.50224969       8.34067117      12.88389708     -68.63409834     -44.85716540     -38.69436020      -8.29695189       7.76371210       0.44773796
Na      19.07075523       9.12174923      15.83692121      -5.31118650      -3.11258374       1.72511830      -0.01807689      -0.65956844      -0.51319249
Na      22.44167758      10.48844149      19.16574932      -4.08887365      -1.31623807      -1.20073168      -0.48570011      -0.33047502      -0.09391383
Na      21.01365121       7.03171849      21.78119304      -1.66034158       3.23569536       6.49741637      -0.60128371      -0.47832696      -0.49084665
Na      22.48893139       8.80335743      22.66450548       6.44872376      -2.50570596     -12.26000122       0.03788743       0.98415501       1.01672812
Na      21.30191593      12.49667988      -0.04080468       2.09148244      -0.96068537      -6.26959038      -2.22439932      -8.49953847      -5.14210772
Na      21.68488978      13.85316701       0.70698002      -4.79178264      -0.05976465     -13.39055126       2.47910074       8.00975933       4.14315078
Na      19.69372368      12.12486435       4.45244356      -2.42807978      -2.31544703      -0.08892188       0.41803682      -1.40778319      -0.38981413
Na      19.82579127      14.33951869       5.55552451     -17.08739613       0.27418591       0.54643351      -8.35040747      -3.12759184       6.52245986
Na      19.17854267      12.16818005       8.01391423      -0.29949443      -1.60336024       0.77762422      -0.02284848       0.04188946      -0.36333777
Na      26.04169640      16.79762792       9.82357191       6.98080316       1.34553351      -3.20173725      -0.76404633      -0.73020696      -0.48857924
Na      17.48766560      13.88392606      12.80222281      -3.17253215       0.81353566      -0.39527508       0.75767591      -0.46684800      -0.21912075
Na      22.89745390      14.72287305      14.57480623      -1.98244204       3.91026072      -2.83680281      -0.66128735      -0.00421787      -0.37875005
Na      19.88370638      12.97853192      17.32269873      -3.11326603       4.73398254      -0.14243371       0.29220751      -0.42388047       0.11079209
Na      24.08222677      12.46850022      19.52143737       3.26854870      -1.60604569       2.81670130       1.01832910      -0.21513658       2.21049612
Na      42.49551759      -6.60897134      20.08286510       9.90449417      -8.52333357       0.54062423      -5.05761163       4.21194199      -2.26236115
Na      22.69099410      13.89836262      22.72337570      -2.19943705       1.79327727       0.84169998       0.27859154      -0.90325778       0.08667767
Na      21.00804529      16.14637268      -0.67917385       3.86862694      -2.15033367      -4.40907239      -0.21647352       0.50787456      -0.55717935
Na      17.57404910      17.65132742      -0.03622858     -11.34180336      -0.18828426      -9.71426939       2.89446000       1.81320120      -4.75140642
Na      20.77534485      17.02159887       3.94535004      -0.74048222       4.81356184      -1.83071531       0.32144227       0.87221880      -0.98960700
Na      22.67120695      18.29192581       6.22891542       1.95976310      -3.83212898       2.06466654       9.27996497      -3.40288601      -1.55951488
Na      20.94237051      13.62971293       9.24899550       1.00112117      -6.14174531       0.41369048       0.72446024      -0.27749375      -0.08651379
Na      20.48099852      15.52449815      11.10341825      -9.78540947      -3.62695921       4.05095492      -0.34591174       0.80950101       0.64891227
Na      15.77069005      19.25048134      11.62680645      -9.45946548       2.59531426      -4.78277350       1.85523061      -3.72625104      -1.61048348
Na      26.90636896      22.39832290      12.56626299      13.04756777       4.67334166      -8.77610430      -0.42706348      -1.57714425      -0.28995167
Na      19.75087332      15.72003079      16.60709377       6.47762041      -0.86121009       0.23580153       0.87214264       0.81252536       0.45043717
Na      22.53547355      18.70912457      19.21478062      -2.57711058       2.83005659       3.22945438      -1.07112038       0.73686929       0.71919448
Na      20.42984485      15.68257959      21.17034336       1.02491933      -3.45145667       2.46898983       0.28864271      -0.53280052      -0.47624900
Na      19.27699051       8.40350869       8.69628754     -13.45449435     -23.27486980     -30.52078977     -17.18594012       5.78116624       1.24093704
Na      19.96525660      20.94358379       0.58176841      -3.97824010       2.16587783      -0.25110395       0.39007668      -0.36765235      -0.25011442
Na      20.86885605      23.94117236       2.44842830     -12.71272467       7.11916660       1.11825508       4.56103952      -5.64480434      -0.24740179
Na      20.28600551      20.92680717       3.92231250      -0.56728633       0.97796105      -2.28011036      -0.08673189      -0.56553589      -0.27408912
Na      25.82821160      28.17688609       7.20406970       0.75019503       0.78447580       4.95214985      -0.12736472       0.06818199       0.14798225
Na      20.42095642      20.78294117       8.05517615       4.57931814       0.85140342       6.67977781     119.85585343     322.79586283     311.44216854
Na      21.32744947      23.03570983       9.99590682      -2.02705819       1.51178952       2.65942830      -0.11749180      -1.07018250       0.72752096
Na      20.49034683      20.50273240      12.62383530       0.77917156       1.15779050      -0.55151393      -0.03160737      -0.02541090      -0.47558444
Na      21.46074501      21.40107458      15.45161316      -0.93123678       0.56525496      -2.46408738     -11.85227023      10.94017179      13.27000563
Na      18.74760281      24.09706981      16.11492575      -4.53731249      11.59032593       1.60329034      -4.95382724      -3.98774966      -1.20833854
Na      21.88116218      23.46813501      19.24903541      -0.52996421       3.01637932       4.53697199       0.53672528      -0.98910796      -0.49293957
Na      19.82313355      18.31400598      25.65261149      -0.19613522      -9.35672871      20.59825055       2.76771732      -2.80303813      -5.68293717
Na      24.57437020      22.42183930      19.15614376      -1.02119005      -1.19375652       0.78989140       0.00390629       0.17290590       0.70154313
Na      20.29651556      24.24354433       0.48484295      -1.93378205      -2.50267109      -3.84404661      -0.60697122      -0.51384177      -3.03903636
Na      22.94049020      27.15404975       2.45048147      -2.06942148       1.58559821      -2.47904094       0.43661010       0.29509128       0.77960667
Na      20.62148928      24.72272576       4.29761907      -0.47317237       3.01464950       2.39078626       1.17423801       0.22622463       5.15213868
Na      21.57343302      27.00719599       6.92305401       2.75424286      -3.66705333      -0.69332992      -0.25050429      -0.13487579      -0.18530574
Na      21.07123882      24.92220835       8.47861859       0.26360825       4.11994309      -1.23200128      -0.63344520      -0.17519105      -0.27801034
Na      22.43857150      26.39777475      10.25644337       2.35996297      -2.39463171      -0.96050379       1.38010478       0.47019172       0.66803114
Na      15.33078261      23.31537547      10.19779406       0.03019734       5.95964896      -4.08558406       2.60051095       0.33444065       4.69474483
Na      21.38543019      26.57065467      15.43879687      -0.01229303      -2.24722809      -2.60353804       1.38142942       0.05031142      -1.31045495
Na      20.16787918      25.08549900      16.42562497       4.44907882       5.02750446       2.51696311       3.88451958       1.64690551       2.34164218
Na      22.18631958      26.29532664      18.55390615       1.25337890      -1.43885379       1.01784795      -0.16061453       0.87517944      -0.39068141
Na      20.95347125      25.43416074      20.60682340       0.95850159       3.50743595      -2.29112272       0.94662613      -2.21218708       1.24552377
Na      23.91588793      27.44261010      22.73217255       4.60851985      10.77853580      -0.33779352      -1.86768587       0.37069080       1.57654030
Na      24.16020586       0.54446165       0.21239218      -4.23071944       6.08621644      -6.95935023      -0.05001967      -0.19927104      -0.79841421
Na      27.48115169       3.47504608       1.32603874       3.46212008       3.88452978      -3.52343759      -0.19907379      -0.35235825      -0.65637789
Na      24.90730582       1.88413931       2.24237781      -3.63009589       8.77358724      -7.13675082      -0.42206995      -0.74177990       0.12923706
Na      28.72330707       2.42962063       5.98783431       9.69189436       1.04367318      -0.43991193      -1.09954962      -1.24108014       2.36887051
Na      24.78203695       0.20216323       9.26211147       1.53703985      -1.86509360       2.27850178       1.78545014      -2.41053803       2.42492339
Na      27.04063983       1.38759443      12.22190775       8.24175608       0.91847568       0.50738169       0.28565262      -1.24236773      -1.42813192
Na      24.29721449       2.24238507      12.03038000      -2.91031782       7.38404238       0.30135829      -0.00517127      -1.79043584      -0.52374687
Na      25.27450675       2.87136350      14.23925819      -4.99235437       2.84321521       0.25131363       1.08379144      -0.56104190       0.94340776
Na      23.04839893      -0.01993862      16.07912410      -2.61999683      -0.12036421       0.30608509       2.09956875      -0.29955403       3.63319214
Na      29.83018578       1.11906718      14.37775311      14.43360683      -6.97392444      -5.26765984      -0.21054688      -0.01695999      -0.41565700
Na      24.53439990       0.13154079      20.64396040      -2.84645830       6.73406045       1.82810469      -1.45512913       1.71987724       0.94251870
Na      26.57373589       0.93731535      24.03898858       0.71445350      -1.14689177       4.12504114       0.04676706       0.17219354       0.44192104
Na      21.11788774       5.68983487       1.09370240      -8.53376504       0.37675428      -0.71293910       0.42244675       0.23320324       0.18258367
Na      26.74119337       6.33430282       2.25684344       0.20578027       1.09203857      -2.91391136      -0.06090301      -0.89279624      -1.08804905
Na      24.50088403       4.65390106       2.20450327      -2.83520856       4.64519951      -9.67970577      -0.75871537       0.25634978      -0.16269445
Na      26.94022658       5.58604022       6.52361012      -0.53418314      -1.89636540       1.13745798       6.76789475       6.66560806      -0.62153508
Na      26.04950236       2.80130776       4.30876177       4.18354508      -0.02042010      -2.91446891      -0.67094417       0.09138677       0.08749792
Na      26.79023050       5.95906279      10.24865923       1.41062822      -0.09694229      -3.45130104      -0.83871212       0.00438219      -0.33871769
Na      24.38168771       4.42715512      12.30398682      -2.17156575       4.79797401      -3.01259647      -0.00011266       2.34075687      -0.59051819
Na      26.12800464       5.90797504      14.68671138      -0.51554130      -1.57951241       0.56493627       0.24942340       0.03638528       0.39017972
Na      24.44259843       4.04196627      16.57716535      -0.72557411      -0.98546601       0.55360331       0.17416681       0.45151485      -1.43584885
Na      25.41515160       6.54612781      18.60555090      -5.00984936       1.70272108      -0.48560034      -1.29764309      -3.28286383      -0.02865479
Na      25.18649473       0.30869584      18.45189027       2.03750307      -0.19581156      -0.72914606       0.82239079       0.67771801      -1.42678277
Na      25.75697054       5.20662986      22.91853545      -4.92256192      -6.90489048       1.64593035      -0.17403383       0.20812816       0.32980808
Na      29.72368132      12.18834590       3.60026181       7.56942581      23.44323940      20.29003894       0.24396999      -0.78655364      -1.30437338
Na      26.12508334      10.55038618       1.53845372       1.12549693      -2.31562819      -2.52897606       0.42717471      -0.17246064      -1.60366684
Na      25.16018833       8.40250797       3.67037963      -0.37098461       0.93495523      -1.68993557      -6.33059070      -0.29445109       0.99671067
Na      26.29176862      10.03497240       6.60213190      -2.48268459      -0.71894477       1.65443279      -0.30157373       0.00254581      -0.06835918
Na      21.64297406      15.46481319       6.76919288      -5.21016478      20.24442823      -0.10258559       1.69148880       0.44427498       1.80678357
Na      25.59238331      10.61713069      10.33094449      -4.33374961      -3.40421735      -0.96448561       0.55861280       0.06398435       0.03115291
Na      24.66877823       7.83613457      12.71767815       1.59954405       0.08750731      -0.67936995      21.77035576       4.62286598       1.28618083
Na      25.97487469      10.28794280      14.07820875      -3.00133385       0.04274072      -0.79021911      -0.09207265      -0.15369522      -0.46458555
Na      27.62000289      10.28147201      17.09860426       2.56488136       1.50805913      -1.58939185      -0.85848580      -0.09726116       0.09222867
Na      28.10970268      10.01962382      21.14192151      -1.76599153     -13.57582098       5.09175138      -1.87456793       0.42882979      -0.63379526
Na      24.72857340       8.72901980      20.98713509       3.76989389       6.09048764      -0.10968820       0.42686924      -0.21321426       0.33974343
Na      35.71543668      20.11293501      23.39699394      -0.42243961      -0.23399166       3.35177601      -0.88867042      -0.72489882      -0.41834171
Na      24.61360535      13.23029816      -0.44953813       1.54049188       3.18093341      -0.01820435       0.31225034      -0.45487567      -0.12547750
Na      27.93881733      14.42851626       0.95947147       8.36130935       1.67854384      -5.60146044      -1.19387271      -0.72672160       0.07532405
Na      25.15393823      12.16455831       3.11817213      -4.07718509      -7.01409775       0.05817565       0.94433373       1.06104552       0.09821675
Na      26.54365957      14.01826783       6.69737079      -0.38702457       0.59004901       0.83660033      -0.19955720       0.16376703      -0.26967087
Na      25.79657438      13.34932490       8.98011120      -0.61546069       2.23795076       2.19121967      -1.65434606      -0.78828426      -0.31031604
Na      27.17114309      14.22211767      10.55955910       5.36109488       3.13214263       0.24540231       1.36221302       0.55382252      -0.64405246
Na      27.08504015      13.60312812      12.79076500       6.90586330      -3.09471224      -2.41921650       2.44706983      -3.83741016      -2.14584315
Na      25.00889549      13.44529753      15.87844031       0.60190598      -3.16448995       7.49949501       0.54536675       1.39918562       0.83222631
Na      24.62082561      11.20923277      16.72686674       1.74043766      -4.64405381      -3.23124722       4.49838462      -9.39745012      13.94260292
Na      26.69183086      14.36371148      19.17862073       0.54145118       0.07013787      -0.49606573       1.20736649      -0.29096352       0.78033608
Na      24.86617775      11.80445876      21.67167588      -6.30994193      -0.96102487      -2.15882842     -35.47500297      57.27825914     -51.70272476
Na      26.26126790      15.20699957      22.92027399      -0.59424475       5.99563411      -6.42932161       0.03113943       0.13685178      -0.00088594
Na      24.86156588      16.25842287       0.06924135       0.08965908       0.57541536       0.26729535       0.06975835       0.15932694       1.30226292
Na      26.34721215      18.52571916       2.21108589      -1.00598063      -1.60887023       1.63703886      -0.55680613       0.07379945      -0.07482416
Na      26.71218778      16.55973409       4.33382062       5.54713520      -1.03606729      -2.02487807      -0.84777679      -0.14078981      -0.95526523
Na      27.26359820      18.84276877       5.65157263      -0.46921863       3.90909483       0.51294152      -0.15239998       0.59987178       0.52119136
Na      25.49618794      16.65089991       6.80520983       0.27922154       3.06678406      -3.76689641      -0.76637604       0.11228732       0.30423952
Na      26.50039795      19.05052470      10.50819298       1.27044045       6.93856941       1.31695074       0.17114118       1.20123143       0.81870058
Na      24.55876867      17.30129554      13.90776495       1.45865966       6.01666895       9.23885337       0.30846432      -1.49316285       1.40032927
Na      29.76353043      21.68581180      19.91151163       4.11573391       2.93625220       5.97789841       0.29227005      -2.61375904      -0.46975993
Na      27.37081008      17.66379628      15.33142303       9.53106219      10.93539939      -4.02750815      -3.47131431       1.40340556      -5.21641073
Na      26.76192122      17.58665058      18.21954197       3.47731354      -5.45968241      -2.98648254      -1.07742182       0.33085702       2.06592509
Na      24.33038762      14.88160111      18.19059445      -4.33650624      -8.72204644     -20.40915165       1.66716665      -5.52794121      -5.29491916
Na      26.48745050      18.73902324      23.64466185      -0.02388062       0.56408717       1.27614496      -0.09405318       0.09143444      -0.02399477
Na      27.07889903      20.21466593      -0.90504461       9.41681641      -2.62244964      -9.51893302      -0.54370683       0.19803547      -0.10804448
Na      27.47330871      21.90646361       1.91874800       4.36583477       7.97934458       2.96810133      -0.25416707       0.48052051      -0.63272684
Na      24.17330084      19.46782840       3.54967774      -2.09388395      -6.02088133      -2.45415051      -0.60331797       0.16942489       0.27202617
Na      21.85631998      22.44351860       6.36824758       3.11863448       1.63095490      -3.08164924       0.36113770      -1.80258455       1.33984277
Na      25.00555675      19.91973804       8.38955442      -2.95156583       3.84855017      -1.06330740      -0.67466675       0.56694952      -0.44779027
Na      23.31974537      24.09742336      12.86420701       1.31010818       0.35966108       0.82653788       0.34540112       0.09828036      -0.04837411
Na      24.17229617      18.81201557      12.50341234       1.36171028       2.41051847       4.24544553      -0.84264187       1.88388159      -1.27918347
Na      26.37164597      22.81769951      15.14249496      -1.56483195      -4.44601047       2.76564907      -1.38929139      -3.67695070      -0.22753155
Na      24.65774384      20.22848516      16.87762245       1.56444145       2.62877838       0.47871274       0.22504539       0.85188153      -0.63983198
Na      27.12240653      22.69963302      17.81849459       1.63726846      -0.55303589      -2.94441708      -0.06573528      -1.63009696       0.17333995
Na      25.10498615      19.02328035      20.84056765       1.35240884       1.13629486       0.98011591       0.30525318       0.21430437       0.13322874
Na      26.49056984      22.59404738      22.98033371      -0.98491524       2.67321150       1.91515732       1.56030149       0.30936724       0.94803624
Na      61.50515351      21.83513500     -35.16870056     502.08818900      -2.81318631    -492.40093357      -2.98562973      -5.75790923      -5.10569886
Na      27.90158563      27.34286270       1.88523500       0.89797843       2.28129034      -2.48385974      -1.42827843       3.82731240      -4.00577206
Na      26.38756249      24.72868887       3.61093859      -1.51917298       0.22414952       3.49542060      -1.29342531      -0.98145381       0.36045353
Na      27.61137178      27.52714147       5.08092225      -1.84950330      -1.86073480      -8.64509091      -0.32003710       0.27226337       0.98735964
Na      24.06336353      24.76718832       8.64310947      -1.48937425      -0.48502199      -1.31410488       0.46135812      -0.12275120       1.97124333
Na      26.72179628      27.03630108      10.46621667       1.39603156       3.57653914      -0.40410914      43.65799486      71.30431564       0.72019252
Na      24.19655089      28.63605410      13.95580625       2.07760895       1.32274925      -2.53621714      12.18536288       1.45819416      -1.76020221
Na      25.90666403      26.89738571      14.71447917      -7.61481357       3.37411894       0.54323653      -0.72664125      -0.04418298      -0.61749658
Na      24.56784501      24.84504304      16.27998766       3.86512491      -1.40024011      -8.46647968      -1.35604970      -2.64039516      -1.57981752
Na      27.23742997      25.16789467      18.83679827       2.96202837      -2.63647510       1.69796772      -1.15708782       1.30232678      -0.62977881
Na      24.94564035      26.28886718      20.41282966      -4.68599152       5.17969638      -5.16206104      -7.00303928       0.13964115      -7.61495662
Na      26.80040208      26.78401195      23.74248303       1.95424268       2.57025782       2.74464500       3.16660532       3.27143968       2.32974003
Na      11.43433664       3.89067993      26.27271799      -2.46177703       2.89446109       1.66869172      -0.27646120       0.39497282      -0.21408450
Na       3.33431763      15.63957671      33.71457526     -13.03924448       2.61214883      25.98253070      41.65489505      -3.88215942      37.06461846
Na       3.61278373      -0.03376135      27.64950893       1.32753909       0.00894269      -3.12737849     -41.26686439      23.31612279       5.63974583
Na      -0.54478257       1.70944565      29.88466852       0.48037771      -4.94169359      -7.78373945      13.03188839       3.76989666      -4.11154312
Na      15.58290698      15.04400294      30.66587157       7.05154301       7.84663691       5.70594527      -6.34650428       5.24571803     -16.11879204
Na       3.88649457       2.83951638      27.02176594       2.81935237      -1.24300778      -0.61360811       0.37299515      -1.47135013       0.92463501
Na       1.21190455       2.06849049      33.32656866      -1.41271909      -9.54487288      -2.85866276      -3.24339851      -5.08470594      -9.12013788
Na       6.67632191       6.21480077      39.00720130      67.50151562      70.18650450     -21.15894167      22.82926630      28.48658169      -5.66379240
Na       2.18860518       0.72121303      39.80536228     -29.11808959     -12.90366511      33.07030965       9.13891806       4.10081709       7.79943277
Na      -0.70333867      12.45989731      42.67317209     -12.77678674      77.99277314      23.64171971       7.39865829       1.25551370      11.14068405
Na       0.34741344       0.23174236      39.53003428       7.47460034      12.58936735      25.57458031      -5.77752440       1.29844205       3.84988126
Na       3.41173147       3.11654997      34.83709700       1.34718226       6.93268184       8.42526788       1.80294480       5.10128939      -0.89012748
Na      14.15007995       9.11044713      27.50834594      -2.50209083      -3.90692226      -2.96807781      -0.65942413       1.19933188       0.46464546
Na       4.36913865       6.84137856      33.12056112      16.69402117     -26.37825107     -10.30233061      33.14058910     -36.59280937      -1.53725464
Na       1.88685488       7.16049653      30.71204317      -5.60159811       9.46550767       4.19321330       6.83112840       9.02744652       2.99486091
Na      14.38035207      11.04905343      31.76368704      -6.01450365       2.35946002       6.44476506     -13.10657253       1.66580428      -1.57627722
Na      14.05965811       7.54146218      31.82420728      -2.43984098      -0.89213640       4.52682797     -11.68294502       0.69573930      -1.94105010
Na       3.79421097      10.30813632      27.87146859      -3.07803702       4.11075862      -4.17068593      -4.50116389       6.63021388      -9.70481963
Na      15.19439340      11.83709976      35.13601849     -17.20506580      15.22359685      -3.79701127       4.08878237       4.25105146       1.02720955
Na       5.20569067      14.89669600      42.83069611      -5.10222462      17.64514310       2.46980988       3.67753109      -2.65211474      -2.47554680
Na       4.95004736       6.27216524      38.23248942      -3.15761579       4.15183598      -7.30759899      -2.78412545      -1.19805848      -5.36302063
Na      19.79226786       4.46904362      36.03124410     293.61457157    -304.86204899    -215.44758533      -1.46726122     -52.47400324      15.92588124
Na      14.34918346       4.87523898      36.37177880       4.45036946     -14.51504105     -12.58854752       8.48173743      -3.54451641      10.28419469
Na       4.65679139      11.59624276      31.62081699      75.13211852     -43.89953114     -56.53788256       0.45518259      19.27616302       1.59198220
Na       9.41743580       3.04147069      19.58648024       0.67807894      -5.18961147      -7.55367713       0.65965831       1.99804315       0.43299454
Na      12.48063150      14.03934546      33.83757412      -0.46766518      -0.91783313      -2.57522191     -10.95752677       4.54923866     -10.11637230
Na       9.67559700      -0.00501652      28.68386479      -3.62440597      -6.26740852      -1.87180972      -1.22903298       0.71460888       0.23290320
Na       6.59512895       4.56339006      30.55244783     -13.89438711       2.46448228      -3.48903841      -1.54666791       0.15931808      -2.23597125
Na       6.70240564      14.22382094      32.24109158      -1.99248794       1.91004919       4.21589142       0.16853162      -1.12747943       1.90610117
Na       9.21755626       2.73239423      41.53990903     -17.88500016     -23.22343034     -11.59619300      88.14809554   -1118.16480019     193.05705583
Na       7.22595304       3.09505638      34.63295185       2.95421068       0.53584626      -2.80035385      -5.80564540      11.95625381     -18.01634945
Na      11.27805288      -1.87584793      42.88724292      80.49871419     -30.60062302      28.68869896     614.92206449    1036.39618919     506.77635519
Na      15.71299668       8.14426478      35.73405709     -14.12835582      -6.42834153     -17.63048806     -11.51314691       2.27235372      -1.23039210
Na       6.40407456       6.52906923      40.98596325      14.04814696       5.96338099      23.48674425      53.50781094       9.94389618      12.02888662
Na       9.65979982      14.37994275      39.01567042      37.72248357       1.63518890      35.14963141       7.29417439       1.66996286     -37.99969986
Na       9.78084217       2.76066758      33.69405519      -2.75593211     -18.70316072      -0.04702442      -3.20173004     -18.67655066      -3.71075193
Na       8.33683541       9.73768909      28.82172217      -2.65438592      -1.72773362     -10.45871021     -14.45490999     -32.85384638     -39.66634278
Na       9.35834033       9.36009775      39.66383362      60.74784740      42.38745972      21.01332668       6.12044972     -23.91243689      14.53047458
Na       8.04671116       2.20168008      31.12854173     -18.67310592     -23.87665975      21.33092170      -2.28706583       0.11012434       0.35631359
Na       5.87495768      10.41271348      29.28233704       4.60219633      -3.10485202      -7.80717219       9.04651877      -0.41764907       3.03796283
Na       7.66509997       7.51137924      31.36022600       1.15261059       4.52233711       0.66607758      -0.07241374       1.44937032       1.64248155
Na      11.35286839      10.54837396      27.15251027      -0.21442704      -2.09724814      -4.35529480      -0.38715485       0.92619393       0.30847963
Na       6.40798560      11.54200481      34.18053458       3.95654247       4.17107132       0.93106705      13.64787090       5.83955521      -9.46306443
Na       8.88233275       6.26562325      42.13041826       6.46822183      -7.80134716      -3.09172359       6.29844832     -11.94991934      47.96180131
Na      -0.42236237      18.55303926      32.72252769      -2.69309085     -24.22817102      15.49093235      -1.36220628       0.32507050      -1.24883788
Na       7.53899706      11.90185587      40.10235175     -13.66106028       5.88437357     -19.65667265     -10.67619272      -8.52490215       2.56503549
Na       6.14525721       5.65660950      32.65486367      -8.80160719      -0.44235509      -8.10405760      -4.14021732       4.39581796       3.85730818
Na      13.64304551       9.91439137      35.69131201       4.95170568       1.35216925      13.13795497      -4.94072608      -1.97421003       2.19939923
S        1.39105330       1.53647397      28.51489343       2.48318294       6.11914974       3.15258358       1.57744327      -1.19533939       0.97021382
S       12.52626377     -24.51694000      45.98815544    1083.07812278   -1659.88361438     -12.47489127     766.20425865    1066.50164706    -541.88557815
S        2.76357821       7.81890234      28.48257812      -5.42541130      10.00025901      -6.64323902       1.54822379      -0.77877881      -0.94153943
S        6.31632420       2.47089390      32.33344991       8.86800170      -8.86260157     -17.85508551      -4.26558528      -1.65070017       3.08598644
S        5.68583599       2.31138103      28.99787884       5.63488693     -11.58765293       1.53873882       0.42700105       0.42745628      -1.28931482
S        3.80366452       5.47487809      29.57931291     -15.72887664      -3.95578056      15.61330545       8.15491020       9.12985617       1.46816629
S       -1.36574461       4.13585163      30.26558461     -13.50265971      -5.12905319       4.97446233       0.81441376       1.34224946      -0.00487629
S        2.51145341       3.82446601      32.67120157       0.05147865      -7.65890698      -5.55337060       4.05652046      -3.42469599      -1.24053766
S        1.35950201       2.45239914      35.54204357       2.91925553       2.13838153      -6.99339407     -10.75858234       0.54649291       2.91753588
S       55.91816997       0.78661847      50.44237379     618.29924804     -54.20805504      62.83381523      29.64140613      24.30965349     -19.37772301
S        4.61251231       3.62585348      32.47255728      23.42789439      12.54959744      15.47887844       1.73656952       2.01178252       0.76432710
S        9.85386968      -1.11234433      34.46736063      71.12363898     -42.40089439     -70.88237254      58.65761923      24.79211390      66.32161813
S        5.41427001       1.82427126      35.71278122       4.90154137       3.21042421      -1.68832014       9.64018365       1.36021939       1.98969989
S        1.59901279       6.89396263      33.33914418       1.28931779       9.32406192      11.33066412       2.42372710       5.13292149      -2.34772205
S        1.05145146       3.89777407      36.57633062       5.65710860     -10.16070960       3.74376021      -3.47079878       0.59281307       2.52532121
S      -14.18154491       4.07500392      31.12978914    -134.26686811      28.90606932     -74.11747170       2.12747790      -0.80374475      -0.61859063
S       -2.96462621       8.14524124      26.33850840     -14.35429068       4.56053700      -8.93011816       0.99247821       2.80167158      -1.71023998
S        3.05930330      16.96205720      24.20640751      69.53155160      93.76766599    -285.93344366       8.83033461      -9.41052126       3.99764583
S        6.26888662      10.21534382      26.29276306       5.46621620     -10.09304757      -4.63222972       0.85282303      44.10158767       0.55174506
S        5.74586694       8.89797240      32.01426206      -7.96058962      -8.32047081      -3.52730890      -7.36120058      -2.13218683      12.02975937
S       14.26854713       0.82459425      15.58398368       2.02061932      -6.98047735     -27.47462224     -44.46247074      -2.62432636     -53.90438671
S        6.27049242      12.08737687      28.44352347     112.07357577     -30.77331953    -112.38465433       0.53035848       6.94740689      -1.30235398
S        1.32335069      10.83041973      27.49268028       5.20597527     -58.76580545     -84.27295069      -1.13472895      -7.00321225       2.18680266
S        3.59518779       7.94423942      36.18277736      60.17590989     -89.17533034      42.51362248      -6.18751731      -5.56380826     -12.04451223
S       -8.93085190      13.12016329      41.92021699    -367.10826995      92.56612028     271.45112312     329.00254318    -109.88570491    -172.12317328
S        6.79729988      49.87554946      55.62474624     383.49954298    1547.24881619     851.93103304     -48.74463987     -98.12904607     -14.40374302
S        5.69150579      14.09417977      37.25046172     -74.14795658      42.01877468       3.46718082     -11.70993188     -20.25984066       0.41506807
S        5.81976744      11.28890305      38.17830994    -168.46644555      56.49086145     -41.12045156      13.56041148      14.02604766      -5.62226119
S        3.94071872       9.19323328      34.14094080     -11.90108845      -0.52343324      -9.95994118       7.18799436       4.16888994       0.24677909
S        3.80708273      13.53388456      38.15276672     -29.45786053      65.39495776     -14.03238064       3.96544664      -3.17259730       2.09039876
S        8.54221633       9.43030992      37.68079850     269.80692594     -68.64739933      41.40859465     393.71616411     -96.95464362    -151.35705876
S        3.60169753       7.76362247      33.19567920      28.69716755       8.15045318     -55.60595684     -23.77037169      33.36133396       2.06926510
S       16.38958210      -4.68425964      23.30733381      27.53557940      -7.34829338     -13.75457432      -4.55626398       1.78133782       0.16224481
S       10.41087860       4.55328954      33.93264772       2.57424817     -14.13270191      23.49520436       8.12735003      42.14177892       3.81502666
S       22.63910874       9.07119423       1.08482363       5.83337411      -1.45487980     -19.62248575      -0.20176190       0.88963182      -1.01643844
S       23.04828614       5.36118366      37.29132184     -26.53265771      -8.49520301      -6.79582513      -3.47472387      12.92750162      13.45943552
S       11.59593338       3.41788741      29.32667217      -1.75338439      12.42901850       6.75885410     -10.75364491       0.45048481       0.49240370
S        9.83899001       8.59902131      31.80396597      10.62415038       5.33815751     -15.47499225       1.36428334      -3.48312606       5.43144880
S        8.40807443       5.89796616      27.54884914      -7.24909858       2.03586001     -13.39296310       4.33323513      -7.80678922      -4.16717350
S        8.12757895       4.27367337      32.49303958     -10.20251096      -6.86733563       0.52002266       2.59888743       1.11341111       0.02292645
S        9.29753446       1.50160731      37.70314404      -6.62300329       7.43896589      -2.09650373    -156.40063992      15.04076451     -97.65184605
S       10.83023201       5.20470502      37.45100808       6.85453513     -88.05695646     -86.80314706      -9.36926966      67.38492858    -158.67803796
S       12.00347633       1.44541216      34.96129417       3.85174898     -28.14936103     -12.55558808       1.26454310      -7.01406840     -27.08240125
S       12.03367497       2.27955815      40.04614870      -4.04760397      78.89737963      55.35840372     -42.99552498     407.89757305    -270.19055663
S       12.46323744       0.39008928      36.30268220      13.60936239     -19.95690611     -15.47238946      13.31231243     -58.09684710    -145.02026697
S       12.55741377       5.35973449      37.46254048       7.00992669     -36.05780950     -48.48689796     -65.73232270      28.55464593    -124.16693662
S        9.45304665       5.87245074      35.58829425      -5.34841026      -2.38149850     -12.75257435    -175.64505331    -184.50007786      68.22518977
S       -3.49732793     -46.02939345      22.09987287    -126.77899484    -500.22232960    -205.30851995      34.28670244     -57.10814090      50.13373663
S        7.82900298       7.31888575      28.39333571     -10.40496262      17.72436509       7.59024758      -1.74596280       7.35649405       4.08878628
S        8.49168501      15.46319389      33.17342402     -16.00913979      17.56940402       3.79571200       4.32126124      -8.13035830      16.57854152
S       13.75042378      15.40565303      27.84774674       2.20359862      17.17842085      -3.35715947       4.40613453      -2.48669793       3.35375486
S       13.87392222       9.39138044      33.20339230     -20.60761577       7.37175158      -6.10003062      -5.80480923      -1.62247045       4.90681464
S       15.74512841       9.49258135      30.38351590      27.37883098      -5.20798597      -0.18779471      -0.51967395      -0.91857187      -1.28515210
S       12.23989353      12.83500246      32.14630873      -0.84883560      -3.49156667       2.69953507       0.78225901      -4.18692035      -5.66702219
S        9.48503386      12.25396598      29.13943184      -5.37517500       1.37712051      -8.87530752      -2.69137640      -1.18307260      -1.48117282
S        5.94438134      10.63007546      32.50752514     -83.34479051       9.03031800      -4.10578127       2.34891319     -10.34759408       5.43120627
S        6.39888573       7.23756424      34.88768093     -13.21787865      -0.60376724     -27.29372961     -13.85308845      20.55113539      11.50797978
S        7.46700304      14.82664023      40.87811295     -47.79731207      20.56610988     -16.03795863      -8.35291977      -5.85144858      -2.84253678
S       14.59586546      14.34543376      35.66337146      -5.30686481      -4.40065899      -9.33015979      -0.08608839      -3.39095154       7.78364566
S       11.74158209      22.10627304      45.27548579    -121.26492978    1047.13898173     362.89992277     -17.86109891    -183.02086862      -8.25895990
S       10.44298577       6.60063741      35.38135770       4.33734037    -106.64933912    -114.62970227     545.27551974    -434.20307913      40.34650376
S        4.37129045       9.26644490      29.33320856    -679.09001312    -139.30479902    -989.77284692      -1.44166268     -16.55653005       2.94790007
S        8.64846991      12.97587680      34.31336672     -17.69939762       4.16035909     -23.01392903     -10.25497687       2.78873755     -15.30127059
S        5.97820839      10.37856676      44.31784392    -112.74465078      50.71754053      24.98535780       1.91578656      -2.45085474      -2.60292372
Sb      -1.67183448      -5.32405696      33.93317747    -239.20512729    -520.57021748    -720.97978392      -0.07616686       3.85506158       6.09081661
Sb       2.44696812       4.09231672      29.20499116     -23.86395755      -9.86570149     -24.40931496      -6.84460257      -8.02106176      -3.76859817
Sb       7.81575749      17.04879637      27.02772888    1356.16456474     530.32125265   -1249.39535898       0.07959905      -2.11783490      -5.83525015
Sb       3.81874179       2.59929548      38.35366215      46.99079260     -24.60487109     -35.79759817       6.89651333      -1.88602352       8.91454762
Sb      -2.66425733       6.02990587      27.25042739     -10.66309109       6.49034399      -1.76556562       1.08682876      -1.75695126       0.03123514
Sb       3.79121567      10.23849470      31.07585605      -1.57921098     -13.41897444       3.40439815      -8.58916063     -11.19689710       7.99630370
Sb       0.40506346       8.25529376      34.65550866     -20.40837835      92.91491116      82.58350122       9.72843255       1.35763717       0.48869866
Sb       5.06452176       9.09712391      36.63564950     -35.48630387    -131.00489273     -64.42834040       2.10815493       5.14075786      -2.17582750
Sb       6.89206675      13.35116608      25.71672092      -8.10695032      -3.48248365      -5.98635649      -3.99015126       1.36888642      -9.40357417
Sb       8.86745854       2.56907726      29.11383501      -0.19129788     -14.17362750     -38.08755401       3.21923113       3.14242799      -7.06220613
Sb       7.05062660      -0.09843752      34.39491630     -19.08197385       7.90567401     -14.20451727     -18.02357585      -2.82890247       9.90818282
Sb       9.90682638       4.33395996      38.85661757      16.77369967      35.81301604      48.47656158     195.84555451    -226.35328537     440.57455785
Sb       6.27384546       8.58958028      26.28390272      -5.33982525     -11.48222367       1.00749860      -2.45406359     -43.57289530      -1.77609773
Sb      10.29681529      10.22972213      30.49577301      -9.39701608     -21.62457524     -14.36911738      15.72799098       0.18229438       6.21708416
Sb       8.37198901       9.15990134      34.46857500      11.72769675       6.31352225      10.21338496       5.45239638     -15.18548523      -6.60423227
Sb       7.67519717       9.65829436      37.99177212   -1296.69792581     -66.55945584    -789.84899368    -398.85346269     110.10159407     166.06447297
Na      14.08311922       3.62178958      45.19613521      31.73592622      50.87294452      45.52575180      52.70819164     638.29531101     441.74906266
Na       2.97750048      17.12663362      46.41685066      -3.51625836      14.66309730      -2.62407493       4.15835658      -0.90026077      -0.45507294
Na       3.84989571       5.66502669      39.86098073      -2.97099603      66.76936784    -100.95083958      -0.11506219      -2.98607907       2.47523151
Na     -22.19822023      -8.52348825      42.68635833    -181.50249965    -135.70835017     -42.61979536       8.33610456      20.96015369      10.02542430
Na      13.09007022      14.00784119      47.21834710      16.95435568      58.59289666      31.15898790       0.43081711       7.12478286      -3.52761524
Na      -3.22731638      20.68698830      43.42597501     -53.60594391     154.40956978     -22.76656968       6.82619410     -12.76202355       1.51040008
Na       2.32921861       0.45415272      46.12537219      18.88570975     -27.00763099     -35.60605784      -3.71740467      -1.23324129       7.62660064
Na       2.92215562       6.28426621      60.55709790      13.05094293      17.96158434      34.05694662       0.80094965       0.24643683       2.38087118
Na       2.11648929      -0.76564043      56.70976250      38.96621069     -24.14538451     -20.59622227       0.43033703      13.66055065     -27.71806985
Na       1.84329333       8.05115776      54.53794055      -1.73684237       5.42856641       0.19545008      -4.73003263      -5.95109563       3.24233009
Na       1.52917741       1.47264277      53.40272296       1.75877972      20.55019954       0.31613147      -7.09389518       7.62178011       0.41825344
Na       7.03173750       0.76950381      42.09767358      27.33897753      -7.12170831      11.64136833     595.18112873     113.46670430     143.48048758
Na      22.09399257      17.30426816      48.33823401     335.68369104     245.27380271     271.64703124       1.05701635       1.33433512       2.52318450
Na       3.18886888       6.90974343      50.96139166     -11.61903451      -3.13303393       8.63112444      14.06839281      14.08445462       5.85521012
Na       8.71881347      11.56559635      60.42387278      43.33549963      38.71349742     100.55657284       0.13630783      -0.80038018       0.23967844
Na      15.42347208       9.41478053      44.96079273      16.93201635       5.30197737     -69.33452659      -4.22220354       1.35022946       3.20519720
Na      14.86843537       8.70623457      45.55186488      35.42067749       7.87416905     -46.30999312     -30.29635135     -85.17395746       1.74662941
Na       4.01041900       7.32155376      44.92097311     -46.09095946     -15.18820688      39.11022841       3.69354999     -12.19220109       0.40640918
Na      13.42039477      12.43399736      46.43023064     -47.43387907      -2.01622117     -73.69468357       2.35371327      -7.35946117      -3.89860821
Na     -15.59638864       2.64917672      52.12495565     -62.12845404      27.11359772      31.51465721      -1.96971671      -1.23343706     -42.45174771
Na       3.52404318       7.73204285      64.28737651      14.38730173      29.02090481      23.72149960     -25.08661828      -9.05502566      -8.42358888
Na      18.70978983      14.37905626      52.83977647      32.84204377       7.55085751      21.66540587      -3.39166212      -3.30122974       1.18055533
Na      21.85018470      10.61683222      48.51190540      27.59394977      36.59781811      34.92437175       2.74635889      -0.07908636      -3.25362900
Na      -2.13843003      11.15280058      58.96548976     -49.81495509      12.58025188      90.43078265      -8.69597418       7.74090433      -0.91025052
Na       5.44267038       9.18341481      46.25701314     -28.44290133      32.22282575      50.48223511      13.55233554      -4.48718926      -1.59106703
Na     -25.55450405      38.43717088      -3.39226035    -239.33409316     147.52246901    -327.11130286       0.43176794      -0.27145699       0.32697726
Na       7.26197577       3.00504988      37.41076081       1.48031247      15.01625829      -1.32833932      57.79827922     -27.81261838      31.14468194
Na      16.10586893      -5.93463320      52.06510171      85.92786903     -73.12238562      62.90560619       8.87833927      29.48668442     -34.50229284
Na       8.59151811       8.13408917      52.13600174     -10.16195760     -44.16126929      30.77321905       1.01557724      -6.73252336      -8.49548527
Na      21.20052977       3.43190579      37.54522223      48.71495826       7.86799222     -77.59563232     -23.05401740     -14.09533579     -21.90711574
Na       5.26946078       2.74295998      50.34459868     -23.16635553     -23.36592298       2.60039745       0.07261786      -9.55385241       3.61713116
Na      14.39877238      -3.42019702      58.10060011      14.34715822     -10.86018913       9.43375969       0.24945191       0.51531056       0.66050276
Na      10.44984815       6.83347841      43.68928789      20.12281190     -24.53954747     -58.94612131       6.87296030     -42.85153973    -139.91259418
Na       3.78479213      10.21699378      54.86993469      -3.32257625      22.92458827       3.73999428     -74.41109812      -4.73353500       6.60877492
Na      11.94709145      17.37503594      47.81388743      70.38676785      39.53442010     -97.38765294      -0.05465636       3.83337998      -3.26839201
Na       7.45208436       3.93822599      48.92155289      -1.29363855     -18.66334336     -19.76333208     -31.16785092     -74.80398770    -107.69371256
Na      10.13910298      13.95874641      44.79726269      29.82886006      20.46138291       7.71155043       1.58848070      -3.21061814      -2.57544026
Na       7.99017331      10.87596364      48.25711914      -8.07091381      12.80474335       0.48621807      -9.07031535      -7.75315910      -5.84577890
Na       8.71705932       6.29221881      43.34617658       9.66905906     -18.93358916      -6.23439503      49.21421349    -109.43729151    -107.49651001
Na      16.13520196       9.83434657      66.05097107      20.06814851      -8.51544520      70.00807566      -8.11663861     -24.04965240      29.39732515
Na      -5.96853727       9.52126107      38.09179084     -98.68657951       0.35767292     -97.36729048       3.38055037      -3.80456890      -1.66733619
Na       9.00302635       7.40439727      41.77390629      -2.53125056    -134.47804086     -14.90507194      99.85545249    -195.63314389      23.59349113
Na      10.86832560       7.77364213      49.82077956      10.38048616      -9.66578869       1.38244759      10.41243415     -26.52618441     -41.25170065
Na      25.69897698      15.45024649      83.55141838      66.74947148     167.74692062     383.77642976       4.99913948      -2.28291411      -2.00312243
Na       8.42378702       9.06411130      53.46918355     -30.34951713      10.08887298      -0.67959494      -0.19493820       4.27947169       6.99841818
Na       4.78625815      -5.01601723      80.20772329      -2.48232815     -61.23054492     107.60835142       1.72216033      -2.36508669      -6.65881837
Na       5.34428773      -4.14748545      94.55912827     -10.99561171     -50.92665002     166.98490095      -0.81683968       1.66367190      -1.00548030
Na      12.65598029      13.64544417      48.86964278       5.95917175       9.23129977     -25.23237868      -2.14937000      -1.49400492       7.52373271
S     -115.35101324    -140.73945917      55.56289900   -3094.47310032   -3645.03214816     368.80261537      -3.80316923       7.76090065       5.65742766
S       -0.14426798       8.18627912      39.75275952     -31.77682859      19.36432229     -76.16252012       8.97424358       1.13153381      -9.10524802
S      -12.89092994      11.96833969      51.73077351    -219.48960449      14.85752224     -12.00967328       0.61629016      -0.07677860      -0.82309001
S        1.85775175      -0.47158448      50.54798278      -3.10095765     -58.70162364      63.87725810     111.77970546    -121.62474025     139.79500974
S        8.87888951       1.04334293      44.82968055      98.83583401      45.41797176     -89.84143311   -5255.20713261    2678.57366899   -3211.13193617
S      -50.03775821      25.39725223       4.82900798    -639.58552777     232.15759079    -461.53572229     -11.92305978     -10.86597092       8.63371872
S      -11.80579513      22.36537157      65.18109829    -173.08592540     194.25239544     264.54996594      84.37884797      37.93589434       8.97507473
S        7.68239406       6.22236546      45.93607842      29.31895512      63.07898641     -38.12071985    -180.35794698     208.46117445     -73.13285630
S        4.26447520      -1.46209453      34.79120073      96.36306481      -8.87532514    -204.05001525     -43.29539841     251.19040923    -223.38804866
S       35.82652348      15.04331750     -19.71254031     183.83403762      10.78591801    -425.83095675       1.00502295       1.41455115      -0.61287960
S        3.28374493       3.44710506      49.71414957      -8.04627406      -6.27083853      29.06064136      -5.59370920       9.04450418      10.52989526
S        4.31487122       1.32193762      54.40093006       7.00190745     -91.57854120     -12.39822871      68.56096295      94.90156298    -197.72966945
S        2.76463339      -0.78316472      51.97007923     -62.21246738     -14.06284265      67.02148293    -279.85895195      82.97574090     -30.04561771
S       -2.12461682      -3.97583765      29.89185564      43.74426227      13.78598772     -84.69863961      36.32513785     154.35931359      40.76253195
S        3.59825480       9.07630784      44.91248026      -2.74261068      31.89117011     -61.31359048      -3.39843330       7.86878717      -3.44238936
S        3.46841009       5.16259377      52.15334780      11.07195128      23.67244638     -21.07046678       0.99429118      -5.47345281       0.54912895
S        1.71346041     -24.03052664      41.17277673     -26.91070594    -412.88446412     -16.80823401       0.68542922       0.47777661      -1.38335676
S       -3.30637214      12.14562148      48.54418939     -17.13199487     -25.29142012     -16.73173051      40.91083639    -140.56607056     -82.70911612
S        3.42281278      18.70639747      40.51966328       6.06665000      80.85843490     -41.69806193     -38.58829979     -39.68724210      16.10894591
S       10.05510949      13.28738500      52.12529650      29.36298033       0.76083583      -0.69264088      -1.01777558      -0.60833039      -0.85519038
S      -39.97443468      -4.71380813      76.59612079    -452.27555726    -156.45307758     416.05285563      -8.89891284     -24.83644444      -4.05000166
S        8.40786519      15.26821228      50.58362073      29.53111182      18.61593406      43.74009651       1.32857004       0.16347340      -1.38066274
S      -12.06551324      10.52450318      -0.54768479    -459.38455554    -169.35941680   -1635.14465325       0.15228062       1.65622617      -0.32652708
S       11.40935840     -22.34497831      22.83723045     103.66295201    -396.67303775    -212.67837514      -1.21851015      -2.80728311       3.05786437
S        0.45770520       7.69090703      48.46392816     -13.65549094      16.13841150       1.80888203      -6.27950128      -3.31976549      -3.77449604
S      -16.71069687    -231.19938968     -60.43897957    -146.69965758   -1325.86189540    -629.59522772     506.37789603    -788.14683411    -624.12395114
S        3.65793557      17.61504797      53.29311182      -4.73214683      55.38215750      51.78802732       3.43771081       4.06132177      -3.91848362
S      133.78768904      25.91453897     271.01767143     683.90687821      89.76021708    1215.10204059      -1.42241484       0.32673421      -1.94395136
S       -1.59059004       2.87310037      38.90031261     -47.88367913     -15.01221225    -109.66050704      -1.57746685      -2.87952977       2.12540730
S      -80.07411496      67.38587220     135.42975761   -2369.25536262    2284.58894846     263.77053676     -10.88099679      -7.71359046      -5.04276605
S        7.23286508      14.12594312      53.34548300       5.34651606      41.86474151       2.21164453       0.20896658       1.89506256       1.49358642
S       70.14309932     -11.53838312    -118.87859536     361.09288858     -93.76507101    -986.29693405       4.70054690      -4.27351053      -5.64562407
S       11.67843149       2.23413648      41.61217626      21.25337126    -109.59850881     145.52736625    1222.24167265   -4215.97251613    5827.70083632
S       10.96152494       6.46078958      47.07580645      29.66428336      17.30544839      40.69298619     204.02825444    -185.82381756     -33.09481693
S       10.26485230       4.39455396      41.81091811     -47.10613978     -19.88644248     -77.02861244    -264.49600649    1116.16911419   -1061.20786680
S       11.95123081       1.42567691      45.24814663      99.86351737     -99.46687956    -390.30006940    7074.03903934    1493.55273967  -16697.97672290
S       10.99040557       0.37158851      43.37049891     200.48464318       9.90306083      77.82267485    8147.55463498    4898.34449419    -256.31948325
S       11.78333128       4.68324012      45.98335953       9.07007890      15.75621599      77.04811478      89.15803132    2088.20887204     321.93999198
S       11.05872466       1.82065713      43.71308078       9.15312595    -246.78430183     181.64338082    4397.28807536   -7872.41578629     270.27231891
S       11.48317346      -1.07090200      45.25353435      -6.35959914    -188.68459633    -164.74910111    1886.64682965   -8050.68603695   -2619.87350114
S        7.39591505       5.13784311      54.76872682      -6.50713596      -6.20945583      14.21791015     -16.22936082     -74.25547688     -35.22383404
S     -116.27675177       3.49588201      62.93109787    -487.34667601     -40.10580065      58.14419694       5.62852718      -5.85952211       9.45688101
S       17.58812912       6.11825134      38.89709851     -43.25005968      45.10308587       1.32863002      64.87417592     112.75823848     -13.49811276
S       22.74097490      -7.71018097      47.32136068      47.41353341    -140.33245882     -56.00863471      -3.68389801      11.67119957      16.05227005
S       24.49672727      -2.27743280      45.82244936     110.27814840    -131.61075676     -33.09788974       5.09910455      -2.67478261       2.81760349
S       13.54169790       3.62578026      48.90812514     -20.21602818      47.67575892      -2.82090010     474.04880895    1295.67814526    1098.03380124
S        9.66977420       2.65263247      50.67431807     -31.84764905     -61.92233755      17.20198555    -150.46586976    -122.02255658     208.76352506
S       15.56157117      -0.41300829      48.02490228     105.67291810    -105.89787016     -37.22955957     601.89205052     -22.47975650     458.10927653
S       18.57765674      14.36244827      29.17801477     445.77232159     308.77978715   -1176.61904486      70.75010117      -4.13435654     -43.29945046
S       13.83862033      15.08891930      53.77775123      -6.40455123       0.52350356      48.58838458      -1.93147136       1.73859743      -3.56208233
S       14.92065631       9.70263168      47.33849218     239.87161990    -255.11897640     455.60217671       1.15046014     -10.52531909       8.67454664
S       11.97454377       5.98882513      47.92192020     -57.76863781    -110.84772505      43.65574011    -164.38173846   -1147.73780534    -582.12031400
S       10.26784824      17.36426918      26.50225235    -279.81906206     460.82330966   -1425.71021994      -1.21880171       1.41736075      -0.22841681
S       27.78880222     -11.09893489      51.04539759    1197.48655527   -1748.34920889     649.16319759     -15.94251489       2.07490539      11.75976303
S      103.78898294    -275.55027302     -64.13657681    1772.73531226   -5349.29733764   -2082.86635201     -13.94876647      -1.72281301       0.25666106
S        9.55472849      15.02037677      48.82672898     -28.84473604      78.24007783      62.03094721      -0.54656616       1.27463169       0.76362100
S        7.12296185      32.70524566      50.72204763      40.26020957     264.89995178     -21.42049972       9.10556744       0.15911278      16.47494638
S      -15.44438598      14.50868637      63.90452503    -186.16616527     -77.68340638      27.05451745     -24.94592256      97.47425504     -94.39992940
S        1.59848725     -29.17194889      38.00563517    -119.84140479    -356.08923269     -84.22434861       0.51379074      -3.65213123      12.95922365
S       10.90799765      -0.65624754      49.55531854      16.75464300     -31.39218853      62.33932989       6.29030264    -241.05203864     591.92017070
S       19.06314880      10.52468153      50.31663589      27.60374941      33.89445362       7.73465060      36.64400669      66.27080686     -29.83924842
S      -72.65939675     -35.32402724      49.99392177    -724.75980765    -454.73089520     -11.64333562     -38.45425751       8.16905262      35.01480981
S        7.68916655      13.18487329      51.76330287       3.04561574       3.94849482       8.05427944       2.08085320      -0.59257757      -0.87707397
S       66.02180963      59.57250394      64.16823061     333.06736533     237.50723284     138.76710981      -6.10446428      -3.02402903      -3.31544367
Sb       0.59973389      -0.01672612      57.38275480      98.80828084     -52.03972719      22.52271478       8.36443454      -1.12030931     -25.88028565
Sb       6.59205599      13.19629242      35.92535166     199.36762176     350.98965982    -403.59110559      16.15597049     -84.87471061      22.59610693
Sb      -0.62564801      12.00537995      50.73471724      -2.65050864      15.07085328       9.29182229      -4.08660126       2.73427636      -0.14633090
Sb       1.45409182       2.77536876      48.75815984    -129.86691113     -36.48783871     -65.09836592     -25.68844579     -48.33090266      32.45780009
Sb       3.40451383     -11.42959156      43.92068604      60.43925590    -991.37306531    -149.53060686     -23.42543190      -2.49014802      18.17895655
Sb       4.29292501       0.96255158      44.24262780      57.55544073    -366.42611390      44.44627188     581.66854294       6.62822473      57.20193181
Sb      -2.14575163       6.69090440      46.26261753    -191.12388941      -2.67376751    -137.98205739      29.24347883     -28.34293047      12.11172344
Sb      -0.21566026       6.02016365      63.58334515       6.00180383     -96.61613651     170.97910763      91.66310447     -60.67360019     -36.57656150
Sb       4.11785522      13.42138713      40.20277593     -20.84039040      26.20362037     -50.60383031      10.26612175     -35.49563124     -34.71861986
Sb      11.69494324       3.14931476      46.67830278      51.18605690    -384.57543112    -108.32969269    -792.92946788   -5934.50731270   -1638.14828088
Sb       4.62127482      -1.46019405      48.58819840      15.68636998      -7.16586972      -1.15050868    -111.12860334       4.80996127     113.80363903
Sb      10.04730828       4.00090790      50.83110435     -69.97631080      31.49747706     -78.97969778     107.55190840     175.82979832     -36.99104583
Sb      -7.27031055       7.37897516      37.21258791    -630.76737893      37.67352500    -352.41126068     -36.39241578      -5.08087640      43.41361935
Sb      11.97566798      10.04073645      44.88731095    -348.05856135    -200.11785829     -19.40647551       3.62900310      -8.29861987      -2.11101019
Sb       7.76345614       6.18384781      49.62152807      24.83037656     -78.41089340      26.34072246       8.17413306      14.91133445      -7.79653622
Sb       9.39069227      11.71954705      49.07430634     -63.20813553       6.10497344     -75.77625428      10.09628132       5.87685395       5.85024097
Na       8.02151486       8.90053767      60.47948107      -8.17763492      21.14043050      17.49745524       0.41095172       2.59738923      -1.61782347
Na       6.65864051       6.06756347      55.60698790       3.18661152     -32.06244045     -30.57100385     -23.59965590       8.71903850       3.43948457
Na       2.72218532      16.94364737      55.93839309       1.45591270      58.46881783      -7.01792395       0.91978034       1.69197497      -9.32420180
Na      -1.32175732       4.42811921      53.62313440       2.74460431      12.25761392     -28.39772774       3.70945516      -4.95758991      -3.80693876
Na      14.45862272       8.17525098      58.45886808      10.28978357     -19.63657417     -18.27758578      -0.40798430       0.15351851       0.57406544
Na      10.97811144       2.07382508      58.21658616      38.42932437      -7.16033973      14.14161673       0.30725745       3.65043060       0.43181819
Na       3.03187990      10.02524641      57.88265920       4.03811036       5.79626557     -18.80824994       0.14520670       2.13203586      -2.55674882
Na      47.22183886       3.34487086      80.04036512       5.90826270      17.13825628      -4.25992081      -1.03418426      -3.01018887      -3.39977750
Na       2.68462313      -5.27054226      59.52246703      -5.67298630       6.16100364      -7.15767233      -0.46796074       2.10071243      -1.55961073
Na       1.42155284      -5.45288415      72.96541527     -10.90215374       1.27995800       1.09912363       0.31666408       0.34975187      -0.77816794
Na     -65.18565195     -13.96450719     105.62286061     -13.15976992      -0.25716946       9.53001248       8.33721108       1.89400338      -7.55146938
Na      -0.35720950      -8.34864145      65.18346942     -26.86204933     -51.85841066      16.72962871       5.64016310       0.44485420       5.41109447
Na      26.51941145      14.38140952      52.01546906      76.68943456      25.91533016      15.44089005      -3.78497269       1.10516818      12.99025293
Na       5.02863862      11.49537635      63.97301048       7.52689005      22.28407977      -2.69515733     -17.08907653      30.74285001     -28.58844850
Na     -14.79325134     -23.80068190      37.01252720    -106.08792942     -87.68558746     -55.92576927       8.58844210     -27.10794647      68.54837080
Na       6.32411280      12.73400352      59.01179904     -31.71868039       2.80655890     -13.79666077      -0.67447928      -1.19602323      -2.20721322
Na     -37.84526259       8.95223190      50.78013616    -185.79689799     -70.40465599     -54.47801581      -4.99757954      -4.96497764      -1.79830478
Na      80.86872439      37.02567335     -10.39181934     345.75975512     118.22007883    -259.39355358       0.65021359      14.36665150       1.28481770
Na      18.87153901      12.82871231      66.44452536      11.12333327      -0.30369230      13.41051429       8.00426474      10.46078211     -25.69625387
Na      -0.91259075      13.60769390      70.56009961     -13.61730911       0.21014731      -4.22250777      -0.59761234      -0.36523918      -0.09994761
Na       9.24465821       3.61028180      73.58852382       3.12653661      -7.25967942      14.49839081       0.25957540       0.37435024       0.23149805
Na      20.71770937      19.19544962      79.20570224      20.49065768      35.37889036      55.04921995      16.99894905       4.82341565      10.32324413
Na      23.28338193      16.90368060      65.49841477       4.06168338       1.51670014     -10.92215061       1.06227104      -2.03685024      -1.30951604
Na      -0.40700199      10.17497714      69.03422897       7.14128948       0.35952835      13.39246668       2.05566431      -0.59715301       0.20889336
Na      10.74569436       1.01683075      55.95690398      31.36568970     -15.85896379      -5.64317832      -1.65392682      -0.61418582       0.00328946
Na      11.02822684      13.67466111      65.33933067     -10.94373662     -33.07549324       9.23836992      -1.43284472      -0.03510000       1.16025545
Na       9.26029466      -0.53891102      61.89145575      21.36587013       7.65655691       5.01790790      81.91568613     -36.57062229      49.02306120
Na      -2.46367575      12.28839520      66.57064674      32.25606307      91.99091268     141.18750869      -2.10828266      -0.12670617      11.07879582
Na      26.97382965      10.21870812      60.83442849      84.39663648       8.15654280      23.19158105       0.43089116       0.20692165       3.20981438
Na      11.46391220       7.06901051      72.33762697      -3.45378760       0.14349195       3.70938294       0.75764558      -0.42676358      -0.21408751
Na      20.28517150       4.61539820      69.89737440     139.45068486     -45.55650051     235.58893669       0.96417155      -1.02213617       0.27572393
Na      13.19301007       9.41301497      69.44596352       0.80604997       4.16436265      24.19299576      12.02440463       8.34846865      14.47403004
Na      10.50028212      11.77160787      84.85166570       1.59841662       0.28873400      22.23460540      -0.27710053       0.20195438      -0.98171168
Na       4.90342865       3.97553256      68.02293896       5.25534039      -3.13489777      -4.80830599       1.74535607      -2.13764480      -6.75879655
Na       9.02364803       8.03343743      67.09408347       4.03584404      -9.39976945     -17.05511624       0.18869278       3.48392161      -0.62947106
Na       8.68545587       1.94004482      66.31986119     -12.26928786      -5.39137177      16.88989723       0.42280539      -0.36381959       3.76691868
Na      18.99083500      23.98675726      41.58671458      47.59462266      43.80643155     -44.04827558      -6.14230401      14.19518536       3.85068895
Na       7.54364912      17.21208454      57.57874682       5.33402758      42.61481070       4.06065225      -0.49845492      -0.59199911      -0.99943839
Na      53.34527398       7.46298564      76.26478828     164.49564997       1.59259855      67.12724706      -0.90366377       5.98193997       3.81010542
Na      39.45184454      -6.60588817      63.31194930      89.08664416    -103.19772271       8.18134698     -34.63557563       5.10463616      48.10044848
Na      37.49027956       0.54321476     141.88693122     123.73842686     -80.94647301     338.52405208      13.46944108     576.68804542      84.65606113
Na      28.04318556      11.56275240      34.08762936     210.63629315     141.55159668    -251.43970762     -12.11877442      -0.78656065      -6.34678684
Na       7.96994466       5.31135512      61.01104875      -1.40605816     -17.84458092     -14.65465302      -1.63207292      -2.99496904      -2.11199053
Na       8.36198793      11.56337245      74.54028129      11.58129940      -2.96538890       1.51476317      -2.44862215       0.87943799      -2.35846098
Na      14.19858423      11.28555011      70.97163465       5.08268851      -7.50156140       9.93766626      -3.36403519       2.01021578      -0.80717128
Na      10.35113137      11.80385040      89.21303181      -0.79245054      -2.28728437      18.72244410      -2.27766475      -0.68068217       2.40014457
Na       7.40269290      13.84907368      69.36598116      17.60594720       3.96766384       5.88575921       6.96288090      -6.16321797       0.54401067
Na      20.12065412       3.98057075      60.75457846       8.26210626      -2.78404143     -16.46596740       1.72159633       2.72593436       1.79273688
S        1.70304340      -1.36207825      59.24046383       8.41190446     -23.18917114      -1.70543185       8.82472087      10.70847756      12.31655142
S      -13.52785353       4.61784790      64.81039282      16.89376351      -2.21895682      11.74244035      -0.41536071      -1.07927041      -1.84608606
S        9.63810478     137.76462825     -43.32597516      43.25389653     722.51705471    -515.39628082       3.64879514      -1.54618128      -1.39474581
S        8.29976327       1.38995614      61.96930845      -2.58224214     -19.51073925     -30.27499154       0.66093160      10.75595898       3.96891417
S       13.94873211       9.30823676      50.21820072     -20.02093548      32.57587781     -25.28765016      -3.17424076      -5.46239388      -6.33398950
S      161.05672820       8.22846734     156.08450809     933.88645932     129.62830629     541.81201269      -1.24612069       0.64862240      -0.54509133
S      -97.46679543     101.32303277     124.67943151    -552.74994439     513.58222506     357.86303628       0.65534730       0.79847570      -1.32320525
S        1.23774833       4.86202152      62.39172049      16.24458915      42.50186931     -21.38131272       1.19300080      -5.13488325      -2.28799899
S        2.54285508      -2.39065318      71.33677232       6.65139083      -3.98956927       3.08405275       0.59521793      -0.16451996       0.16123182
S       11.23849264      -0.11032658      77.75002563       9.12018513     -37.98480502      32.08653641       1.61041530       7.91884558      -2.66893192
S       -0.02396019       5.84255378      66.51953384      -8.41607134      10.98865311      -0.63229174     -32.49209042      41.84766619     -30.84757322
S        4.07660315       4.04597496      69.98173432      21.28879602      -3.49844759      13.93612160      -6.81787216     -10.33594289       7.32807948
S      -21.31111353     -40.42157003      63.12018453     -26.36622387     -20.45871616       1.28322810       3.19169916      -0.57637804       5.57388772
S       11.96490551      17.84415768      79.33925307      -1.98757703      22.27143172      18.55586172       0.34737019      -9.94930302     -30.29138365
S        3.43724715       8.44171034      69.85482038       6.93713261      -4.65576726       8.99878399      -2.03199859      -1.17212237      -1.42699803
S       -5.81367104       0.38116983      77.01366385      -4.91306649      -0.13897171       7.30380477       0.13079387      -0.59212726       0.38226241
S       88.98858149    -219.35058074      81.19633524     514.58049506   -1241.64554323     138.55989185      -3.62463434       8.04132756       4.61013106
S       -0.71750880      22.36350098      55.71002991      35.21082335       6.38636667    -101.77849637     -64.58635796      -7.59806189     -24.59847214
S      -68.68598914      15.20231337      85.98566016    -667.79596184     -26.30391909     243.47452890      16.15133824     -20.54304612     -21.63713152
S        8.81062230    -132.02166669       7.11166276    -304.37686620    -751.38333136     118.07046132      -1.69327741       1.78957390       1.84073089
S     -158.09453818     178.02494823     -31.97829984   -1001.73789460     969.74575550    -569.50774494      -4.25175588       6.62170245      13.08446897
S      -27.11828915     -20.26447267      19.67772014    -182.59578256    -204.49842005     -99.34505082      -5.84702002      86.94800389      26.41975747
S        4.73168945      18.33294400      43.70835612       0.83998814      47.50316427     -37.25214656       9.71256902      22.09503778     -17.86165623
S     -113.24354426     -21.14837890      68.26816401    -635.40699013    -203.73610951      30.48634548      -0.30231326      -5.02671364       1.42881834
S       -0.12354605       7.73846974      64.05030226       0.42135000      13.50587396      -6.52642383      10.46987778      15.74832048       7.28191459
S        9.05541123      -2.22587750      68.76310308      22.36673020      -5.81036818     -18.86575523       0.95248244       1.32433936      -1.33288028
S        2.87300490       3.44523334      78.81044849     -20.10258307      -9.74185580      79.28650701     -22.68099083      18.21544400       7.49437420
S        0.26032780       9.02564323      74.80602834      -4.33754111       6.46228598       9.10772951      -0.03060257       3.36035483       0.85294930
S       -0.80882745       4.43809181      73.10625151     -24.87335881     -11.32819902      38.91116462       1.04773464       2.05343025      -1.05598147
S       -4.90652032      65.22750581     -19.22554939      34.15487560      63.18664173    -121.30169126      -2.85934011       0.76385853       0.07065748
S       -5.49436108       5.06627765      70.56091249      -6.85036095      -7.66851566      -4.40646426      -1.85699189      -4.75400035       9.64522926
S       -0.67898698       6.33193673      71.41919651      -5.34445350       2.45459721      -0.88990302      -0.71433108      -0.97975233       2.52385467
S        5.51647870      -7.78830996      66.76116339     -43.93327843     -35.64677280      -6.00793388      14.74751180      -8.94783634      15.32173648
S      734.48042873     125.80662487   -1760.52902788    5277.26912266     764.35260777  -13151.12704006      -0.01556295       0.09806900      -0.46302109
S       11.92064666       5.10248894      49.54028946     -72.21864508     -20.93069020     -22.30563490      83.96976733    -411.85668577    -424.52759972
S       22.82144561      -3.18785785      72.14074702      36.58150705      41.21802088      -7.25620608       1.63838912      -0.15567838      -1.07169443
S       15.89026399       2.18596357      53.84972882      35.14417284      25.76007495      19.38073347      -1.21405316      -0.91352402       6.15763181
S       22.98258876      10.04927877      72.94496924      72.32452863      22.00223309      44.47936915      15.84297030      -2.51965686     -11.39927989
S      108.88558541     -76.12575719      -1.07876367     539.09474571    -522.08449370    -346.36634421      -0.17340753       0.04486409       1.32904903
S        8.23487116       3.70291081      68.61100181      22.94525513     -19.13676412      32.19799303      -0.23700228       0.79791020      -0.07137647
S      -12.13194518      10.17033767      48.72163553     -12.58460587     -41.17702868      12.01336094       2.19813814       2.03214018       4.36707364
S        0.29429948      -6.23090573      79.63031355     -32.99981326      -2.72132598      11.72780687      -7.88362553      15.38471429     -17.30146685
S       20.44664685      -0.76507303      73.33638793      20.34903048     -17.22261801       2.85181162       2.72268288       2.31239496      -6.26228524
S       16.59524383       8.77656398      80.72725884      -2.83967652      -4.47238525      10.17155598       2.11872116      -1.01971863       6.50801037
S       12.56432049       1.45353934      46.38832538     -42.49461599    -264.65988476    -131.84208044    4190.07683530   -3130.10587922    3775.88412215
S        9.62098869       5.50246783      70.23873907      -4.60486523      -6.64235567      -8.30156685      -0.56697011      -0.04465620      -0.94643221
S        6.82313110       9.92167639      68.14529332      -8.80404166      29.60377001       5.90480653     -46.52310141     -35.96970542     -25.80313283
S       11.98339799       3.29051557      70.44841859       0.27854466       0.98938440       4.08481861       0.74123338      -0.61518521       0.87549485
S       -6.31522863      -8.08496075     -86.34030688    1483.49899799    -584.63833565   -2048.55456735      12.31138527     -10.98469647     -12.87143156
S        8.29705773      19.30016629      72.89702050      10.00747114      18.60586454      60.73820843       2.19871138       5.33777379      -2.86418662
S     -546.87006212     -20.19584324     -82.22308130   -4714.62990810    -286.92852749   -1161.21057363      -0.20470759       3.95560835      -0.02716217
S       15.49993694      20.80265275      80.11249997      13.31566323      15.73475319     105.40438158      -0.82205950      12.03412207     -17.61607494
S       16.99074281     152.94304214      -8.41658894      44.08890618     811.93290620    -378.99450232      -8.63549472      -8.88232951     -12.72338440
S        4.13620373      13.40271453      56.47209146     -13.65410180     -30.03050290     -10.75902290       4.56871858      -3.53088286       3.13331387
S       74.70746504    -103.24921236     170.58825148     449.97324271    -609.37614167     603.58140197       0.55849294       1.71258442       1.31658723
S       -1.01470252     -82.31676312     -35.56171293      -1.02760501    -531.28357921    -499.36631971       6.29085185      11.37938491     -11.08209530
S       13.88253427      12.58236162      68.50760370      -1.30347583      25.75595839      15.25516899     -11.68973129      36.29574500      -8.60285701
S       -1.73227063      15.64470329      67.12943232      -5.55720251     -16.29085784      10.93481807       2.81744629       0.97499476       1.95293115
S       26.73058490      21.41561894      64.99295213      97.56138056      37.79676739      37.09385099      -6.56156252       5.46713285       1.31508766
S       10.34467631       9.46368664      77.20425170      -0.61641337      35.00539254      12.28067037      -0.81917980       2.96773663       1.71850162
S       45.62592758     -13.91766796      43.78549868      80.13892983    -103.48827940     -65.21834225     -23.09411119      11.80346146       9.20673403
S       18.97119672      29.26835051      53.72282356      33.89813145      47.86164521     -46.41470185      -1.61647352      -6.38055404      -9.38842624
S        7.79130739      10.67899585      68.67427047     -37.37071853    -127.71923105     -24.57095522      46.85720031      36.53174685      25.97185868
S        9.13820113      19.93979390      89.85438961       3.43486021      17.59260870       1.38721790       0.37495264      -0.74864568      -0.03320303
Sb     -32.62432533      12.16681553      75.53688732     -56.24022744      42.61698290      -8.00539801      -0.49745977       0.56087741      -2.05421674
Sb       2.68639604      38.90589122      55.40327849     -10.07512739     674.76609501    -152.22456127      72.72910216    -490.36590879     -84.81820878
Sb       0.33613805      13.38198869      63.69488993     -39.37137408      -5.73625833      45.96890289     -54.84188717      35.74631872     134.32541498
Sb      17.32152770     -80.09592110      91.28127167      30.79220324    -221.02039818      69.00383694       1.79621900      -0.98091252      -1.09725731
Sb      -8.48370082      23.58858145      56.73943483    -235.74396194     327.61468006       8.06693680      -0.20731863      -0.92208555      -0.36582476
Sb      52.47829980      41.80352573      94.94734754     948.25616151     541.05853006     718.42632280      96.61597729     238.63437372     119.84012017
Sb      -2.40161518      10.13405064      66.44918583     -18.04334546      25.30166366      22.40802706       2.84124118      -7.24080688      -8.70351921
Sb       5.92820647      15.25126997      69.14500704     -12.65566103      43.06275577      -0.24089490      -5.92108042       6.76701821      -2.86436047
Sb       6.22942443      12.28458543      54.50504760      33.81437244    -136.12525300     -22.10362131      -1.94260629      -3.01900911       1.30153423
Sb       2.44244977      17.08886166      58.00220401    -181.63751243     265.22908345     -22.85125908       6.66720271       7.02684969     -20.78386831
Sb      13.44461626       2.12923150      64.59492031      18.17114845      25.01998913      23.27525724       1.77446323       0.69990055       0.22219768
Sb      19.05693441       6.04778474      67.97217683      21.38715614     -32.36837370      18.39514687       1.67853275      -1.09631886       1.04530834
Sb    -102.43123544      19.75572340     106.67218857   -2309.95634075     285.51774936    1031.49779310       0.24708590     -17.48877382      20.37812009
Sb      16.29749923      11.23616611      31.70843176     -53.84942328      -3.87932613    -569.19699587      12.39542861       2.62404306      -0.13089245
Sb       0.84726894       8.67989857      66.56703441     -68.46181650      42.89316374      93.33984254      -2.70856291      -8.82592620      -4.32811649
Sb      -4.06469474      27.32089169      83.72079207     -46.85428816      72.40887004      53.27858781       0.81363724       1.78691440      -0.68122879
Na      14.58076369      17.65656171      27.45082657       6.00423170       0.89930257      -0.66465547       0.41674791       2.21628865       0.85479803
Na      -4.70544268      32.16319828      18.58930197       6.98500157       8.15623241      -6.14830482      -0.23884533      -0.82483295       2.20788699
Na       1.29639719      12.65886530      26.94370680      -0.24190843       5.19919328      -8.88781558      -0.27393128       6.76818321      -1.34216914
Na      -0.87048596      14.81078324      33.21702372      -0.01616591     -50.02104394      46.75431162      -0.23458965      -0.49153255      -0.75140843
Na      12.12105725      29.50363523      29.22964091      -2.59798543       2.29894995       4.11361537       0.65955721       0.12841609       0.48216276
Na       4.36117998      20.32441322      27.62570505       1.23647166      -3.97784922       2.31990771       0.18417557      -0.85694831      -0.01522902
Na      10.16368162      24.22708326      36.02576471     411.97392262     125.24745636      67.64318540      48.60881827     -68.90628692      35.16580073
Na       9.48285941      17.78286141      36.01984378      19.01163342       1.85238013     -11.14480802      -5.07446677     -14.70741279      14.23119020
Na       8.07232119      17.10180819      38.52051831     175.65958739      78.34596781      20.96981798       1.89615791      -6.99105747      -2.26617103
Na      -2.12077033      18.87607224      39.10735345     -66.88812420      -3.32173914      42.82710822       1.33939462      -2.04808136       1.50212349
Na       5.53486797      20.31827982      38.95854410     149.80192636     103.87712566      14.77789093       0.11238949       0.52626443       5.56255434
Na       0.96445200      17.25617806      34.96755933     -37.15138680     -37.09023957      22.23224599       0.48314040      -0.67440223       0.70796363
Na      14.29315723      24.18106222      27.63103979       2.46062746      -1.63380316      -2.17760543       0.63144842       0.30939026       0.11810149
Na       3.39447529      23.18175447      33.42468812       4.97448182       7.58573930      -5.98809526       0.79014463       5.18466443      -0.37969339
Na       3.40091497      23.22962854      27.93817602       3.71814520       4.44579488      -0.00067703       2.40164568       1.91490546      -0.29628827
Na      14.50542159      25.37486544      31.25786811      -1.57853876      -3.67651308      -1.28854442      -0.45724387      -0.73286556      -0.20002732
Na      14.25611963      21.98697786      29.84723143      -0.76968226       1.84431572      -3.63173029      -0.11468406      -0.05891094       0.49228420
Na       2.66348865      25.97586169      25.26037082       3.51457589      -5.55989977      -2.30664494       2.77764369      -3.22912558      -0.18489901
Na      13.60008697      24.03207480      34.65138025      -2.65914649       2.73137407      -4.83673206       0.01078359       7.40010951       7.34622657
Na     -12.74522914     -89.45132872     -32.70982323     -14.06753031     -69.80098830     -26.29498729      -2.14490217      -5.82396282      12.15656940
Na       5.26380879      23.25836339      37.45531843      -6.57368349      22.90153766      -9.20176098     -22.80953317       2.87142315      37.66139971
Na      13.87970633      26.12199267      42.34991160     -42.23298776      15.01868417       8.66608268    -544.43797068      39.05303481    -538.26795004
Na      12.72796166      21.89330330      40.74067447      -0.34762830      10.19255905       5.08527764     -15.71971423     120.61372234      58.23917490
Na       2.35727606      24.97744853      33.79592493      -6.77702401       4.24396405      -9.01766191      -0.78864095      10.73839155      -0.16621441
Na      12.14093683      15.89698714      26.60100137       8.87116841      -1.20031335      -5.98555649      -2.22782730       0.45922172      -2.51171418
Na      26.79789678      39.85483940      35.74092131      42.93230672      44.84109847      60.47541840       6.82985077      16.75746478     -15.24551970
Na      10.64822699      14.13229023      29.20126734     -12.00099549      -4.86060711       0.63874483      -7.79274790      -8.35710567      -2.09457476
Na       7.56247624      17.65949579      29.11740611      -5.01779988       3.53311436      -6.50217633      -1.15087736       0.13151346       5.93261437
Na       4.04632144      28.65956414      30.17046885     -13.61780064       8.28712505       3.25301964      -4.28274534      17.35547928      -5.35234857
Na     -43.72352854     -17.26555803      68.73156564   -1244.14324596    -733.32212741     630.48391278     -21.44835291     -40.75567542       5.18459564
Na       6.78291134      16.81683015      33.30967203      -6.67911369      -2.49384232      -7.17417183      -1.32027552      -0.54769622       1.29753346
Na       8.24889383      12.74463442      39.58371736     -87.99511456      59.75671124     -82.02695121       6.22877924      12.07402412      -9.69866041
Na      11.47387826      29.64165580      39.34136309      11.87133524      -5.11104324      24.34602896     -30.98081975    -155.16456842     562.53177369
Na       9.70104374      20.04273756      37.30432700       5.06467985       6.88328558      -6.09348621       0.64346471      -0.84511629       1.09492709
Na      12.92531887      26.34700946      36.83301132      21.51521833     -21.64320107       2.57191062      -2.39343399      15.74667803      38.20807021
Na      11.16803534      16.45404362      33.81032074       0.40076951      -2.50969288      -5.46549963       1.58024049      -0.87245893       1.56429035
Na       7.23812460      25.05477108      27.98171596      -1.23688099       3.17839983       0.40796852      -0.26346658      -0.01870070       0.36716803
Na      11.19483981      21.40566111      34.36593955      -3.45739330      -9.35223998       7.31833852      10.03118478      -4.24720248      11.95137655
Na      10.23179452      21.17274347      29.13478714       6.40057625      -2.70585023      -0.13498337      15.98014050       8.25738367     -17.18665926
Na       8.23390638      24.69867497      32.55241314       1.02629199      -1.66093095       2.39637737      -3.84752884       5.74483855      -0.02340227
Na       5.07434663      19.96669003      30.41225652       2.58571230     -25.87101741      11.53174051      -5.70860387     -14.83591873      43.21042789
Na      11.43724412      24.58219081      26.67020257       4.45871406       0.31893305       0.42786682      -0.64564793      -0.39647466       0.14757216
Na       9.21912947      26.87599308      37.14668890       4.80850893       7.53331611      11.41348659      32.82743338      26.63160774      46.93630569
Na       7.47700528      16.19014939      34.15371177       4.33809711     -27.65285472     -21.25790139       6.60207521      -8.63593697      10.80261279
Na      17.47667999      20.53356660      37.58600293      -6.70836464     -13.10523337       4.67146675       1.07980687       7.98100702      -9.87674777
Na       6.00408868      26.40856481      39.44855164      -6.08472798      14.40674986      11.09815888      11.70439511       8.13795043     -10.03817253
Na       3.91923287      14.10323034      40.72932661     -42.91947450     -76.13627341      24.55547815      -1.14402861      30.64172396      22.64877396
Na      11.65903944      26.32992267      33.78695765      -0.89916377      -0.66333392      -1.61597608       2.55078205      -3.54360550       3.08542098
S        4.66582556      16.19258284      27.79351833      85.09250413      35.28344802    -119.68135376       0.96684791       0.19479499       0.55717332
S        2.39104089      19.79955557      31.51259269      -8.73322458     -16.54223300      14.31594771      -1.17373418       4.64143467       0.94838121
S       13.58216408      18.55444969      25.41358881      27.99694919       8.63947500      -3.10720488      -1.25114639       0.74679758      -0.61351443
S        4.90553036      17.28522135      30.97232145      -5.62105733      -0.72266600       8.68200608       3.70766389      -2.40389399       0.37557382
S        7.73675414      13.05947468      27.42747194      -6.38065309      -9.90286250     -17.24124003       4.93961947      -2.48922185      10.50166264
S        1.00873398      23.85036495      29.26444944      -1.24676833       7.00872501      -2.59434383       0.64429165       3.85773753      -1.81051275
S        0.66832235      22.13401900      30.43101425     -30.10415881      13.59728031      -1.64370547       3.56849427      -0.67400623       0.82561484
S       14.27453677      14.80917510      22.78991965     540.13126786     -35.13351512    -490.15240191      27.08908400     -17.06938600       2.82230270
S      -61.30042973       4.66266184      86.61633541   -2664.01981061    -381.91852667    2187.49133758      18.30302830     -24.04570390      41.48586359
S        3.58050921      16.34724357      42.43656466      63.05052030     -19.49830320      78.11334701       7.23008079       0.80679647     -29.09703357
S        5.26265660      23.18068658      35.69802353      -9.70543922       6.32167330     -16.62109423     -58.25812630      -1.18488508     -59.13631136
S        5.90831512      13.87879878      38.76395210       8.79136460       7.60791044      65.90671557       8.21934347     -19.83092266       7.87238851
S        7.21458357      33.18299369      23.39717601      36.63123105     130.99700817    -165.82981475      13.20162829      -6.30306457      -7.40287894
S        7.43630882      17.43812745      44.51726325       5.33026593     -26.53381172      51.02608626       4.93031445     -16.73287921       0.53027597
S        3.15534409      21.61389664      35.00015181      65.38928231      96.33847767     -55.54611696       0.80555555      -2.98681065       0.50557698
S        9.99430838      20.08742272      41.61033077     373.92084249     163.21778218     100.82367738      -8.70120319      -7.60954922       9.17014556
S        1.76069844      23.64577983      25.29551286      10.48163101       6.13210217      -0.85185153      -0.31254241       1.21998807       1.52738500
S        1.97081409      29.85228179      31.15176033      12.98368459      -0.27721375     -23.41732231      51.79187311     -69.76076167      18.80222494
S        5.78071428      27.20298498      26.47650215       1.74048545       0.44119292      -4.08990777       5.88747980      -4.81941585      -0.93960831
S        7.53147054      27.59780507      36.61887943      20.66846456       0.79836559      16.05829759     -25.28761707      15.81561494      74.76641212
S        5.09128590      12.60670032      35.11190747      19.77847736       3.27999253     -11.63607746     -27.24044660      -5.39256225      -4.10840589
S        3.18448393      28.15829141      35.43443372     -36.71857723      57.39117386      13.97484376      23.70611827     -68.32605372      35.78219187
S        2.99242676      26.25871296      28.97841149       8.52571158       0.62404095      -4.63456085      -0.90441134      -1.32699150      -0.36171277
S        2.12079838      23.54190672      31.22264643       5.27510434      -2.23642906      -0.17861797      -2.34437896       6.92959339       6.88281420
S        0.59469619      24.18623491      35.87068965     -16.30205168       1.86150879       1.24720112       6.57688885     -12.04542350      -4.33146909
S       -0.67264811      37.19706814      41.66682586     -39.54183161     221.53478881      57.05333054      29.91840455      15.00579756      25.93262947
S        3.51056615      29.77772473      32.38258468      13.22017336      -2.92702599       0.01530046       7.86714554       7.52762914     -12.78018348
S        3.16794194      22.00087930      39.91667499     -34.49925153      12.12194500     -11.17354666       1.13788425      -5.59061949       2.18007451
S        6.45198848      23.31316075      36.47635268      33.37293901     -38.75414543     -52.46789335      53.91648630      38.89320537      18.98091489
S        6.42982651      26.36031132      34.90966823      52.83882512     -36.10733670    -115.04200535     -20.32109601      -4.38159539       8.32107872
S        1.44032679      27.98155713      34.05715162     -20.93470673     154.13431236    -165.63212796     580.96668148    2955.80019847   -2974.95822038
S        1.88031289      21.34249310      37.55531840      40.87641147      50.84151020     -42.22163309      -0.27965354       0.25788321       0.05030974
S        9.75689840      13.37663037      24.58675833      -0.76823048      39.15621609     -89.06194901      -6.21871895     -17.47789979      10.82134295
S        9.42840734      22.28628073      35.20203457       9.96463151      17.63820403      -2.61244710       2.66479221       1.89686157      -1.92627122
S       13.27367005      20.35495953      28.20007339      -1.93317015      -1.18760340      -0.48517785      -0.00688130      -0.18396889      -0.94736329
S       13.89833728      15.52222371      31.92660410       2.87477881      -1.25328980      -1.65932807      -2.47701478      -0.30760663       3.75362058
S       11.82709959      15.38708524      29.54916760      -3.34105280     -10.59838230      -3.14618993       8.65823729      10.60051198       2.60244330
S       12.37910641      20.55530033      31.32047073       1.16119984       2.53873164       0.77231087      -1.63424050       0.16181492      -3.85571067
S       10.97978508      19.22005635      27.17020925       5.50327218       1.46891811      -4.76291009       1.04815370      -0.50890651      -0.90379647
S        9.34397658      15.72000561      31.76818491      -0.73715553       1.79953294     -15.24355726       1.25102679      -1.69436953     -20.08385515
S        9.53777607      13.51371914      35.54836258       9.67403826     -30.36479309       8.58256148      12.17455921      -0.54840519      20.02483470
S        7.68883660      20.12420994      29.06788882       1.93113427       7.23288321       3.27024542      -0.11430671       0.34913886      -1.60696640
S       12.68499033      19.91168947      33.11968490      -2.77342690       3.31206397      -6.80467194       1.62873466      -1.42938165       2.16937324
S       18.86450909       5.41157686      29.20423932     174.47009666    -245.06313798    -283.21342478       1.70416763       3.21208741       2.16484410
S       12.96043715      16.00212692      36.18692655       6.79889609      -3.48440405     -11.70064969      -1.74676038      -0.65489485       1.91628884
S       10.85527414      24.44650752      40.59083659       7.80479008      11.88469732     -25.99372871      50.51576341     -58.38895793     -84.37077357
S       10.25637678      18.48993588      34.68629132       2.01179324       1.22497809     -18.06395098       9.18940057      23.73958199     -11.28989721
S       12.89080512      13.97676702      35.46105572      21.87284679       5.52282090     -49.14244468      -8.73607458       2.51315500      21.91805384
S        8.76261034      22.62909509      26.98535199      -1.48156273      -0.06308943       1.43841057      -0.08975115       0.83654449      -0.06607242
S        9.08576758      27.23727416      33.45476221      -1.20156886      -2.84337789      -8.54996439     -56.81425161     -22.06179803     -74.27136793
S       12.43311827      26.98695588      26.72567188      -0.79237229      -4.28090573      -4.26243556       4.29250849      -4.98433678       0.50024201
S       12.09020709      23.12785755      33.29931481      -3.82734561       0.77511850       3.68441349       0.08609409       3.46771898      -2.20240503
S       12.13108725      23.89749677      29.32772836      -0.33134291      -3.05764908      -0.01260257       0.70883369      -1.50105086       0.16053572
S       12.70787430      27.81032106      31.04086988       3.16034252       3.95582513      -1.73873908       0.04806451       0.20499614       0.52295987
S        9.52932828      26.45362952      29.24030610      -3.54222979       0.26449061      -1.32289915      -1.85307792      -1.34901719      -0.03730238
S        9.24939793      20.67849396      30.25009843      30.55562370     -22.59844829     -25.23244699     -15.33363147      -7.30749026      16.70316032
S        9.78988292      24.95696878      35.84240776     155.88002795     122.74145515      70.94442491     -34.97379843      75.40713501      -8.86176760
S       10.38044213      25.93761374      38.99502893      -5.54559128     -34.46199067     -20.20946851     -52.67629882    -176.62610454     140.97366717
S       13.40289644      27.14198022      35.59878592      19.16118888       3.78682349     -30.97868160       1.15125609      -3.84205826     -30.66692019
S       16.23125304      19.62332421      38.53192253       0.88429235       2.79638287     -10.57889523      -7.79749100      -2.56657845       6.95039993
S       16.06702012      22.57721976      38.37248360      -0.51736080     -11.53289805      19.19668596     -11.58664044      17.87559079      22.55096825
S       12.54408314      27.16000589      38.83043761      -3.44149579     -14.40837665      -3.97370652     -19.53592533      -3.03744063      -5.21198177
S        7.10364990      32.22954516      27.16568741      18.06638728     -30.41919205       4.13058827      -0.18207124      -0.79434065       1.35494211
S       71.71396117      78.14676590      12.31009774     734.64417207     372.76815782    -401.32451862      -7.45645418       1.36920991      -2.42456317
Sb      -0.84944458      15.43790555      39.61228442    -128.26972023      46.73964238    -315.74420848     -40.18702910      21.61824605      16.61601026
Sb       2.70806032      17.75578487      30.91730107      -2.75618736      13.94190670      27.47631308      -3.06586985      -4.46075129      -1.28462845
Sb      -0.54922397      29.54806537      34.79051065      -3.51872262      15.02010618      15.66301180      10.40652186     -25.71335501       1.42508573
Sb       3.66109715      18.29635420      38.76995631     -29.29920714     -67.35304251      -9.59647247       3.30045375     -12.01714248     -19.56125330
Sb       0.99729419      22.27706319      27.60755766       5.15754507      19.93089162      -1.47658350      -2.48672274      -3.85317058      -3.05199790
Sb       4.14620394      25.01365124      31.14898850       7.40165811     -11.78089885      -6.88730390     -11.30885143     -20.04564556      -3.72438911
Sb       0.69145787      20.45342247      34.41008995      42.45883654      -7.75584679       6.26537251      -0.86230791       0.60612730      -0.46529196
Sb       3.15646064      29.59308015      34.83760332      -6.24296789     117.30051458     -43.56935826      20.93149022      30.84700086     -21.66639963
Sb       4.89455379      27.77982236      24.40567063     -15.29291085      -3.90048525      -6.16372865      -2.04291916       1.48827373      -1.38962170
Sb      10.74709226      17.21692686      30.98051894      -7.00141926      -8.71538927       6.72369562       1.76076205       2.27305849      -0.47461457
Sb       6.98527119      14.73058188      35.46743805     -44.39617821      40.00376080     -13.10127140      30.90823524      85.84721742     -16.54784246
Sb       9.31612781      15.43803436      35.10832132     -26.31544994       3.38338109     -97.50393966    -221.26584682      38.02887558    -377.99028313
Sb       8.75032152      21.76010660      24.72034027       9.87774474       6.35197317      -5.52505238      -0.10028987       0.04670392       0.26280687
Sb      11.81723568      26.18946022      29.47430939       4.92341421       6.77953596      -8.63974252       0.56815557       0.79920921      -1.30625480
Sb       7.62083390      22.14710061      36.21945866      28.70553143     -19.36410063      35.79242959      24.27794030     -31.32513723       1.65694028
Sb      13.78732684      26.04411325      38.26535091      29.11641524      48.29125931      42.84085854      66.37029363      72.20407779     164.47352711
Na      14.09353020      17.01803815      42.63009992     -14.53321512     -24.10533935      -3.46757599      -1.70261292      -0.07655818       0.62930852
Na       5.37225465      25.16162818      56.51525687     -19.48775152      17.75705272      99.18053139     -31.91482645      58.33484458    -167.62307234
Na       1.86560226      11.13135361      45.97189021       4.12711523      -4.01567203     -10.42815769      65.93631361      36.61000071     -69.12678022
Na      -1.12423964      19.01796162      48.18058486     -19.11097761       7.76577809      12.18470282      -8.24403623     -23.37754070     -15.86094298
Na      13.62270938      28.20375868      46.56636392     -31.09539577     -20.23657888      49.62851677    -893.50568594    -231.77531696     479.33748810
Na      -2.04870115      25.48661859      32.42046781    -207.50783241     193.86032780    -111.53039572      11.67617976      11.50999273       5.28516403
Na       0.31551463      17.90169683      50.11714020      10.07566440      -6.56876171       3.39147966      17.69979521       6.15652492     -14.03630268
Na    -243.92630119     298.36063634     185.47273622   -1555.13306852    1708.25232735     785.32501474       4.40980578     -12.46478695      -4.31746787
Na      10.17490231       6.76638351      57.80617347      19.35367093     -20.34730633      12.59224943       0.48061998      -1.27713673      -0.18375112
Na      -2.07224034      14.42068524      50.79611080      -9.43005058      -3.75510739     -10.78070864      -0.74083954       0.62792141     -15.67354274
Na      -0.66548692      10.42081820      53.77910497      -8.87906333       3.19669071       0.84712392       3.82151929       0.38336852       1.16740356
Na       5.63982729      15.98273284      51.34825021       0.55509479     -14.67590330       9.95190828      -1.38319829      -2.52956402       4.50513327
Na      12.78398086      26.61232020      43.41305354     -41.27459242     -15.07208635     -54.50957204     -95.85650383    1284.54141572      78.59603251
Na       2.59242578      22.05813864      47.79897066      -7.83697751     -12.74327162      -5.71140630      -3.63094257      -6.77092242      -5.34464644
Na       4.88801241      22.63495676      44.31821370      -2.26499993       9.21424094     -12.94581850       1.58449061      -2.99410000       0.84956839
Na      14.09020797      22.21341959      49.04006926      -2.83206716     -14.60119332      -0.27884264      23.27543439      20.62720292     -57.84675157
Na      15.52819826      19.09752397      44.14045280      -4.24617780      -1.02771871     -10.26469867     -22.86925410      33.34699693      -3.53209514
Na       1.36039186      30.54811221      30.99477997     -50.59150626      97.88320699    -161.99922700     -67.42536799      61.82194353     -12.20385472
Na      13.21351495      24.82988466      46.80623946     -15.20912856       4.61836535     -29.85864915    -194.19403916     226.99311716     -51.16076210
Na       5.78267293      20.40535537      56.97900919      18.03074568      -8.98179151       3.08953133     -10.08798015     -16.71831239     -20.53534310
Na       2.42196226      21.82235711      50.56847390      -1.62764140       2.90779673      11.05915611      -3.41820859       3.21257503       6.26330220
Na      13.98733251      18.05853120      54.89669101      -0.91137557     -38.42635378      23.52285467       1.30053826      -0.58317046      -5.97826490
Na      17.27198681     144.29312412      13.88580004      59.33004446     868.39494231    -197.91755402       2.11839978      -5.09630540      10.17359549
Na       6.83342576      25.27208085      47.89450407      19.55072901       8.48597879      -5.48108690      76.59352320     130.74345830     -76.84932594
Na       9.17415363      15.65874183      39.84965953      14.20432822     -43.49084901     -20.23385321      -2.42373037      14.75439991     -23.85939868
Na      12.82495186      29.85061882      50.65202697       4.07071972       6.75440709     -20.95854718      16.13670120      32.52938084    -173.42662271
Na      11.55850285       7.00643864      48.99712999      12.74249181     -26.08387575       5.05269790      24.20905023      -4.61637491     -38.61650931
Na       5.46250548      17.79691194      46.78481884     -12.53540660       8.26731836     -10.49396300       1.07086539       1.44382155      -2.58717771
Na       6.19928250      35.27979611      54.69929412      -4.00205089       6.89066129      15.54547595     -15.63606447       4.15796574      -0.75264617
Na      12.14478471      54.44449101      71.33568578     -15.89702777     246.10122401      73.67342561       0.73575036      -1.31609923      -0.93596988
Na      19.20988372      10.07263211      42.10361222      15.43466858     -26.88615223       7.56726736      -2.93602532       1.86443917      -0.30756548
Na      11.83150718       8.58651872      57.42792463       6.36869061     -14.26770008       6.32653266       0.00981153       0.83377588      -0.37632609
Na      11.28164524      27.40231716      51.96834582      -5.08850825      -1.14931989     -11.16928738      -1.91599396       1.38512228     -31.30447615
Na       4.27488594      19.66666956      52.45522196     -14.70463459      26.26416441     -20.93293182      38.06460919      46.84756825      86.82382407
Na     -35.14960996      90.91558505      46.28575528    -809.36528831     429.28680335     -90.91169449      71.69212120     -29.00050080     108.49979928
Na      16.38417821      20.81147626      53.24214693      38.85396973       1.85543580      24.24549184      -3.53479073      -2.65723246       1.36687856
Na      10.75992260      22.00871949      38.04176099       9.59028644      -4.16966766      -2.38233307       2.40371196      13.32564876       8.11412359
Na       4.89972124      14.85129751      53.84825858     -48.99701572     -34.36146163      28.20523678      -0.13817607       1.19000168      -0.05223594
Na       6.78466654      19.03623693      44.58155713      -9.99721184       6.53566085       4.05220447      -1.96940117      17.27698453      -2.14815120
Na       4.92245716      26.41674518      45.72515631     -31.71823807      32.93913687       0.71720923      76.48115219     101.50707383     -17.08047002
Na       5.39086863      19.99282721      42.38331919       1.90488202      13.81449955       3.21543599      -4.99653827      12.86321325       9.10474500
Na      10.28636423      33.41375847      60.86657812      -5.00681626      14.66611266       5.71513052       2.13445844      -1.96449203      -1.12629734
Na      10.53442863      22.39490428      47.58960850      20.72463624       8.44310680      -9.79896812      27.19093324     153.28274455    -134.69816613
Na      44.75099478     -39.15058728     -10.56866194     206.91052484    -353.42024939    -402.28703967      -2.29491133      -0.51342948      -1.59717961
Na       5.87263286      17.08486556      49.98738683       1.17814384     -12.72324250      -0.00509981      -0.13873188       4.77067145      -3.24695758
Na       8.02737599      21.29141158      52.54528439       2.51287505     -15.40819238       9.66910151      -3.98504583       6.52014435      -1.87486104
Na      16.98135840      21.82872873      53.07205959      23.55777032     -60.00600678      12.41656768      12.31432451     -23.65673708       1.55438691
Na      12.52602977      26.71381824      47.43642120      53.56732563      -4.57554405     -18.05693104     837.74501007    -151.91184869      33.40795056
S       16.28540858      21.63555406      42.02218530      63.77374281      25.98690379      -0.97924628     -36.03517900      57.13713800      -1.41021356
S       -2.51937912      21.38116474      44.94145377     -52.39083675     -11.30059577     -62.62428474       1.15809099       1.48101638      15.71308204
S       12.59336634      29.91640178      42.89273828    -265.45594412    -190.25561390     213.91369511  -14642.93864797   -1830.72021829    6005.67818962
S        5.03989552      13.51232175      49.34116686     -13.47091222      13.05891193      -1.00288527       0.19798890       0.72414357       0.30453335
S        9.85301955      14.93474304      41.57554112      57.81738174      84.46752526     -28.34921663       4.70888971      -6.02208677      16.29717665
S        0.47994857      16.67350107      45.98773678     -29.58325753     -18.93295374     -15.98385293      -9.62134255       1.03683234     -11.09859641
S        5.56583506      19.19666506      41.08073846      60.99264395      34.67743869     -18.28982991      71.96497488     -23.97863754     -64.34245923
S        1.43218189      15.25458425      46.12415133       9.51127013     -47.53045044      -5.70799994       4.92883405     -11.78487199      -1.54262802
S        4.41862651      19.65695481      40.83847051     -19.54984769     -36.65636476      -9.37662192     -60.99950514      92.07300992       1.57013214
S        1.16486724      19.45180199      52.76960448      19.84016032     -12.91333638       4.61363861      -2.88552033      -0.60767906      -7.31215760
S        4.06069263      19.50142163      51.82638451     -29.66568088     -40.05489596      81.70523192     -47.56645313     -51.15085458     -86.92824882
S       19.04440211     -12.15696651      54.70365125     543.89693753    -922.24859939     -15.77593859       1.24248013       0.54806549      -0.11825310
S        1.34478838      16.32954838      48.62175926     -10.46140413       5.28015540       7.31728148       1.51607595     -14.16613346      12.76405721
S        9.02479920      21.90145952      44.11044501       4.07431989      16.66975811       3.17272138      52.92456068     173.65197332      12.91455275
S       -0.94880413      19.67146460      50.43648806     -34.92311542     -28.53786936      27.07650962     -43.55619816     -41.43717655      30.87295933
S       -2.41383274      12.41616345      52.94958403      -5.97811990      11.01292951      -0.80185448       3.78689683       1.19583743      -5.04206939
S      -34.24438184       9.83796349      62.88598959    -892.67399343    -437.70670754     522.25953143       1.67864053       0.44008174      -2.03709583
S        2.65281249      25.86307228      51.73954993       9.27544799     -18.30076933      49.52065466      38.81037939     -27.12919105     -39.98186703
S        0.66094146      34.95048605      39.73857134     -78.52883905     261.35535557    -138.15628864       1.44433103      -3.32876268       2.91296320
S        4.70281972      23.13540696      48.54830741      12.37361943     -22.26058654      41.74640353     -21.25398260      14.59248554     -20.58210821
S        2.58009552      20.64525096      39.14293809      -5.02806435     -67.54197562     -82.62198642       6.32331025      -5.36168428      10.75269656
S       11.06428774      28.49684272      44.87839818     194.47135007      10.38111610    -359.54576086   -2015.18517790   -2508.32684576  -12228.76090163
S      -18.84795132      21.61046983      33.17637024    -492.91161172    -114.10584570    -263.45657411      -8.05129888     -11.95934187      -7.37521352
S       -0.06559582      20.26502197      51.12562546     -29.46011909    -125.37774901      64.85819778      43.01003841       8.81188416      30.38964153
S        2.98222023      23.31874084      49.19533468      23.63083679      -5.50876677      11.29646928      -7.27030420      19.85517489      -8.67354636
S        2.00873638      29.26455297      54.88507724     -10.30592561      12.84164070       7.58353345     -34.84072484       8.54965442      19.91998887
S        6.26588734      29.39470123      54.21371075      11.73395279      10.14092487       7.61816149       9.11499230      -5.03457615     -12.25465723
S        7.32258787      24.31070249      54.02605911      30.36369644      12.05333339      10.54746607       6.20520934      -0.53054862       8.59537337
S       -3.87231527      29.93754549      41.87065149    -132.69875952     131.49437900    -203.18535339      -8.09739968     -46.19023873      17.66925044
S        1.35332374      25.91068331      60.40017559      26.88163379       4.75544133      49.91522930      25.25273370     -24.99300460      10.64122589
S        3.61854675      27.31929486      51.32804264       0.40102349      36.66171306       3.90187320     -24.42825759      32.51366513     -78.94045395
S        2.68632149      22.09686669      57.12815928      -3.90761363       3.53302051      23.58161556       6.15231663       1.33269589      -0.37207880
S       10.65230187      16.02229157      46.29648182       5.52238755       6.37392687       8.67227224       3.19887721      -1.08494109       0.92836836
S        8.65935517      17.95840599      46.11078561      26.42357878      -3.78174597       7.34182113       8.29014115      -8.79592517      -3.66124475
S       13.43197335      22.84105506      46.08458079      20.51352916       5.99640624      14.83214244      67.13271710     -18.96891177      32.13198220
S       14.11418081       3.32652271      41.14300106      58.23062428    -190.50258799       0.33583076    -666.28998405    -387.93130326    -606.92700492
S        9.03190112      15.74047851      45.29472126    -115.57332136     107.91239484      61.76499980      -5.33660842       1.65193610       0.07175389
S       10.66501424      20.23461085      40.09926410      -9.95915715       5.33762802     -60.27840403       3.82098083       4.81940509     -21.80425440
S        9.37897531      16.68785436      41.27439385     -17.33466404      -4.27233847      18.38326520      -3.80513119      12.70752895       4.20126488
S       16.65065976      12.45262086      57.73383237      57.84113804     -14.81100742      77.62108409       1.18919208      -1.80667990      -1.32480358
S        7.74566829       5.46612904      35.25193054      61.43210764    -134.37499760     -89.84302910       2.19122202      -5.52537517       4.84591177
S        7.52654000      30.86248249      35.88926475    -377.75006307    1630.61984259    -425.87629404       6.20197427     -24.81011331      30.43090775
S       26.44842744     -41.23413730     545.45203648     117.95218709    -467.15999449    4127.09546403     -39.95291849       7.96008580     -29.61161309
S     -293.39935838     -48.76949137    -135.26375609   -2587.56050745    -549.53213285   -1604.87768685      -1.41110558       0.78439923       1.92826849
S      -15.60414585    -118.45668187    -139.49490749    -256.09713175   -1148.29403158   -1613.63723223      22.08270477      -8.99563514     -13.83718690
S      476.87991111      84.66725442     149.00738179    3938.43233372     700.54925229     828.38104988     -81.90675673     -37.86532670       6.47916300
S      107.44374325     -13.74557966      83.04508635     833.41882511    -267.89229107     260.01408349     -27.90662940       8.04521229      -8.13460658
S     -339.77265359    -173.52857760     333.09843384   -2917.29788244   -1620.40150534    2401.02820709      -4.22389650      -8.29295400       0.60492677
S       10.51877023      24.91118876      43.06934752      32.26495678     -47.08198112     -34.19395097     -89.49283648    -678.90445493    -237.11191964
S        9.85491952      26.71569383      49.48621882     -32.48510848     -64.94295375      45.49351391    -239.85369769    -250.03947771     405.56167403
S       12.63143223      28.67425154      44.24491702    -402.28517770     204.04238651     155.06873859  -19892.79442925    8040.89321646    6374.07671593
S       15.33693798      21.94407120      51.70589393      22.56572478     -18.02997613      10.92745933      -7.37336454      -7.05160460       4.58725553
S       12.44088184      23.86575276      44.32272925      37.98274109     -26.57382513     -21.38727602     357.35018322    -336.25951103    -160.19771410
S       12.02250159      27.71780943      46.30611304     -38.02711380     166.02386179    -100.75874231    1591.44870552    -550.17164265    1680.61997456
S       10.97807910      29.42892492      45.06896416    -146.61984086     291.76026075    -172.05002666   -3294.91290684    7302.12807306  -11608.65979493
S        9.12978091      24.67606860      48.89368579      24.82826231     -12.11268229      -0.24182607     -40.08069797     -14.74342298      19.57516903
S       10.73747261      25.58346959      49.72325442       7.48238574      10.65144689      -7.72942263      38.04875379    -131.08858016     194.23222298
S        4.97587202      27.80945919      52.38563974     -62.03366028      28.28572449      -0.88515480    -188.38255038     111.38470807      58.68838235
S       11.59938121      28.86486263      45.82451801      35.45930947      67.48638664     264.79964756    1318.80518687     770.60023332   16853.70120948
S        8.73089728      25.86001425      57.18600594      43.59430306     -12.72375086     -55.06552448      -2.23251838      -4.37270629      -1.61692962
S       18.17627208      25.09494133      48.72494375      49.84304228      24.88735307     -34.04117279      -9.03477435      34.79386529     -31.95403253
S        1.81379163      26.73193833      52.41739122       4.12812170      30.26717250     -58.38172613     -28.15574705      12.24406351    -100.05788010
S        9.72510058      25.62875415      51.61423920      26.64112341     -39.81353464      -2.12970400      -3.80676940      18.27371816     -20.78410047
S        5.48398198      24.97103576      57.06137081     -18.01766160      13.10540612      36.83915868      29.43306893     -86.75779980     190.51642505
Sb       2.90413194      13.99031655      55.06908750      69.96733385      70.05557545      -7.87026305      -7.34469222      -0.15459089      -5.22477670
Sb      -2.45611275      16.42963301      40.02419817     -57.56272800    -121.06140285    -262.24319847   -1243.00510395      10.32508120   -1227.52930160
Sb      -1.93305085      27.36667011      46.43603080      69.69964563     -69.60372548     -95.53939724      74.43467262     -74.98097263     -60.52522164
Sb       1.05020517      17.75210647      47.41222923     -22.33630708     -26.33694211     -87.04827142      -2.90028280      24.88343923       0.78180091
Sb       0.96170146      27.08771737      45.03536572      99.87174191     301.03923783     354.03680776     -20.37376056       2.09053393      -0.19827797
Sb      -0.59373949      29.05654186      48.45172307    -398.37319275     239.84471306     534.19301914      21.58153907      -5.07649841      61.07943317
Sb       0.65860661      24.84754415      50.75811192      37.26423261     117.44780329      75.29417762     104.88205914      93.42397573      65.71750672
Sb      13.55373282      94.97558282      11.50258679       6.05935239     147.24141839     -85.50434603      -3.99264814      -2.34466423       1.22564248
Sb       7.98567220      33.08522231      39.30239558     -10.09427967     140.55585062     -35.76871205      83.97614323      35.31162160      76.84731329
Sb      14.22893071       9.68296585      40.32344059     603.25455884   -1163.66833189      84.90984333       0.75531681      -0.21926978       6.96668016
Sb       5.20240291      20.96444893      51.20045780      30.68975367      46.48976244     -22.20433159       3.49581427      17.17002073      14.42087359
Sb      20.27401945     -65.57478477       7.69018180     -11.84603917   -2643.31013874   -1311.93358726    -123.14734189    -319.55764500    -309.90176741
Sb       8.42392225      22.73085125      39.94391590      64.20905915      41.02538139     -57.00920646      33.62605579      54.64431144      67.51828552
Sb      10.55929699      25.46320391      45.23820076     126.98659701     347.79553670      29.94564058    2129.41006576    4263.97291665    -365.19934064
Sb       6.17325550      22.32329471      48.87271412      -3.80488411       7.08893297     -14.04531594      37.09326888     -18.12704758       4.29412729
Sb       9.98280530      23.98107984      52.45057573     -30.27187808     -26.29227404       4.87903795       1.39149281      -3.33543747     -11.05127487
Na     213.71344268     225.30304119     -11.72843742    1185.95562509    1238.82495414    -405.79657060       1.19802407      -5.43004926      -3.62020256
Na       2.47150301      25.97306411      65.59517695      10.48839294       2.17064686       2.74335794       3.36573664      -3.35715231       1.90338052
Na      26.27435849      20.17049289      51.39483726      99.68831277     -28.60850682     -11.18267380      -8.76115536       4.77134362       1.99352692
Na      -0.64895638      16.76341720      61.17053460      -0.55533581     -13.54324701      -1.80796933       2.33380710       1.78362731      -1.80696995
Na       5.41808537      33.62759548      50.25422784     -37.50089987      27.52928324     -16.19464678      -7.08319511       4.89519349      -1.62574375
Na      -2.56914491      23.45505055      58.80238353     -27.29046613     -11.91077147      -6.57464217      -2.79712737      -0.72251498      -0.13544152
Na       3.58502657      16.05826708      65.54739614      -4.56649459       6.97114016      -0.47998546     -31.07207105     -24.87143139     -23.55657864
Na      10.23316584       2.55640513      91.77864938     -21.30461162     -19.43987206      25.53458536       0.11019044       0.03775268      -0.17904915
Na       2.51147387      10.93145227      92.35077346      -8.30123461      -3.08382429      12.16282537       2.21670992       3.79935763      -0.43578598
Na      -0.30606491      23.66972045      65.27230942       2.22889968       0.22136062      -2.43008266      49.17902298     -56.10505309      14.63205509
Na      -0.36248657      12.73953580      65.72855685      37.98833029      25.85096077     -54.13846306      23.01576744      -6.55319335       3.74791826
Na       9.42822328      15.76898214      62.32071514       3.26954339      19.59959314     -21.55495587     -22.89994888      15.87153269      24.47452534
Na      24.15443103       9.71387109      71.10311595      47.08293445     -70.59923593      92.52277013      -9.26288955       2.43278913      -2.21835917
Na       7.50300993      22.95279990      73.38760956       4.42885903       7.17880767       0.70461399       0.19508767      -1.36961452      -1.32956246
Na      -0.70992036      20.85164775      56.48437924       0.90852604      -7.92975651      -4.78732765       0.53293490      -9.28331234       4.43157199
Na       8.14380485      25.80459973      60.24935830     -14.14911263      11.49675224      -9.67529571      -9.41078482       2.30157902     -11.70819932
Na      11.88887118      25.36675785      62.90487557     -16.41366636       1.93803420       6.15796226     -19.76424414       8.48430307      12.06483879
Na       3.24065397      29.94937292      51.86259809      -1.49674296      18.77089940     -10.44703630       0.69486130      -0.09676262       2.53167479
Na      16.09916013      23.14381024      53.66698133      -0.82748540     -17.76619976     -44.61484411      20.01157656      21.68747236      -6.84803007
Na     -23.82039027      34.06369284      69.42826710       3.80326005      29.67002502      12.25275382       7.11502970      15.81352021      -1.96533115
Na       4.60789421      23.85018682      76.47384836      -5.86813794      -1.76901895       8.69677120      -1.58852174       1.34891335      -1.70074339
Na      10.92323638      23.36143123      73.20189595     -31.97115437      27.89922840      10.02926724     -38.64211070      17.62042353      16.96777009
Na      15.56038028      25.12377750      66.25872788       8.59844129       4.72212736      -5.52406799      -1.94946827       1.37895354      -9.91262823
Na       3.59525340      21.78437382      61.78299738     -14.00201989     -18.18096334      -1.79961292      -3.55753200       1.60138080       0.91977936
Na       6.12936466      16.62808908      60.39081012       4.40738980       8.43069208      10.59478847      -6.43832403      16.73606634     -23.77205163
Na      13.54996662      26.89774976      73.05101261      -1.20979017      14.97062097      47.20252519       2.86739480     -13.94587176      -0.29581112
Na       0.54775412       2.30160090      64.93604547     -17.67124464      42.47130396      20.96587942      37.59775957      68.99339887       0.78094603
Na       8.89682938      18.17255785      60.64002817      -4.46707537      -5.91359373      -7.91407835       0.54843943      -0.65385252       1.10120480
Na       5.84741769      26.11981888      63.86591002      -7.47045316       6.97490734      -0.84322915     -10.21613420      12.20398568     -15.41191779
Na       5.33216013      16.63525683      79.53247619     -11.01765853      -5.30760911      12.52049032      -1.86760204      -0.29841621       1.67134700
Na      -0.83874111      18.96399173      78.54813998      -9.14534633       4.77571783      12.68792775      -2.65977832      -0.96813331      -1.46780682
Na      29.44993325      13.48033939      95.71046775       6.76487151      -3.42941557      -0.01447543      -1.41503566      -1.26673506      -0.00407085
Na       6.97735973      24.95371570      70.33552852       5.31915751      -7.63066769       7.09912227      -5.04752127      -2.49683390       0.53055185
Na      11.83547254      18.70227867      76.47167648      -0.35998989       5.93922061      -1.10985808      -0.40902957      -1.03891942       0.65684837
Na       4.63127026      22.15072126      66.31801704     -43.63809733      24.19056789     -12.83614129       2.29844228      18.57914203      15.75123717
Na      10.22204598      11.16568300      75.09725376     -11.30654128      -4.85699853      14.68026385       3.36837446      -0.24973421       0.57977320
Na       7.61390251      35.52513623      56.43146077      -7.12010177      27.47018674       7.89617237      -0.53584985       5.80927189      13.64538738
Na       7.89386034      18.25265204      66.34616424       5.84938099      -5.23187996      -4.30554498      31.35936074      -3.49832912      18.78192945
Na      14.82747769      18.87069145      56.32489629      25.45699394      -6.25287422     -34.31886995       2.50723866       2.51593423       2.82731670
Na       5.60348003      21.93813301      60.92733742      11.86326780     -14.60039483       2.14779473       2.18849136       4.29489397      -4.18203302
Na       0.83099422      28.23592476      62.87080523      -7.75613187      12.37710550      -1.18363830      -8.82177843       4.26468100      -4.24769670
Na      11.93921098      24.86058022      53.08284343       7.66059333      -8.12011963      -7.12806225       2.60376629       6.15112366      -8.83806728
Na      12.34565946      28.18532537      63.79994164       5.64143321      10.29215754      -2.99179095      -2.89777038       2.99088884      -1.61671699
Na      15.58579217     -18.85363113      72.20292148       5.49280280     -30.75715865     -14.71892051      -0.11161602      -4.11817285       1.48992479
Na      17.96731664      -5.04013397      74.99959391      14.15672901     -20.87514332       1.55886219      -3.25235009       5.49235721      -3.08787544
Na       2.15043534      26.77840975      83.97325948       4.06992571       2.73260254       4.52930465       0.69837123       0.15421726      -0.46797168
Na       7.76177361      32.97789258      63.29485074      34.82201339      64.87734590       5.62891940      -0.46701070       0.54674037       0.92055991
Na      15.59348512      26.76658770      66.94658515      48.55517481     -15.54161767      -2.58898171      -7.59097795       0.83549683      -9.88494314
S       36.65505256       2.09914753      98.66757839     185.03740436      35.26744893     200.08507398       0.25808172       0.45803869       0.48049381
S        5.91844247      18.57150877      66.01351440      -5.11298289      -4.65062196      13.03437153     -73.50440817       3.50284834      63.77793366
S        5.19984778      20.41336196      62.20148303      25.20740128      -3.24104286      33.48730588       1.95214901      -3.63684494       5.80973659
S        4.29688117      20.93025184      64.18835516       4.62918982      32.45367729      21.41224991      -0.48085217      -6.72402011     -11.24789192
S        3.42141297      20.28091132      56.55481972      23.91290805      14.27069367     -11.10784206      -0.93516166       1.97434631      -1.79841395
S        9.67259854      18.67759361      57.56962806      22.81878285      -1.15969041      -7.39209554      36.96572770     -32.38921599     -33.82227623
S       -3.63413028      13.10986394      49.09905510      15.80817402     -26.10076277     -19.34672507      31.14959712     144.86751665      90.79292937
S       -9.32744260      18.66722200      67.02980036      10.72930796      18.03529284       5.44317737      18.64712648     -12.74472950       1.10694351
S        4.77309971      17.93001479      67.59608804       4.72840853      13.39717509       7.75743982      -4.24559815       3.61911835      10.43029894
S      -17.90906079      23.04353297      41.84393481      -1.51349231      22.64187344       2.04730609      94.38894266      63.91361160     -80.83808752
S        2.18633550      23.62391995      67.50269891      10.64280182     -13.51944329       9.83512456      -0.43856052       1.17132845      -0.41166356
S       -2.50560424      23.78921662      77.50692857       4.82290168       5.99463665      -1.70368958       1.73409979       0.18879321      -0.43136491
S       -0.52979306      18.19909261      64.30738646      -8.16883476      -3.36362861     -14.66728406      23.69661316      13.13302301      -7.57052084
S       42.50377173      46.05831310      57.90459811      21.12141101      59.31600374     -44.54995837      -0.74468126      -1.74867957       1.61921542
S      -18.32628944      34.23267719      65.99330367      12.49771699       3.30653373     -11.10568835       7.30552935      -3.45218944      -8.37989482
S        0.31143822      15.39146285      69.17421236      17.20166445      -3.35084508      13.86540392      -1.23255817       0.38954016       0.67389013
S       -1.66558063      14.56985144      60.63118648      -9.40571581     -22.26968384       6.06136929       7.11282582     -12.88443225     -11.69727719
S        7.61835500      16.50533408      67.45947917       4.04551337     -39.63243963       3.97730757      -5.39246529      -2.97357493       0.93826208
S        8.00734597      22.36002168      56.92760949       6.53419392     -19.51441882      13.40059959      28.14229622       4.36569675      83.67914643
S        5.50927128      25.11126686      62.01989520      30.14868980      41.87734413      52.33732067      -0.56959058      -2.35173292      -3.18482815
S        3.32842959      24.87331244      62.47954058     -25.77327789     -45.99147447      19.22147762      -0.37798367       1.40540513      -0.72648797
S        8.23295717      22.32599970      61.93726796      42.57744924     -12.86555935     -59.25958995      76.50985041     107.39270739    -108.13006616
S        8.32838695      31.17240166      58.22902361      27.26061823      11.31734483       2.07397316       0.20343511       0.33271412       0.62302558
S        3.09521189      22.95535489      64.96784066      12.15251534      -8.06010326      16.64614977      -8.49645045       7.79830194      -2.47159968
S        0.54792440      22.58788735      56.09773604       4.74011873      14.66381394      38.12923449      67.18683097      27.91414417       5.82429000
S       19.49008891      54.74958613      46.49595968       6.65729857     -14.03663359       1.53589251     -34.24798040     -19.82597338      18.49536119
S        5.16834203      23.61431053      69.47881015     -40.84452284       2.34616909      -8.28813854    -176.84922889      16.35590015     -88.45727559
S        2.43506579      28.51846441      81.07550548     -45.68013858      10.31559124       8.73288587      -0.06418749      -0.83376186       0.44318426
S        2.10561512      28.01228366     126.42959415       3.59096222       1.43424938      21.69719381       1.27520167       4.96515693      -0.89366237
S       12.34839568      28.59801172      79.77442042      -5.99568266      -6.13303248       4.89212834       0.48322135       0.09407234       0.15903168
S     -114.15336535     106.13067774      17.30082598     -79.74323438      30.78564477      31.80947984      -0.91047503       0.49262577      -0.02212668
S       -8.65334625      38.02848654     102.92756389      -9.81126104       5.54007090       2.88477425       2.95614377      -1.94400923      -0.72657756
S        2.61310723      11.14300114      55.59918496     -63.89454107       0.85416781       7.69968120     -25.80709474     497.67805784      99.55197367
S       12.64768907      28.31549283      45.71609700     160.79485854     152.62700115     -73.26677839    8650.51265024     117.39842161     587.96459598
S      142.59689812     -24.44235115     179.57607167    1048.58889232    -294.75977383    1052.00841873       1.51471902       6.46256231      -1.45934878
S       15.02118220      16.07848274      69.02884669      -5.96879333      18.72456394      56.64496406      -1.03587054      -0.65980742       0.57278756
S      -64.02381639     378.68817295     -43.54864666    -662.55451303    3037.65766455    -805.64409554       2.85656748      -0.88919679      -0.12339932
S       13.72701909      16.08082384      60.25536847      12.72524754     -50.42327215      10.31755499       0.06001134       1.25645257      -2.57448199
S      -15.18695388      20.20254821      70.20741969    -150.56727710      48.88349555     146.74126132       7.06287793     -11.86626178       2.42225640
S      -20.36371130      -7.68070970      86.44204460    -301.00028623    -173.73884558     239.16625356      42.09873198      -9.95499016     -13.89451749
S       36.83065000      -5.17699196      65.30817219     315.20574419    -237.88924293     215.21993343      -2.10188917       0.30887932       4.65660564
S       70.46010592     -77.56640166      91.31330369     100.19548917     -90.07124816      33.33999892      15.34588631       7.19101957      16.38456953
S        3.54972125    -124.41057360     222.49427394     -54.46074101   -1150.61378613    1305.18257115     -20.81516119      11.12869053     -11.59922057
S       43.94116174      13.60310361      81.22988134      34.76303020      -2.11285030      -8.54224318      -1.12750836      -1.13640063      -0.26066194
S       20.11102815      21.13779460      79.58619721       7.78478642      -2.62379171       3.49183679      -2.05722887       1.01567236      -1.46748936
S       10.41858796      -3.51988880      65.17611539      -8.47319669       4.03680170       0.58155025       1.56977634       0.20942949       0.40543557
S      -17.99018579       2.05156962      83.52785746       6.36346594      -5.96265395       3.03431279      14.43287365      -0.33687054      -4.52058885
S       40.31612286     -17.73641136      71.74994595     461.37607843    -137.08075865     368.23899802       0.38980158      -0.36474684       0.68497429
S        4.94829060      22.75379647      57.23365777     -23.94953164      -7.35813800      31.57916816      -6.40126751     -10.50631287     -12.77126496
S       14.98954366      33.02720644      62.60123312     110.60569231      43.67477851     -18.35534110      -0.08683909      -0.20893886       1.85601587
S        8.07248688      34.85246331      55.28472463    -135.15692673      56.11059615      60.43113729      59.09989826      44.12044785      13.70463555
S       13.03980102      19.15247929      61.12467602     -14.51025577      -2.88924952     -28.39394860      -0.42831848      -0.42679339      -0.10209251
S        6.02268852      20.91434757      58.24433304     -29.47533267     -22.37902571      15.31290507       2.73121505       7.20341431      28.12109471
S        2.45193199      14.31449751      59.85862372    -308.66699556    -504.51939108     891.53598465  -12400.81290246  -19034.82021810   35923.48809187
S        5.89418369      26.70415877      57.03238254      10.82460320       4.91915960      -0.98759995       5.72089092       8.64037133       2.14209231
S       11.46884701      21.97520134      62.31892145       3.70866842      -0.07637663      -4.24834939      36.72063831      -3.27635730     -43.34443914
S        6.58111903      25.44879163      65.10736535      -4.80808328      11.67249186      45.46073169      10.53256774     -18.65367713      11.29659583
S       11.53192983      31.56851613      72.50404183      12.65743570      -7.40517456       1.92706665       0.55032259      -0.08781164       0.11084686
S        1.72087664      27.70389757      53.71504022       3.71230806    -111.54465779      43.03800737     103.66952775     -66.14564423    -100.60246246
S       11.97274592      22.92066546      72.75573179       6.16179780      50.14603523     -23.18679545      39.52711007     -17.61024495     -15.21280751
S        5.31549014      17.82508656      77.31391540       4.48411837     -11.60460831       6.85317849      -3.12485090       3.69361147      -0.53993602
S       12.66424221      25.20992695      74.23292081      -1.12881549      -8.86809471       4.12868301      -2.04061235      -1.13977199       1.19250626
S        6.16621341      23.55100601      67.64590933     -26.60491096       1.09690886     -13.06449992      -0.32159131       1.20099762      -3.03113237
S        6.65628826      24.88149115      71.98325329       0.57055829       1.51489545      22.48113146      -0.38333750      -0.59429592       2.30218032
Sb       5.11127113      16.71249077      73.23685142      25.98054269      33.78409930       2.86442420      -1.84963219      -7.66971733      -4.48571878
Sb       6.49171683      16.02843659      61.49691288      91.38495970     -32.74941547     -31.06290326      10.73823649     -11.21220200      23.89632377
Sb       2.64979371      29.95083362      61.40526165     -24.21099898      39.48891754      -3.91175487      -1.40241719       3.51044217       1.59543412
Sb       0.67343904      17.09571836      65.97506490      31.88928206     -21.48977106      57.88001242       2.57441155      -2.57214035       2.97279749
Sb      -0.85348119      24.36218607      57.14263227      39.88533013      25.60059549      26.36831111       3.42684569       4.20349276      -7.29360341
Sb       9.57517308      25.60067762      62.89633174      33.00865500     -13.81157006      10.58545003       1.04964488      -7.03843008      73.30469596
Sb      -2.66989310      23.27270497      63.58355060     -15.22497441      26.25621717       2.44356911      -1.83532184       0.92050703       5.15779027
Sb     -40.79660823      29.29832768      64.92885739     -60.81676254      -2.72135404      -1.31283822      -1.10738431      -1.13770872       1.35443196
Sb       4.05310741      24.12595532      52.22293425     -56.11655393      58.98245208     -81.94403905     -40.77587521     100.43701462     -26.29451078
Sb      10.78083196      16.10505264      58.35928505      29.79373879     -77.50556139      -0.03633730       0.45846320      -0.27696538      -0.02384982
Sb       4.56845202      10.90318758      60.91042157      -6.08292034     -26.50121286     -31.93624659      -0.32755982      -0.27511057      -0.80160732
Sb      12.35994102      20.53650864      53.27200072     -51.95309095     -60.33525586      22.87318761       6.99551889      66.79152727      21.38886625
Sb       9.90035579      21.17749077      61.06237817      14.29207455      20.01010980      90.22040761      -0.96458160      -2.88822299      -6.75747031
Sb      10.67285817      28.35530307      58.77842127     -45.18830927      45.65192532     -44.09869136     -20.96100504      15.06059946     -27.66264278
Sb       7.61233239      21.50613511      62.79154230     -46.06627346     -87.62551113      25.52460906     -74.74821351    -101.28767237     108.15330543
Sb      27.18612819      35.20956121      63.71981862     -57.78947490      29.76413845      11.81936403    -154.37555936      63.10613660      18.56794843
Na      28.73961677       3.16821741      26.93972547      -0.81973610       0.57014761       1.49023957      -0.49044927       0.21897985       0.88231622
Na      17.76854272      14.43343095      29.71771030      -2.81599463       1.06851061      -6.92531413     -68.81077660      13.91611830      42.20333501
Na      18.60831666      -0.11171148      29.43105282       4.12234220      -2.37910111       0.81512351      -0.05647638      -0.37858848       0.41042103
Na      13.31392106       3.07609247      28.81078517     -10.92954083      -4.85162053       1.53308089      11.03251241      -1.14987413      -2.54942994
Na      28.32211607       7.47177444      30.51529048      15.41492135    -118.11216127     -59.02841873       6.27261813      -1.01103043      -4.01725148
Na      18.52239805       4.13850497      27.41428848       8.24927015       4.17764123      -4.23265411       4.03191802      -1.37832014      -2.37918056
Na      17.75160881       3.53943989      34.82566030       1.35615992       3.31969169       5.72829041       3.43027353       0.30959418      -3.16014139
Na      18.31583236       1.39247190      41.53919364      37.57514291     -66.32445887      29.11742234     -82.91149313    -117.11745449     171.79764660
Na      18.35995445       0.56207122      37.07443357       7.06992153       2.55081718       9.42202344      -1.51505211       1.97386585     -16.89144850
Na      15.72030437       3.78191039      39.89940934       0.30984873     -28.63981023      14.77020618     -92.68384202     -78.82465562      16.39470591
Na      13.54070278       0.04309886      40.20471010      -8.02501845       6.10175453     -16.15016885    -168.32159587    -379.70378606     142.18427611
Na      20.00426955       5.32540491      32.99950119       2.73171550       1.75910701       4.39090374       1.81500007      -1.94836872       5.93021620
Na      26.41688942      10.89632005      25.82060673      -7.21383391       8.05657502      -6.65349912      -0.18682386       0.62788106      -0.46941369
Na      16.81446657       8.63821799      35.91876871     -91.85231671      62.78131501      37.12976965       2.89996710      15.34866794     -12.84047630
Na      17.85207428       8.21730617      29.88560465       1.06051725       3.78542406      -2.58114855       0.64233264      -0.44135028      -0.33433271
Na      29.42847868      11.30289330      34.37974414      35.07488722       7.72899102      48.53166073      13.92465177      -8.37134925       2.31406677
Na      27.31652485       7.74539512      30.94047942      -0.00387384      16.32647949      14.22311768     -10.00240784       2.95164303       4.27946102
Na      16.44929460      11.43816541      26.71735853     -14.40093418      10.15944613      -9.46628506       0.35502454       2.35016847       0.35249757
Na      29.54264871       6.16380314      29.84571300      21.92290685    -138.68390013    -137.40134693      -4.98270475      -1.38560472      -8.72344078
Na      17.57553639       5.31764963      39.89368452     -61.39026206     -32.99704680     -33.36644899     -65.59992598     -95.56104677      64.49313598
Na      19.12433439       8.73019682      40.45700316      20.77097249     -23.34848001      61.66889434       8.31604094     -33.29115337      20.17687203
Na      28.51818858       6.69236302      37.49908700      -0.71236056     -70.33808474     -29.27501404      -0.72470669      -2.78847330      -1.45925858
Na      28.09257119       6.53955833      33.21543666     -20.83185947       9.70662257     -45.94081419      -4.60918524      -2.83325082      -1.12694208
Na      19.28449294      12.07097848      36.54292871      26.44937460      10.63133110       5.29841986       7.42251643       7.65752104       0.73897084
Na      21.99799236       3.50127375      27.64319994       0.66793722       0.89292207      -1.38032171       0.09501021      -0.39917223       0.74764685
Na       2.46394377      27.50299498       5.92711783    -675.48718888     395.41025307    -869.38266388       0.16006219       0.46770704      -0.27666053
Na      27.59925626      -1.10801789      28.98942615       0.42764064      -3.02968461       2.31849020       0.30018429      -0.54788265       2.55305891
Na      21.57487966       2.74431422      30.32495169       0.83672236      -3.84861048      -0.01848669       2.07156397       0.10341268       2.23348417
Na      22.31571458      12.11864992      32.55362389      25.40302796      -7.00008249      15.36813368      -0.32155196       2.11488426      -2.19426060
Na      22.15098039       6.46195989      44.45878203     -44.64416882      47.41180108     132.24113231    -341.54976731    -474.97709633    -147.97095805
Na      23.90503164       4.42821237      36.14251708      15.63364994      -3.89750900       4.46025359       0.47656350     -10.37396440      -3.80065123
Na      25.08008940       5.10741972      44.39871534     -63.56735455      27.80844282      28.81947051      58.42134889      12.94775202       5.52887086
Na       9.75905362      19.19285669      69.53861468    -457.72682815     165.27906471     908.81557582      -1.59839963       1.10670085       0.44113373
Na      21.73709629       3.99738015      38.26221529       4.66733100      -1.74027383      -3.64711817       3.40796158      -2.90227194      22.36751644
Na      23.79818899      13.59687488      40.46659477      41.14684737      46.51588716      79.67651247     -24.21473529     -14.09583616     -13.62078971
Na      24.53387192       3.28405975      34.26690968     -13.79942770      13.96135551       1.84091385       0.68082100      -0.41287678       2.06501644
Na      21.57362646      11.61410337      26.93534050       5.31200171     -15.93514124     -38.01302065     118.36965129     -66.19510484     -51.38050852
Na      27.36641714       9.49260352      36.53479657      28.25737920      64.16120283      59.61495851      -9.96925601      -2.97391832     -15.67626092
Na      24.07628741       8.27261602      28.12800485      -1.64807839       8.12999759       4.31154223      -1.20111289       2.76699449      -0.78139461
Na      21.69959073      12.78960707      29.84356888       7.95135956      -6.32095207       3.97231672       0.70031868       0.18699611      -3.07967157
Na      22.18770586       7.83613611      31.09811053       6.04639614       7.16128883       8.76133187      -0.61857528      -0.01844422      -0.42490397
Na      24.24748036      10.64280977      26.50148378      -0.61119782      -2.63474302     -11.62689925      -6.72844675     -14.33349722     -20.32931660
Na      26.17647464       9.90634603      36.41103859      64.59708423     -19.44194543      53.96155431    -248.05686445     -47.12365291     -30.10232391
Na      26.89516527       8.08124281      40.80862996     -16.48947637       3.60356397      -6.51381422     -38.64307130     -13.74964271     -16.29098651
Na      26.65434447      10.02763565      36.46283711      21.05863446      89.75297566     -13.47144585     242.97180974      70.05983601      44.89401461
Na      21.92305136      10.16626841      39.39274041      21.81740282       1.73054117      18.39634240       4.66755082      -9.54075562       3.32049022
Na      21.21465723       7.35705767      41.36744530      -0.79448597      20.46181686      71.67346896       8.89320668      28.00299699     -29.44855492
Na      26.17236250      10.24067220      37.32760956      25.67724276      17.22110016     105.40876597      -8.56782533      -9.99449776      14.35550785
S       80.52388177     -64.06475526      35.14965786    2294.17002521   -2407.73086138     298.68416714    -343.93168682      -5.08236827     -30.57974124
S       16.70058188       3.54908214      27.80825811      -0.34765531      -5.20214843     -21.73473483      -7.14842491      -2.72207624       0.93245360
S       20.04585962       4.83965703      25.95899491      -4.18497817       4.61772538       2.56687246      -1.18813978       0.33651699       0.38549601
S       20.94098205       1.92113173      32.76831807      -3.44449052      -7.94367750      -8.38130757      -1.78725154      -2.02453176      -9.02659027
S       20.34958059       1.76803381      28.77102079       2.17288498      -2.48814011      -2.04184793      -1.88845022      -0.07295038      -1.90388260
S       20.70944180       4.98853774      30.19309361      10.26260409      -1.51681085       4.79779435       0.10211520       3.10088496       0.48427188
S       15.40051839       7.03808427      30.00866340      -7.56511373      10.96339441      -5.59173493       1.18886718      -1.53411465      -3.69301842
S       18.96896513       1.66494333      31.89504039      -4.73101859      -3.49575903      -2.92290450      -2.07538466      -1.79914831       3.15698646
S       13.02710324       7.82855153      40.95147586     -13.30695592     205.70226875      86.13795112      52.12758153      93.14916253      22.10170614
S       18.79726772       1.92090242      38.57949795      20.28955926    -123.20406131     -81.06624433     173.01379422    -248.06861351    -135.32389501
S       20.05516658       5.28410709      36.11208102       8.81129490      -4.79514265      -7.51861173      31.44884805      64.83406669     -14.21177379
S       20.23024957       0.87261248      40.70931704      27.49404591     -27.74143305     -27.91994854     -73.69048886      60.16458341    -130.52523288
S       18.69103814       2.78545945      36.46665526     -25.41118657      17.06817217       1.12154258      19.58221900      -2.54730775      38.13879341
S       19.01827489       3.20185162      38.38462373       0.96568223     -51.77579115     -75.85680557     347.27051896     144.35354670    -364.57090613
S       17.04922658       7.32730600      36.82443533      18.13051129      35.91685410    -105.79591153       7.40345526      -7.24075057       0.48886718
S       15.81625871       0.72232710      38.08359388      17.40587003     -24.41207186     -36.82861454     150.41525011    -109.14691861    -317.75258562
S       16.59874723       9.04038619      26.75057690       3.30640518       4.94009768      -6.81841892       1.44387505      -0.82513461       0.03540235
S       16.80605716      14.57994029      31.67116262      10.38293059      13.63450635      -8.54027178      19.11101853      -8.65103355       3.72510851
S       18.89472687      12.53754502      27.62863449      -1.71669847      -1.13358176       8.63631396      -4.38118174      -5.35196166       3.45517710
S       19.79375515      10.82499316      31.77734823     -68.38147193       1.74146428     -91.02134995       3.04805815      -4.15513321      21.17129140
S       18.00056830      10.45830661      28.56431848     -10.15078177       6.46619348       2.93445340      -0.44876140       1.20098158      -0.60658096
S       15.13450735       7.30094204      34.05339110     -18.79828208     -61.97020015       9.76058611      15.77648789      -8.06431054     -12.56596305
S       14.03223514      12.34174081      26.10857854     -10.84404709       4.02233821     -14.26579137      -0.52318316      -0.62977216       0.62816288
S       23.43188019       6.48145541      33.15331395      -7.96917748     -14.22487887     -20.55774475       2.09241815      -0.50170229      -2.21130866
S       17.27873660       8.69825831      37.73557329     -13.27300944      54.56242799      56.30108626       4.99757987      15.29286426      10.82923070
S       17.55162839      13.81630813      36.83207331     110.23810789      59.87241664    -150.54717345     -27.05500367     -74.83122423     -36.39113431
S       20.43781242      14.66115389      34.57378555      33.87279947      18.59488278      -6.60974881     -52.65837566      54.77205702      29.84296074
S       30.71187216      -2.53005720      55.34334764     588.19549053    -591.69244005     741.11477062      -0.91787019      17.79441095       1.78070615
S       18.24561183      13.05302167      34.60292113    -104.19915235      35.29460715     -57.78177231      -7.22681310       3.04239405       6.81992609
S       50.89618235      53.68719957      43.62801427    1078.85205090    1788.31538991     301.96561578      -4.40111145     -26.07275968       2.93708892
S       16.00565571      13.23574936      36.85267568      17.77201531      14.49599687      15.32097667      -2.51419234     -13.58097049       5.43581649
S       16.70886703       5.54318323      37.89794895      50.96464666     -88.43059665    -154.04592797      13.14637143      22.56825322     -91.98638169
S       21.18288844      -2.80381242      29.63382779      -6.73587305      -0.62483978       1.66050978       1.49289325       9.36840461      -9.61649717
S       22.71629918       4.00963083      33.16241027       8.24313797       7.68435241     -21.33817199      -2.36827636       2.77861157       0.66393164
S       24.51945420       6.26756242      29.26615898      -5.38164204      -0.97776258       1.79944777       0.89351027      -3.92246684      -1.99719194
S       27.38655513       1.22594485      31.44335336      10.13957342      -7.06978865     -38.91918747      -3.58900835      -7.89094682      19.16530288
S       25.17821115       2.42797272      29.54791634       0.22844566      -0.87155703      -3.53514833       1.54299537      -1.46504156      -2.61681987
S       25.99352941       5.10400294      31.89240393      -5.33693447     -13.52161416     -16.90017737       7.90937427       9.67922861       2.22891648
S       22.77526935       5.14305510      29.29048089      -3.02763794      -0.74626065      -0.15382786      -0.50515392      -0.75699827       0.87044694
S       22.80109789       2.07022045      32.61780377       6.17863352      -4.16316381      -2.05996778       2.45542872      -3.33130300       0.18354582
S       24.28167455       0.26428311      36.00224994       7.04844463      -1.30199955       3.38719886       1.76301767      -1.41271555      10.39636713
S       53.50011438      20.17770115      57.52301405    1681.73631448     780.19215825     694.53619472      -0.75933242       1.11033281      -3.29476967
S       13.41613103      32.77161669      40.23723702    -596.43554748     990.21971387     184.17815211    -197.47327614      -7.04605586     227.80388768
S       29.42679129       5.10029271      46.45066569      -8.60744397     102.99080444     172.21061938       5.26099939      -1.86392327       2.96608724
S       26.69900670       2.43888839      33.17167825      -3.35815818      22.55356851     -22.45371501       3.88890715      -4.76442810      -2.63844300
S      -40.49366618     312.13754513     152.17298924   -1512.96116824    5726.87463357    2062.26860644      83.90599724     -50.33337400      -4.87502776
S       27.93105706       2.80374825      37.13158710      -8.21489236     -11.97939741      16.63762208       3.14527335      -2.04463689      -2.80269742
S       24.67122852       2.45502343      38.33730187      10.88804826       6.63899477       1.63388678       4.92393492      -0.04425867       0.41818867
S       21.71172973       7.63672383      28.36728348       6.03453545      -5.74449593       6.20219459      -1.11546812       1.79295032      -1.23376325
S       19.66113256      14.03106019      26.90758729    -170.27249575      28.93210919    -236.08489624      -5.61262467      -2.75994100      10.49887533
S       25.54759827      13.42484904      26.72410881      15.69220575      -3.32267119     -14.09860581      -1.59195207      -3.53348640       1.20644734
S       38.36902392      15.38857943      35.83147749     528.41025304     214.68879834     -20.35038971     192.58218017     -37.95346273     375.65664262
S       27.33577206       9.69216743      27.78291307       9.50296539       6.36974327       2.88772183       0.57392663      -1.24279315       0.32718668
S       21.06294541      11.90777913      27.17580447    -231.31190712      26.26138485    -140.65649043    -109.75359949      61.07909905      51.00382659
S       24.26350765      11.54867352      27.69940985      53.02388890     -11.22703295     -75.64260404       0.30428020      20.00280154      23.34843524
S       24.72579587       7.53833316      30.50784459      -4.04040049       8.37814019      -3.66036402       0.65815663       3.23873283       4.82710993
S       22.36775771       2.98260951      35.32614082     -92.39917373    -225.29336527     -11.94588640      17.37672576       1.94703606       1.42634270
S       18.88675023      13.41258366      42.38375664    -154.76245708      55.01711872      51.38837078    -313.89131798      85.62778564     159.28005939
S        9.45170830      29.52299775      32.10365105    -732.97705236     719.57002122    -136.71568528       3.66977585      -4.44260795      -0.50920924
S        6.32081017      22.66175221      99.01729340    -844.58338466     401.35089434    2638.87136763       0.20447501       0.77337297       1.41701470
S       35.43798032     -10.08339344      65.03762010     334.81536981    -944.75869349    1224.76026371      48.62598189       7.93978081     -89.32047976
S       63.54596613      14.66350430       7.31421138    1559.13929364      42.78002758   -1257.44990631      -6.12323465      44.94002527      56.03161703
S        8.46635449      16.91580492       8.04065641    -749.90009005     139.02646582   -1189.25770760     -23.99207287      57.76704673     -17.84966553
S       24.21094419      10.73868948      39.17819932      59.77385177      96.05643353     -30.18343686      -0.79633373       2.68199810       3.95353030
Sb      13.45458934      -2.06839829      49.55903234     -88.51836156    -100.14174731     130.83756993     -78.61687269      50.92154205    -181.32792588
Sb      18.56251202       3.40333935      30.52581184       6.59050025      -4.10306166      -4.23161708      -1.00535505      -1.91151189       0.34075222
Sb      15.54543884      14.57047994      33.61254683      -5.47726027      -4.06597086       1.21456833      -7.00635956      -2.28762026     -15.50842014
Sb      19.22883665       5.26144647      37.93604434      55.08195243      48.82441743    -124.18250698      -2.44175294     -41.57859178      22.95292424
Sb      15.84129932       6.94312462      27.48656256      -0.21440946       7.37649907       0.10828634      -0.36721933      -2.20661278       0.49009460
Sb      19.60284753      11.18697649      30.02062383      17.84503985      -3.54077327     -24.94600674      -1.47789026       2.90379809     -17.37144145
Sb      13.54864229       7.54317207      34.85635248     -20.27148254      27.11361930      20.63950467     -42.93600480       1.16392231      14.07904997
Sb      21.21709530      11.01307239      39.15610191     334.19958070     -48.96938505     102.05074552      -9.79176351      12.14117385      -1.91841565
Sb      21.02416067      14.67013522      25.76327049      17.08554961       2.38183484     -29.81760648      26.15160805       6.06644020      -1.99062959
Sb      24.69300861       3.72124431      31.39106730      -3.33849590       4.80336532       3.20010772      -9.47689697      -5.46872941      -3.40981756
Sb      21.71267875      -0.03672736      34.99173797      -1.53083227      30.75769114      -7.32834034     -11.13495250      38.96239835       6.71049545
Sb      25.51145334       4.38290294      38.39897260      -3.91135820      19.09556574       3.64812169       3.25861578       6.16761634       0.33960980
Sb      20.75506236       7.29110346      25.20304223      11.75060392      14.19691633     -10.36548706       3.15705938       2.56687931       0.54877039
Sb      25.12108373      10.52783246      30.51259937       9.48694383     -23.29201988     -10.95220703      -0.01571678       0.30244945       0.18694845
Sb      22.14435103       6.89108084      35.69629167      15.63677344     -14.31943572     -10.10120022       7.49196388     -23.42884012     -40.98212936
Sb      31.30346815      15.66925430      33.07955199    1132.91109541     898.41157915    -858.80894807     -36.46008528       2.30801125     -38.41002809
Na      21.34265726       6.11526967      44.25360283    -211.12889961     115.16971866     -55.78855828     -70.88938235      42.51583977     -78.34112647
Na      16.71491940     -23.22869842      49.43525703     -47.76076882    -276.80633537      62.98731084     -42.52161354      -1.91013153     -17.61767437
Na      17.22283841      -1.75958815      45.94205748      14.90124466     -17.57080212     -14.80316889      12.58756538     111.76169055      -3.96791979
Na      10.40740865       4.11373209      45.60268995     -98.79599750      95.06136868     -15.09004595   -1128.85871953     729.16199359    -668.76855615
Na      28.52063932      12.50836161      47.88491201      -5.49684496     -10.36363240       0.27678272      -0.99186485       7.58569847       6.95675813
Na      18.39125502       3.94148728      44.58007926      20.59120614       2.41440769      77.30100415      -9.22330021    -108.97097054      17.39607387
Na      14.85458894       4.09371531      46.63918443     -19.46349337     -23.73440713     -26.91474467    -217.60444155    -215.41782990     194.63420039
Na      15.45662168       6.32620405      93.65721624    -105.66811584      21.27906632     528.78168645      -0.47802597      -1.29835330       1.11021347
Na      17.52120345      -0.56916102      52.13367845      13.46167048      -2.62357106      16.29508657      60.25048741     -56.99815073      43.41916315
Na      18.84922846       2.18900069      45.61524513      57.17505777     -23.51232231     -63.31732011    -146.97146349     -47.63404403    -152.91765434
Na       1.81011500       8.41744188      49.46506472    -396.52917674     299.25392065      -2.37342807       7.34268881       5.33277588       6.61688718
Na      22.82165008       1.80395371      54.00068730      22.79560311     -44.39219149      56.31226173     -15.62653932     -37.77337301      42.27963431
Na      24.87557285      15.14350603      46.63395384      -8.53065772      41.06393789       4.93460331      -0.18705107       3.10128399      -3.96541399
Na      19.33084869       8.35088550      53.00505003      13.50365879       5.57114452      32.25321396      -0.57746352       3.76128297      -0.04917648
Na      18.26624501       6.81865353      44.03126810      -0.26902766     -26.82065952      11.32575179     -71.90471340     -32.60725388     -11.69353083
Na      31.86937798       9.30220618      42.74607627      29.57460438      -8.36511166     -19.00365096       0.07968168       0.49236896      -2.94745996
Na      13.22994096      19.47481159      44.66653547    -126.31406510      88.95436760      28.39711024      -3.59038990      13.57876091       1.84423976
Na      15.96143413       9.77909218      43.48790076     -89.54273513     -10.98118026      30.83100410      -2.06033086       2.70564396     -19.40865414
Na      32.94083921       9.49691985      46.85796587      28.78855767      11.97354307       1.93150017      -8.95758642       4.01562417       9.17918612
Na      19.78536165      15.39000871      57.51652274       9.69421242      44.56287769      21.07388150      -0.86334812       0.31618158       0.09116904
Na      27.57993404      26.22308812      52.15372484      70.65278853      91.35075829     -17.43726967      -6.29325056      -3.45486986      18.33463727
Na      30.24782947       5.25276365      59.23510513     -10.28686800     -12.44673190      10.69547024      -1.91679076      -3.15128626      -0.00536277
Na      28.98527724       8.96878011      58.39569813      -3.31877527       9.08718532      20.49908516       4.94209283      -3.47244949      -2.61715779
Na      16.72068622       9.99215376      44.86427939       4.22299557       4.36361197     -87.59829085       5.92052771      -0.78629452       4.48559845
Na      21.51829607       4.52988994      41.39601181       1.00628366      15.38557494      30.14624293      42.20432567     -47.05876272     -43.97055152
Na      24.23799275      13.01836993      49.05272063     -29.15423937     -22.22399123      45.63843799     -77.48556018     -21.42865917      -5.39702860
Na      27.89992256      -3.25170695      45.55448306      41.91127545       5.78183975      11.33912766    -166.61793642      92.81543806       2.62127738
Na      22.40021607      -4.32851386      46.69732036      54.04108119    -227.58389699      46.35879720      22.82133647     -10.16399894      14.09812473
Na      19.57518219      12.87373326      46.60003688     -16.45491140      -8.91794696      -9.30564933       2.93088958      12.00653319      -9.63062935
Na      23.23243876       2.28053892      53.69702959      -1.16186893      35.54247413      12.05184807      39.25400309      36.09055543      -7.96395401
Na      22.42297692       6.74153178      44.57302791     -15.72172396      84.51954658    -205.75658016     494.83491151     653.19207815      92.18568579
Na      10.55245803      13.46731213      60.43596661    -199.23326071     154.78174175      73.22278930       1.84823403      -5.91862413      -4.61012574
Na      18.33262537      20.87331525      52.06140564     -17.53271857      11.37634939      15.68258011       3.80908057      -6.56108899       4.75062986
Na      17.67988614      36.78990434      47.65956351     156.23219040     305.44107425     -58.93632300      78.10363091      59.64226046      21.52813515
Na      23.06995095      20.98518605      62.00827181      12.30144251      32.92385352      53.88846340      -0.04068985       0.65640348      -0.02138447
Na      22.12177227       5.91287873      45.48529894     -64.05381633      71.43847704    -122.23853322       5.98359685     317.64562282    1127.76316816
Na      22.39182978      10.60810921      40.96678987      17.87487541      29.31223774     -32.70109942       5.86994226       1.35084849       6.63010436
Na      21.96923760       6.04616370      49.56317345     -56.59700175     -46.42269338     -35.55937236      10.21042070      -1.60079198       5.31862302
Na      20.14068228       2.68640288      44.11312667    -250.38703270    -193.80881412     -72.93315939    -300.42565725     -20.02547580      -2.34848894
Na      19.94671925      11.80271889      47.04507736      -7.07659627     -30.01370627     -19.05024235       9.06785435     -13.50209628       9.97763778
Na      33.92569669      15.32741765      37.88288434     545.74147082     389.56467623    -278.43825066      -9.37928155      39.36520244      10.75345936
Na      24.76931592      11.01304790      40.71095623      10.46280326      22.88830474     -53.99960899       1.46469232      25.86622777     -34.73336902
Na      37.05903482      11.74504419      79.58097934     238.93436027     -73.81264068     127.64844353       1.21516381       0.01614247       3.01166023
Na      57.05431950      -5.95631819      75.59335758     337.45792991    -168.75377950     219.83119066      -3.53855282     -10.09683903      -2.29856917
Na      21.41710956       5.30382519      48.67337347     -87.89381058     -11.45060208     -71.81507167      22.88458146      18.55553277      42.36649733
Na      61.32115624     150.36404563       6.12287626     -37.80087703     222.43928324      -5.17716546      39.86247276      28.99780881       1.56971206
Na      28.50365814      37.11743404      81.69470039      85.51540817     145.15719639     184.11421064       2.26173087      -1.01782623      -8.68089336
Na      28.28985351       9.88138621      48.00686122       9.58422896       6.77115198       3.97106052       0.78410520      -4.30606372       5.96811866
S       16.18144821       1.51501021      43.97314830      25.72381842      -2.85542835      36.28838037     764.08038230    -242.85277646     -93.68430182
S       15.77822469       3.36413612      42.37041974     -39.25577875     -99.98632980     -33.82727919     345.45592947    -322.46587267      22.27582315
S       22.42968839      -0.34417488      14.00196038       6.39354383    -316.42485937   -1614.48997135     -12.84860202      -2.08568894      -2.24985356
S       41.75993268      16.23341524      40.61713552    1152.67420252     606.71945167    -287.99682231       0.45880883       0.23579110       0.07620316
S       17.46155695       1.84080961      42.76480318      -4.80649533      15.52473493     -39.26226509    -199.82824143     192.44261175    -148.22722576
S       24.27114407      12.87432429     -28.04001689      91.77849050     387.09819179   -4001.81804398       0.46941801      -0.83981419       2.11372785
S       18.30711371       1.76029379      39.70351613     -46.35352008    -103.24672054     -46.25438325      31.56320657    -105.28102834      11.33826567
S       16.92557933      -0.02936844      51.65783980      24.67642568       2.31023133      57.59814397     -48.54501538      68.93250380     -34.98283234
S       16.19409910       0.66209788      45.48968737      42.81798048      26.50923647     -48.14319646     675.38841854      31.33783360      64.50530859
S        2.87915712       8.72085123      52.28929290    -168.25122866      68.86234218     -56.98507080     319.35355008     -46.52065493    -177.59231510
S       83.67078785      26.41277390      10.40646975    1226.48165645     459.30847025    -838.31317932     -44.59448421     -72.16824937      -3.41341727
S       12.19758201      -9.51465244      52.82451962    -143.64298604    -278.40866943     -53.51596051      -7.60873707     -66.44584947     -21.73242454
S       24.25833889      -6.23322721      22.94010683       6.33459339    -188.97909088    -519.54987221      -1.05791897      -0.44586328      -0.20083677
S        5.55919548      10.68233635      64.86318381    -353.94214399     226.11565386     149.44803585      10.48201738      -9.17422554      35.42040381
S       29.42480206       2.47737628      51.57467398    1313.96297057    -692.58931086     734.10252805       2.73973491      -2.12492114     -24.58005458
S       27.78862067      16.05656070      42.71704874      96.40430364     236.40510623    -227.90324415      -3.45624074      -5.24623985      -1.58348997
S       -0.31066502      21.69318037      52.11569570   -1006.57566161     850.48018707     746.69568133      19.08334624      19.25713908     -34.86562984
S       20.36400306      15.82671658      52.24716322      22.62051187      41.95963752      22.54519998      -6.31055159      17.13278823       5.03494823
S       42.11684786      15.29899049      71.61657297    1086.81398840     457.64721509    1473.82438571       1.04713794       0.67857332      -2.01562024
S      -28.71315241     -82.87128358      57.54755509   -2786.75308324   -4787.94741308     676.08982746       0.26879491      -0.38798327       2.98193384
S       18.71850759       9.71647632      39.62901416     -44.94201802      -2.54022904    -285.62724271     -14.49214188      32.44627384     -27.71477508
S       13.02682115      19.45905548      48.95173991     -64.04392020      40.36686034      33.85438190      -1.19550841       2.22462620       0.92071803
S       16.46687393       2.79396911      44.05616798     338.71918081    -560.77178257     174.54261975     511.60255297     480.80114383     -66.64148387
S       15.95938143       2.88146869      47.84635103     -14.14861091     -45.54546043       3.54952367     224.27658477     250.77026145     106.55556456
S       16.76879642       7.72516274      47.52073854      38.75345038      38.28361152     -59.76312748    -138.09330856    -142.40652293     -61.91911325
S      190.43516204      60.33953570      39.03342867    1348.74995275     357.62413060    -113.43396966    -235.85924722      40.23010956     351.55522236
S       16.27334975      16.46137349      39.76953127      16.84615205      92.21477242     -42.02037607      -5.02104236      16.83455118       8.73894286
S      -81.27359508    -287.24230759     -73.19790339    -855.85940712   -2281.98647230    -983.46749406      35.80154495     -18.83035255      -0.71899159
S       20.72885542      10.34453861      50.22615195       4.10450702     -33.65038425       9.09094343    -105.14736756      21.35206416    -131.45977131
S      -66.19036370     350.29912514     264.35686729    -693.39601333    2730.74299495    1650.86911056      -0.14539665      -0.19263258      -0.37087334
S        8.53324528      10.46932681      29.74234000       7.80180458     -20.41773688    -149.79269428      -1.47962350      34.98576951      30.72290990
S       42.62177516       8.81373700      23.43746825    1004.23280671     725.41055928    -553.46820001      -9.35356222     -16.23841365      10.89210928
S       25.39343661      -1.12247957      40.91976262     101.12819282    -146.82848125     -96.84468530       0.44413746      -7.88263420      -3.89780087
S       98.90555174     -20.04386426      75.17352027    4083.10021729   -1365.80981975    1608.35191214      -7.13244286       2.01574185      -0.71516693
S       -9.57832877       4.81078160      54.60331818   -1595.48302284      -5.34311648     491.02694010      13.41236239     -16.06873490     -71.97460158
S       25.60427432      -0.73133002      48.00451057     -21.29051963     -69.39398858      56.16280490      -8.86052367       1.08358506      -4.99207145
S       24.67356734       0.10261655      39.27633147     -17.72964789       3.16409229     -36.59300220     -11.29487569     -10.94363929      13.64449949
S       23.72126243       0.60806116      51.84153735     -47.42873660     -13.39719006      81.98541900       1.16112376      -2.27728761      -1.24350803
S       42.20651291     -33.69563030      69.56400374    1073.92812158   -2047.56538001    1338.75703082       1.09342149       1.38422042      -0.80619949
S      -14.70719910      16.43800785     119.66625019   -1948.13215277     583.85890548    3961.45014569       0.38676674       1.44690999       0.40827409
S       28.41451447       1.79129879      42.82291662     -90.36419817     114.95436710     -47.97246597      -3.24760367      -0.62763770      -1.82643144
S       28.68692570      -1.95910669      60.28723698      48.60560672     -45.25294685      68.73993775     -31.69068512      16.61447946       3.06190013
S       30.74561477       5.88740122      50.29595260      53.52259524      -5.80263750       6.80782538     -10.61285588     -13.42599457      -4.79794494
S       25.69626835       2.09150648      52.31242101     -14.37002358      33.84578870      -2.99981328      -1.30543111     -12.21609614       7.81859892
S       58.17352075      10.34076637      30.28806243     762.44108596     218.88879628    -340.58731406      -0.71303216       0.27739759      -2.34492754
S       26.09313710      -0.58150527      55.15251166     -19.85908754     -35.86672255      12.05442451      -8.41425178      -3.51790795       5.65551650
S        3.36301964     -35.98367823      96.90458577    -390.55394495    -817.46123131     894.17668764      -4.23809616      -1.59879616       3.34912574
S       28.89131289      -4.83467401      37.73369766     117.87981635    -113.15758852    -228.35465064     158.72570160     129.69023649      -8.67648877
S      -19.08801792       6.36859868       7.27425341   -2168.15859783      84.13868648   -2001.53317412     -30.00139231       7.12083061      22.78569957
S       21.18334506      12.60588417      50.18817761      17.52132347     -32.37479054      18.33505790      13.48756486     -53.25940259      49.96259793
S       22.93026101      13.15084188      42.73771434      -5.78718399      54.77803679      -1.23182821       6.12570041       1.44865306      -1.65082954
S       29.98812262      10.79396011      46.61051148       5.34776115      33.91446683      -6.52265936     -34.18276855     -42.27291058      66.24850998
S       24.40884107      15.03368405      43.55116967     -39.03707774       9.28347353       4.99515891     184.90553655     -80.88479703     156.65231068
S       25.27589038       7.84883384      46.05863889     -44.04279984    -135.15957636     239.95898388     -21.40657379      46.41443961      34.66461028
S       23.30829320      12.31088137      45.53120632      40.90202386      45.31742872      35.61878032     -22.70291551      36.85277630      -5.10292273
S       21.53074361      10.24781329      51.07488843       1.09369760       9.66091541      62.31928353     120.99239487     -13.99397474     128.41473897
S       24.29984859       9.48301598      49.86246763      19.18750741      11.72000113     -30.37099705     -44.84962588     -17.80878187       4.38794981
S     -144.05937749     141.59570053      97.74312295   -1304.81506650     984.44755396     334.89125052      -0.04589971      -0.26132649      -0.35471902
S       25.53892140      10.15779297      49.54236074       7.61085218       3.82734302       7.37038457      42.07709668      29.54953137     -14.88346987
S       33.89343951      10.33216479      76.01760030       4.88143025      48.71372961     111.13917256      -5.12122087      -5.90083505      -1.37184793
S       28.17059352       9.16661238      50.65180057      22.95622248     -11.95570536      -6.25829907       2.43864783      -3.32639140       0.08688211
S       27.15351192      12.70649286      55.07507520     -11.42198256      -2.48039538       5.06976490       0.36759340       0.04848971      -0.37159005
S       28.51123542      10.99999651      46.64313473     102.97980312     -25.90536205      -2.68853495      13.89653374     -37.27821220      50.60008732
S      -11.50007851      -5.94519082      46.55334445    -695.24964275    -256.36900230     -97.89200308     -24.78239318     -19.13080244       8.15788183
Sb      13.44461949      -1.03843762      55.67252114      -6.99183450      -9.12816104     -10.64322003      -0.74155835      -3.02048868       1.70176639
Sb      21.08266080       5.25097776      45.05034639     647.54534931     337.70995292      74.00335314     -92.88037774     -13.45971345     -41.43377571
Sb      17.88009792      15.81935494      50.29626635     102.12750822      48.32462437      30.57146025       0.32177561      -0.88737425      -0.48835136
Sb      29.84796789       5.50751821      64.06063244     782.09187000     199.54474611     996.33235571     -68.14366482     300.21114862       7.96341745
Sb      13.56197627       6.71176199      43.60457104      40.78791169    -348.12425770     528.15148121     189.89222660     272.58088359     -51.46691700
Sb      17.88754607      11.10192487      46.01858705      19.26790421     -35.14137321      24.47977579      17.54244179     -36.64645633     -55.54733168
Sb      13.72221793       7.22523193      48.41690486     -80.50902711     -20.17988915      10.60747636    -113.44098736    -124.27969830     -85.34446011
Sb      -6.22688417      -7.28862018      40.32434329    -505.49204170    -284.41872883    -125.00334132       0.90208409       1.47266406       4.68569607
Sb      24.62430003      10.40993156      41.41170053     637.50341009    -378.85021551    -192.20938794      -9.65906788     -22.12679258      31.49839811
Sb      19.66107428      19.70159815      43.51221230    -868.52133570    3061.30856096    -422.27518769      94.41771066    -104.29783018     186.83682644
Sb      20.18321818       7.71939266      56.77145090     -78.98646297     493.86565597     555.22635487       0.14449401       1.38295889      -0.02152137
Sb      24.90654644       3.45731145      51.36002695     -59.98350454      31.35436230      62.85473944      -6.17014453      12.19262509     -10.87385344
Sb      12.15255669      12.02048686      39.94299899   -1847.62825237    1055.26556000    -667.01132277      -6.33746025      -1.94040395      -5.42436495
Sb      24.27996837      11.01849040      45.81333720     -55.42154497      18.54372709      -1.85839805      27.49339451     -29.33184541      11.62032455
Sb      22.59284125       7.97434481      48.89979526      86.22251207     -23.98127235    -145.44900506      -0.96704982      10.12430970       6.44368375
Sb      25.04499632      10.72572545      51.71618415     -44.12354947     -26.90936596     -39.76286517      -6.46852966       5.73925597       0.69878407
Na      28.14213659       7.08814836      60.46154403     -11.26640811      15.61704062      12.52596539      -0.52488643      -0.00083676       2.53750840
Na      15.92830466      13.86015763      59.18087313     -16.26282922       5.41872319     -22.84793011      -1.73246378       2.77621114       1.32799271
Na      13.20017379     -14.58962456      68.11502277     -23.25247771     -51.89886984      34.93119577      -4.59512729      11.88813751      -2.45886778
Na      20.99865866       0.42816026      54.76370279      40.44765256      13.33548017     -41.77786224       0.31382092       4.08334526       1.96296941
Na      27.78322567      10.32849741      58.62361853       5.30510440      -4.61115603      -3.40494404       5.21922192      -1.12850052      -4.82830940
Na     -13.88523236     -20.71533210      75.29432729    -265.36755493    -170.25001691     128.86741980     -10.27347539      -0.72024527     -27.91627973
Na       9.42811155      -0.73122407      63.51695025     -36.81303593       4.53307967      34.90968138      -0.19582295       3.65590673      -7.90638910
Na      -1.93787586       6.46273485      68.82357938      -6.83223868      -3.87277985      11.68923671       3.21578314      -2.09065790      -5.93721768
Na      25.41898580     -21.30191561      70.02315604      81.94447268    -122.36714099       4.69013110       8.85353381      -4.31620586       4.15360568
Na      26.17293904      10.34660637      79.02360624      11.41746945       3.22247998       8.33314642       0.20505998       1.23576175      -2.87209199
Na      29.83061164     -16.17993688      41.92658929      34.47824386     -62.37895876    -103.31372231       1.84078019       2.34450977      -1.12700982
Na      17.55725101       5.12549207      55.50604529      28.51697617     -18.55027988     -50.89312335     -36.83860836       3.96563839       1.34979780
Na      47.95378394      10.11494082      60.43138807      81.70111932     -21.33564001       6.73888954      -3.88990367       0.51847724       7.80182623
Na      22.83027247       8.00060454      64.53084315       0.37339914       8.93305032      -0.69225323       4.10203271       2.67983719       2.67607922
Na      -6.19585980      30.72436034      53.11068740    -353.54351127     -24.45993662     -32.42218695     -22.37885148       3.60568905     -31.34822265
Na      20.35393111       6.37367518      50.10105521       3.37349692     -34.64787165     -95.31542791      -8.61342353       5.15560643       5.65853612
Na      37.79270485       8.76269982      42.49817742      62.67492988      -0.43035078     -85.37635437      19.86356913     -81.40470752       5.91750424
Na      98.29624007      32.43115828      75.09534560     566.54776200     120.92838237     356.63375957      -1.52730999       1.56609008      -1.04199009
Na      30.97437006      10.51774514      64.94802001      -0.63709410      -4.26361761      13.63829092      -1.83070818      -1.76129117      -0.29594559
Na      23.18340949       6.39411403      62.28231892      13.24824792       0.04167664      -7.50631587      21.58072923      -4.84809664     -15.57581778
Na      26.34728858      15.70573590      61.66567762       0.18729200       9.74611504     -14.77502026      -9.41153220       9.21720977       9.78509944
Na      20.03673898      11.95462591      76.96319144      -6.79866425      -2.92344371      11.92282190      -0.04265650      -0.66707142      -0.31228613
Na      24.71996405      -2.89723027      65.57057681       1.77394469     -23.92619798       1.10335760       0.87359436      -0.06094900      -0.46408372
Na      16.00029781      21.98077110      65.07904851      -4.92414420       2.01793130     -18.17387261     -82.64271677     -38.50622174      -8.79225136
Na      21.04525309       7.10784619      53.50607557      30.75412913     -15.52173285     -38.80437481       2.10917331      -0.81074065      -0.74544771
Na      17.91354779      13.02471466      64.41486108     -29.13972331      29.97355016       8.47476760       0.21143786       7.89700411       3.22723970
Na      40.43115080      16.41282206      49.49604239      66.65187601     -17.44671130      -0.71971083      -1.14090938      -0.55799471       1.51072962
Na      19.74016733       2.13399161      59.71035245     -11.89481365      -3.59675029     -16.00897563      -2.59250111       0.99046242       3.70652283
Na      23.81745768     -12.52889073      19.14026734      32.09203330    -163.94608049    -229.14996169      -2.68691631       4.67519752       5.57361873
Na      30.31159706       2.63565533      74.12102352       3.91343509      -6.01964232       4.29067530      -0.39647021       0.80978158      -0.14923159
Na      27.34866181      -4.74928477      66.92396118     -22.98744304     -13.78911105       3.15442550      -0.21060671      -2.96305295       4.83444659
Na      34.18525410       1.77250963      66.61067011      11.47301325      -0.01748977       6.19389846      -0.09982903      -0.44449404      -0.66774543
Na     -24.29867326      55.46342310      35.11103949     -59.33069339      53.02293669     -28.53098903      67.21696744    -239.02031958     213.11860956
Na      20.54416992      -0.56202324      63.16678797      -1.60457732      -3.15608075      16.17443313      -0.11286859      -0.41947864       0.30216196
Na     -39.54779706      50.18377936     212.60429643    -311.53375117     197.20077941     961.96455208       0.22819715       1.01429111       0.18993373
Na      22.43404427       1.87372894      67.83808181      -2.44304798     -12.00778107      -5.06151127       3.97670078       4.77528270      -4.39312837
Na      11.50006042      10.14249744      69.42678742    -144.51641069      45.95003353     182.12168282      -6.23302595       4.18393269       0.51426903
Na      26.63688116       9.34399509      62.51154584      11.49332438      -6.17466775      -9.83131487       0.23521401      -1.53602148       5.69788109
Na      24.40524942       7.79314433      58.97985060      -6.66905148      -8.97028364       3.25076531      -0.31267388      -0.60689629      -0.06803103
Na      18.75048074       9.90566709      50.55631104     -21.73483309     -32.72902316     -44.06170926     -39.89197206     -63.10380313      24.02431920
Na      25.49724294       7.06309435      62.40314452      20.92380993       2.29052924     -15.11723881      -5.67992722       1.88622685      -5.43280098
Na       7.57657578      19.69210731      53.57469072     -74.33426588      64.56602791     -24.32577815      -4.18772974      -0.69728302       1.02663416
Na      21.38834755      20.88865352      72.79675300       3.31677630       8.44757818       6.91622643      -8.07781532      -0.67405086       7.53213174
Na      18.79700182      -5.41620589      75.34178672      -6.57548566      -0.79585999      13.13489335      20.51456933       4.06043716       5.97896161
Na      21.60525206      11.30173403      73.48247691      -8.71824996      11.57441351      15.27585119       2.79579031      14.74475221       4.83668731
Na      45.76481665      47.80468334      65.08017157       5.03372560      24.98539503     -39.97274082       3.96777689       1.50475086     -17.53868033
Na      21.25944452       8.24972450      68.65424552      13.85918789     -14.06833500       1.94239898      -0.32445288      -0.02072152       1.04733581
Na      16.18537046      25.67902364      82.10276667       6.69650974      -4.67438861      11.05119777      -2.07366980       2.56174191      -2.01184217
S        8.08420623       6.18201382      47.13762849      12.78775602      10.64853805      31.76972924      -6.70026521     194.07512220     218.90850823
S        5.84615088      -1.14016026      61.66080552      45.12821316      -3.57769943      48.14175254       3.74709511       1.06707261      -1.10520503
S       20.82946409      -8.62735572      50.18268186       9.42297268    -121.25029459     -70.99116680      -0.16853551       1.97665938      -0.91402863
S      -18.08785755      -7.85141608      -7.84114600    -199.47596569     -60.65267537    -370.25690091     -20.70991010      30.67137541      -2.26444332
S       18.27698353      10.74725635      65.62523719     -48.22658005      74.70661986     144.87958618       3.05071399      -3.15693688       1.64677947
S        9.75175936       6.74107186      61.87658950     -71.10722528     -31.17876736     -16.94346610       3.75002651       0.58198220       1.51176779
S       18.75657110      14.02518084      47.94302316     -77.47728160      49.44660400     -64.92764451     -13.25546656      -0.83448644       6.12161044
S       23.83124295       8.01177555      69.58184559      25.50893587      -6.79257517      57.70234325      -8.99815696       5.15459369      -2.74751963
S       36.74424038      12.81600728      71.85910170      17.12803706      -1.59957309      14.95633245       1.31645659      -1.62037443       0.72818606
S       23.68383572       5.84429868      77.86082012      14.85383922      -2.00418588      22.27883579      -0.81462151      -0.74639248       0.30917163
S        6.19427880      21.08988208      69.26840908     -34.09271105      29.57338940     -15.43015417      -1.12857998      -0.83345695      -0.81427548
S       21.40256547       0.81551469      69.02327817      11.20956751      -0.84553963       4.00377423      -6.22178990      -1.87315357       4.89000747
S       16.05558935      -0.99948140      59.90992402      12.77396701     -19.50735177     -14.81509812      -0.19541082      -0.10240051      -0.13978528
S       19.69298643       6.70188647      77.59934561      38.23735127      28.23542643      -1.38942910      13.19942505     -16.51591324     -15.23515299
S       22.45250393       9.13211250      60.78402845      -7.21293415      26.84036515      22.87796196       1.40175692       1.27052301       0.98994011
S       19.08669499      -1.51820644      66.36270725       9.35175215     -38.30438628     -17.49458679      -0.26949126      -0.96640347       0.40359615
S      -27.98795919     -35.84236794      80.84472584    -354.42705189    -356.21930387     181.77418631      -4.04872694       3.68245462      25.58611692
S       16.35898341      10.72109855      64.99758668      30.73598750      43.84701478       0.43666524       2.20017106      23.16172833     -24.09453905
S      176.26960642     102.38198588    -134.72563921    1225.09339309     745.29549057   -1544.41425341     -17.17712466     -39.03454999      85.56463266
S       11.55807665       6.13352407      68.76128639     -50.84732824     -39.43041405      57.41329053      -0.88031828      -1.22217229       1.16997747
S        8.23295339     -88.55359182     116.51857408    -131.80400101    -774.74524249     475.03692762       0.20275586       4.34252524      -5.85628230
S       19.70227680      15.66508665      75.25783385      12.02612608       7.05215181     107.66563925      -1.08051273       0.72429808      -0.69622062
S       13.41635291      -0.08620350      73.04203201     -15.42888845     -73.63412673     101.25686383       2.35265302      12.36251930      -2.62252763
S       18.86829677      10.97170704      68.14074289     -10.00803701      12.73902391      19.06505398      18.70157801     -14.29537118       5.71924592
S      164.74471219    -254.31092961    -123.14016213    1124.88750641   -2114.63478897   -1732.78441723       9.65098379     -19.91179460       6.93969873
S       -5.20066160      12.25511701      94.50020140      19.66989993     -43.27668573      30.89126464     -95.24670661    -241.68451422    -121.68367077
S      -28.59439503    -116.25982540     344.12923183    -207.13298542    -241.60986202     523.61739110      -0.48563238      -2.48848188       2.32142100
S       23.43982371      -5.08409215      51.43913422      11.83041410       5.43605560      35.44699521     -16.27315056      -5.64672394       4.91318151
S       43.22335419      45.72021802     146.46954525      81.82795937     399.22159341     315.95560882      -2.23374727       0.51606839       0.44924908
S       41.18648210     118.24832544      12.77856235     -68.49178089     131.93192449     -21.40644188      -0.85994766      -0.07252238       0.08841674
S       34.59251536     -13.04033089     100.35405885      26.44893846     -41.73307082      77.84475381       9.95169270      -2.83642885      -2.09451260
S       15.25519088      11.88366805      68.80988468      17.47246253       8.15529478      14.38913232      37.68922726      -8.77100419       6.47565573
S       58.07724731      70.59578597      34.26551745     381.51802011    3439.37390269    -557.44804060      -1.89809909       8.18225575       2.24913371
S       30.66693889       8.84588764      52.74573927      44.67219376       7.99901336      -2.02559375    -319.30761043      52.74732475     164.48253015
S       72.55664299    -171.20660707     117.47513704     317.96295347   -1106.06215647     430.38987975      76.97609796     -82.69548852     -64.91830444
S       12.62347234       8.49088767      68.25841356      -7.88915689     -13.00790381      21.68626006      -5.59621848      -9.78609574     -16.60737719
S       27.40355620      -3.98908700      52.98684774      37.29842535     -83.54096489     -54.37936765     -21.53857482       2.14298704      29.51913157
S       16.45300048      -1.00835281      67.96999316     -60.18458622     -42.80256435      52.58927350      -3.31346571      52.66521863      17.23633595
S       -0.73888558      -8.55092097      49.14166855    -435.73588273    -243.65828732     -69.30275813      15.00044629      37.41282730     -33.75195408
S       -1.95441834       5.09879990      66.42697727     -36.31065861       1.76219014       2.13857309       6.08324963       0.53707785       8.67718128
S       28.66608311       1.32914133      64.86431043     -18.19840171     -17.78139096      10.68053943     -33.05401031     -53.83130281      -4.31166466
S       20.89993143       5.00485891      77.94075335     -10.60574075       5.69066140      10.77987629      -7.73122214      20.30464743      -8.24924901
S       80.99581853     -68.18384276      78.12715142    1079.82682632   -1349.37924919     125.95180090      10.82540174      -3.13582348      -2.04679395
S       87.60736122       4.46187506     164.98945755      -8.07483091     -50.74415408      30.55194253     108.19401849    -321.19991293      35.44779189
S       27.64564925      -1.98081656      64.31090169      19.74308176     -19.65720061     -42.27726767      -6.04054999      -3.06290517       0.45003966
S       22.80574584      -3.10801557      66.97633692      -7.91836148     -34.50311514     -21.13514319      -1.90447728       0.12491255       1.04962641
S       24.81360309      10.06676620      68.07261100      12.23324774      36.73788431       8.99860643     -23.30964956       0.23121543      -8.40432635
S       23.27255332      -1.28603243      71.24911394      -7.15826341       0.48571272      10.76548230       1.67661905       0.92147769       0.71564946
S       20.95000087      10.56368939      69.87823532       8.27289848      27.31769568      66.00624335      -1.79236308       1.17123838      -0.39918660
S       26.36229423      20.16824089      53.65778553     -14.04365713       3.59573448     -11.21718867      -3.79808810       2.29079740       1.96437780
S       26.89722897      17.33853823      64.73359294       7.01393469      10.36341736       9.25567999     -29.02828755     -14.45025023       5.22223277
S       26.98738738      13.28331277      65.08780579      -4.36799187      11.23353636      -0.04227924     -16.04053793      11.26095822     -16.52981994
S       36.09432317      22.31443754      55.71641361      47.19003045      -9.51064985       6.80718414      19.95310050      99.51841806     -75.72846671
S       21.92515617      14.57864545      67.09998474      21.14171194     -18.63321125      17.23835764       0.46147778       1.08071110      -0.68521316
S      -65.76590570      12.46675088      -2.75107591   -1319.13350137      46.08468146    -464.66202788      -0.03342768       0.72505882      -0.44891940
S       23.80365806       5.08311606      60.12340270      43.62498250     -14.36530270      -8.43782600       0.61176127       1.37244561       0.44782506
S       29.32188757     -24.87358544      55.73813264     -90.89130077     -27.71242917      44.90704140       1.90423150      13.84203059      -6.54547911
S       20.18785663     -41.17452944      44.80349278     -15.40655224     -24.81467632       9.51526585       4.35782860       2.12274680       0.17728801
S       37.26882430      20.86807877      46.32563936       7.95998765       5.89296722     -11.14601145      -2.66109464     -43.30275890      18.11271857
S       30.47264226       5.57521691      73.27745980      13.69761699       3.08109010      15.29665388      -0.46379542      -2.09343784      -1.07889535
S       19.74292050      -1.35584745      74.90072588       9.10228001      -8.02455530       3.38679129      12.07631335       1.03222834       6.48688418
S      -33.90317071      17.86634853      50.78737118     -18.16470508     -54.75139662      19.90424445      -5.88251478       2.18599128      -4.02093479
S       37.38599926      47.35743388     142.50919925     158.06504026     -70.09981780    -139.41066884      -0.13620209       0.57270743       0.79826435
S       65.11771522      47.90336264      46.87884982     106.14574654     -22.26665600     -27.90600429      -6.94865515       0.53578324      12.36962878
Sb      14.97261827      14.12328712      75.81342205      -2.46194340      86.06807269      26.80886168      -1.88745720       0.14871799       1.43693912
Sb      17.69160960       4.88301639      60.02591552      48.04093456       6.40949216     -19.23856264      -1.04321226       0.46663197      -0.12503693
Sb      13.54052232      13.66548539      64.86916726     -13.24392725     -24.83567942      14.63392336      36.64487876     -94.77146975     107.31972606
Sb      18.17443315       5.48714560      71.81158519      -3.77259346      26.12837066      19.02736809      -0.51543697      -0.23203878       0.11239970
Sb      16.90859149       7.71902100      57.50431757      58.85164337      -5.86403260      32.98666592       1.35559310      -0.23718069      -0.41831469
Sb      17.80454552      11.17547451      63.46700701     -10.99751459      -9.93937321      27.13142035       1.25695124      -6.93635437     -10.11213391
Sb       6.61618242       8.54867401      55.95094455     -52.67419475      34.71080419    -152.01137548      -5.60409200      10.22149903      -0.59334202
Sb      13.08083755      29.67065455      85.23609401     -31.55644716     105.07556570      80.11241247      -4.49323187      -9.95909660       2.53851866
Sb     -25.15497850      94.22004975      80.23826592   -2041.90066886    3219.21010232     647.85720682      -1.65967735      -9.07813126      -5.30753364
Sb      38.38178195       2.89455055      54.16454373    1150.62680906    -149.48629842     -25.44433744      -3.32692644       0.78305500      -4.58691263
Sb      11.46004854      -1.04577993      60.15631494    -115.84363742       6.03734401      -2.76555679      20.36879484     -15.88565714      31.04042031
Sb      28.37663013       1.83487775      69.85356393      23.09588860     -64.03773756     -28.80646976       1.78660140       0.72629416       0.59566977
Sb      22.02512294       6.59849680      63.03023350     -32.00516947     129.61525258     619.40844623     -24.54766868      -2.10468951      11.46384336
Sb      23.81538898      10.63557011      56.64936402     -13.76116623      60.77738770     -26.89431960      16.40399194      27.65603500      17.84220490
Sb      24.49208288      12.54807142      65.03680366       5.44447517      35.06055783      23.70637562      -5.01769887      -4.20717369      -4.39795149
Sb      16.07550546     -14.98840173      72.60244963      -2.64569890    -153.24344214     -25.31205933      -3.07498674       3.16234868      -3.03424718
Na      27.76763911      19.33307316      28.69710006       4.63633012      -1.20760662      -5.75169346      -0.87770892       0.41639871       0.77017993
Na      14.61448220      28.29611436      20.84161027       3.59296195       3.32993763     -16.91971912       4.93643731       1.14759531       3.49154235
Na      17.85295531      14.97623007      27.51211073      -0.10540841       4.09734998      -2.26119272       0.63383733       1.63444233       4.39625589
Na      14.52894024      17.61898889      30.65126425       5.58635981      -6.66843740      -3.44412268       1.77029027       0.13144950      -0.49419908
Na      29.30549792      26.76274711      26.70339466      -2.39230154      -3.25290039      -3.48319444      -2.20444369      -1.76126525       1.74599457
Na      18.71909778      16.63108952      25.43981095       0.96002352      -3.16983742      -3.11486305      -2.09742283       0.46086640       2.03849658
Na      14.07043628      18.04769595      34.51687808      -1.79758148       7.71541786      -0.61176907       0.11050887      -1.40710045       0.29313965
Na      16.24616921      15.15615507      38.92208593      -9.78357439     -27.37248271     -39.96054813       7.54794770     -20.13218872     -17.86991458
Na      17.83668492      14.48284189      37.06162231      18.00816118      14.21048349       6.91651189      28.65263955      74.94668361      29.48834297
Na      14.03383685      19.38429269      39.04300173       5.98866408       5.64238653      -0.71419010      -2.65080299      -0.67246985      -3.45321963
Na      14.52188670      14.22682568      38.51918495       0.26083449      29.54345363     -20.87567756      -3.93267319      -0.32457503       0.39281851
Na      19.67061174      17.64430463      33.84152200       6.61216136      -6.18896485       1.52967909      -0.90475772       1.38876066      -3.56495796
Na      27.51250736      24.11826561      28.05311985     -14.74238080      -0.56649215       1.99979260       5.65175978       3.29601991      -9.16212893
Na      18.30897525      22.02956652      33.63856986       6.03940798       3.30810229      -1.76262521       0.30140953      -1.30946179      -1.50549972
Na      17.91047226      21.78060910      30.22561290       1.83224058       0.98609267      -2.89863470       0.30390412      -2.66323236       0.26541801
Na      28.24613018      25.26058200      30.85466683       3.28572387       2.85107616       0.10544296       7.38793280       8.32829738       7.33921446
Na      27.49832534      21.78127245      31.00038272      -0.84886665       3.77657498       0.04992654      -8.27150648      -4.65782585      -0.63944484
Na      18.18254524      24.57393486      27.61674061       1.93856400      -0.63015905      -2.19013688      -0.89899435      -0.22990347       0.26703005
Na    -118.94966688      97.65046517     217.66608688   -1813.13162394     876.69872554    2263.13276357      -4.51019356       7.82387143     -13.86561156
Na      18.23264460      16.87049392      40.33147318     -11.31925696     -17.39545216     -15.35160739       4.78591524      -0.05650049      -0.39690859
Na      21.68123944      26.59023696      39.20831623      55.66062587       4.71378766     -17.74338615       4.31655841      20.21796843       2.77618665
Na      31.29295293      29.56199431      36.46270809      66.43492391      64.22726577     -74.16882217       3.06433307      -1.09320841       7.78418892
Na      26.77242796      17.97435711      37.10698699     -45.50062134     -66.09456407     -60.66641361       4.11951053       1.74278489      -1.62136111
Na      17.40440626      26.11402716      33.92057020      -1.17096146       1.58846284      -0.78664287      -0.47294288       1.15720397       3.67362944
Na      21.74163211      17.63040257      28.20145182      -1.59486931       0.55706740      -0.03803530      -3.20600903      -0.17590601       2.51562493
Na      24.41272894      28.53327268      34.21666083       0.14693043       9.85241441       2.07669207       2.51214308       1.53128586     -10.68042168
Na      24.46793221      13.95127533      30.84499250      10.64205081     -15.91781125      14.73587451      -0.11777757       0.37498743      -0.54649409
Na      21.53501069      17.98191494      31.09259820      -6.80544426       2.05992426     -10.61178845     -41.15813586       4.09823888     -13.19245292
Na      21.46262509      28.71972120      31.06539558       0.91889725      -1.64991970       1.04560785       0.60704567      -1.07669806       0.11195501
Na      24.73596777      17.15172313      38.24641401      30.57329635     -21.20897182     -76.39156909    -194.66137683      85.99388121      84.78284373
Na      21.75028704      19.90625898      31.92959257      11.34671324      -1.80377937      -8.08476491      -7.86538540      -0.60455004      -1.49550223
Na       7.74146586       7.07880249      58.23041018    -361.04274456    -192.67978818     699.15109290      -0.67032286      -0.44929459       2.61824147
Na      25.62101697      27.75648434      38.91884666       4.20434529       3.08447577      10.62425260      10.27127856      -8.20331913      -8.85522838
Na      24.37095840      16.67881231      37.91833923      75.09898739      -3.26355326     -14.12007937     -51.71455424     -33.94254353     -15.81156029
Na      22.24819022      31.04143334      41.74510390      -6.60573565      13.05843435      16.78932519      47.43620648     -14.63857475    -153.09744127
Na      18.51228687      17.65961245      30.74543267    -163.85985041      34.42673556    -107.10605799      25.99141459      12.53218050     -79.67097939
Na      21.04268796      24.96211808      27.53209307       1.86717154      -1.14767313      -5.74027001       0.12997299       0.01655158      -2.07504968
Na      26.47758241      24.31410453      35.36899515     -53.58547496      15.06371984      23.03497102      19.85857462     -17.32807416      -4.94686994
Na      24.22918589      21.46352656      29.91141932      -5.41061905      -0.52222961       9.69305447       2.60961678       0.59990897      -0.27152765
Na      21.26189064      24.86397376      31.05576340      -2.90404469      -6.00482389       6.95972811       0.62131220      -8.09719797      11.21504929
Na      20.79280418      21.70541981      30.88950633       0.01117014       3.12535796      -3.32513605      -2.10218842      -1.47259606       1.13260284
Na      25.60486964      23.93721911      26.97851270       5.68847461      -0.87040813      -3.92776406      -1.85891439      -0.82191000      -0.84468495
Na      20.92440305      25.69220999      33.27152908      -0.16179716       0.87712026      -2.61407489      -1.54989449      -0.17311543      -1.29105475
Na      26.59228712      21.00198694      39.85589230      25.04510002     -28.90866439     -22.77561320       0.87692228       3.73253431       2.70487321
Na      25.20711893      17.00524209      38.09716638      21.23713006    -127.97149903      11.18117492     253.37154787     -55.12410221     -51.26612028
Na      24.09711704      26.32310191      36.71273047      -6.08293396       4.00592647      12.17524878      -1.20813890      -0.66589604       2.28885398
Na      36.47520545       7.24672199      61.50221652      42.06873298     -58.95458002     101.27302661      -5.03349404       1.26425179       2.00064641
Na      25.82210690      25.06449023      35.46881796      -0.55927916       1.68268528       5.53722382     -15.46820254      24.89718441       2.47538203
S       16.15466600      16.03122187      27.67393980      -2.01072815       2.31972040       0.35916703      -2.14113402       3.02162010       2.27984397
S       15.78766979      21.35437975      31.73216123      -1.83476500       1.52098585      -6.00170532       1.39143171      -1.21071068       0.97225508
S       19.56395076      19.19482394      27.29524917      -2.48620005      -0.38996232       0.82160026      -3.51491604      -0.76641803      17.35141907
S       16.68655937      16.00993679      32.61729142     -12.79382211      10.44223286      -0.55796237       9.67177667      13.17610815      -3.95854636
S       19.63179955      16.54951701      29.83955191       3.69503881     -16.63987775     -12.92877653       1.69869163     -11.29696611      -5.31370830
S       18.67518974      19.66781229      31.71940255     -11.65648008      -0.49072643      -6.23454746      -4.44665107     -16.89278096      -8.90554605
S       16.26976927      19.24999125      29.33891519       0.30603307      -1.12271773      -2.15029669       7.26739046      -7.86288073       7.05495845
S       16.47712800      17.93137619      32.66888022       0.42605513       3.39028483       0.95701197      -0.71170547       1.69391205      -2.37686165
S       16.15248116      14.85196123      35.31393833      13.74794291     -35.34534078     -33.82708694      19.27369707       8.99644254       5.88333166
S       14.11778552      20.62932887      36.55695791     -10.87820258       1.60303089      -4.88629958       0.51891431       0.68851396       0.61224453
S       22.66102022      17.97920517      31.47874524     -31.92566059      -9.02818116     -38.24761342      37.34975250      -0.92156397       9.60817461
S       17.73061682      15.84871441      42.50622948      10.84749011     -46.19064734      11.26589571      -0.65774830      11.06834126      -9.55605704
S       19.29410944      16.34469915      35.56912642      11.51900494       5.92252697      -5.39563773       0.83323851      -2.58427929       3.85988460
S       19.69903608      19.05939719      37.94738832       0.22777568      14.49235031      25.10480262     100.87960095      -7.38594070     -11.23734428
S       16.93851120      18.94846597      34.16145145       2.30197469       3.28116357      -5.79911609       2.10424907       2.60590304      -2.78766941
S       -1.86149817      22.57531995      42.84856883     -87.55839457      54.02623838      76.33716360      18.76974582     -45.33789727     115.60136799
S       16.41167863      22.49987500      28.42714016      -0.24961598       0.21739545      -1.38996600      -0.56955896       1.18848139      -1.00283246
S       14.70993183      26.87588200      33.23064000      -6.96080708      27.07872493     -12.05500121      -0.49590104       1.21304249       4.82641955
S       18.89283187      26.68824496      26.37052047      -6.18375703     -22.84832478     -16.70593902       1.29578597       1.49251279      -0.56528640
S       20.17764527      23.61636876      33.42621515      -6.07347879      -0.84793359       4.41838458       0.06985538      -0.21735609       0.06198399
S       19.84984494      23.23253628      29.20536046       5.82956568      -7.50865945      -9.89478785       0.38445622      -0.35945237      -1.28318365
S       19.09526097      27.03366722      32.15661008      -6.12743167       7.72520695      12.64685372      -0.60926917       1.40788979      -0.73779545
S       16.21555592      25.96012677      29.38585055       0.61940448       2.87100895       0.52803463       0.64737087       0.28091775      -0.31139901
S       16.64787679      23.66391981      32.32969643       2.81991583      -2.43950080       6.36800286      -0.67358877      -1.67011588      -0.41241397
S       11.14365593      24.15510695      37.80029827     -74.74620565     -13.04673263      19.41801342       0.04626290       5.30708844      47.36379878
S       15.26104977      27.98120352      36.95369569     -12.16271293     -15.52366415     -23.57466542      35.25162754     -18.75597415      37.57283659
S       16.75910443      29.73065814      33.84361540      32.54128911      19.98321181     -16.23718926      -1.79807465      -0.74374377      -1.96469866
S       21.63778683      23.19260346      41.83929313      22.05145719      -2.83519912       1.93191976      -0.50890917      10.84594816      13.37121394
S       19.93885311      25.96589009      35.92279460      -1.70420726       3.58756754       2.41217032      -2.59465958      -9.85788493       0.02061772
S       18.53661156      30.62600547      41.22374323       8.11182469     127.96129706      13.49400662     232.98717894     197.83707421    -164.20278193
S       16.30055616      27.55875861      35.57346868      -2.29329458      -8.05412704     -13.42478280       5.28597479     -10.80844454      -1.16493412
S       17.21325537      24.58116558      40.38280871      -7.15474309       4.43396968       6.22423528    -168.53038196      37.22861752      72.87111585
S       22.98234501      16.09118635      26.13022789       7.39734963       9.74766652     -19.07845309      -1.09594314       0.24369368       0.40434465
S       23.75226225      19.65791248      32.24828778      -2.87979469     -42.70584442      14.41959560      -2.57196866      -0.14360122       5.90446093
S       23.61040712      21.70329669      25.86676075    -100.60219250      45.06288125     -87.81933605      -1.47705213       0.77725402      -1.48201372
S        9.89857803      -2.18967299      71.65434297    -736.60180971    -751.76511167    1526.80271165      -1.50119973       2.39893930      -1.62838318
S       26.17257595      16.51929864      29.15333700       2.11857988     -11.61615391       6.89926536       0.05509590       0.88628806       1.72987448
S       25.32440251      20.01905655      31.60039295       5.11248575      -0.82099473       5.07325054       6.38002594       3.38353320       3.18315645
S       23.22694840      19.06871551      29.63008628      -0.09010114      -4.51131817       2.59617832      -3.45497954      -0.83492790       0.40222110
S       18.77359518      17.91793014      29.92079088    -147.60796318      57.64520883    -142.28028529     259.35947180    -125.41012381    -176.39800158
S       15.89690011       7.07896418      32.28451427    -441.88789962    -257.78901121    -233.40646368      10.96433714      -3.49669934       1.18861717
S       22.13005537      26.96852496      34.72885034      11.18257125       5.44554457     -42.44807479      11.62117644     -33.80173747       0.54567887
S       26.79036841      21.33424129      33.47124812      15.74484253     -12.11614113     -19.34259838       1.41346220      -5.94974298      -3.10847839
S       19.61870516      -3.10655157       2.52400847    -313.21857147    -824.20131685   -1547.81475095      12.43444365      -1.23933448       7.61480245
S       18.77976412      14.37537408      43.99924363    -269.95628878     -20.83006411     325.74146041      15.71435508      -7.14820231      13.17739628
S       30.68441734      19.38166884      44.11126685     170.30651272      23.19537035     208.90202435       6.05825832      -1.20871061      -1.23759868
S       26.68931381      -5.60016763      41.68623700     -35.68351844    -951.56640765     189.64895508       0.48206038      11.77852870     -32.02691239
S       26.57234089      12.32631922      41.66998350     150.15488146    -105.32618344     155.27313578     -11.31762822      -4.09945885      -8.30076761
S       22.16362287      21.43092983      28.99380732       6.66162774      -9.77026218      12.06669491      -1.18061775      -2.08296856      -0.43918829
S       22.79139976      27.15441779      33.00604828      -6.54101636      12.47131624     -17.37953838      -1.63336958       2.93124592      -5.67242912
S       26.27229483      26.39267266      25.77142434      -2.01948343      -3.18335818      -1.64941687       0.09800340      -0.67025298       4.04967027
S       27.51376990      23.59653484      32.16590978      32.14765951     -35.57793009      -4.21712005       6.20230467       4.36393057      -2.60253452
S       26.33908383      23.54501921      29.57452950      -2.59150140     -44.80394697     -26.27921609     -30.60733352    -159.95654509     -36.07752190
S       24.79061625      26.78195599      32.57244440       9.87707819      20.46620206      -5.89437163       5.91066858       1.83251278      -6.04294247
S       28.87621463      17.22004975      20.76099751      27.74527232       2.22689990     -10.76304788      -2.08234274      -0.05819750      -4.03226422
S       23.47368639      24.00178588      32.15430043       0.44399801       9.79213336       3.12110329      -1.87358402      -2.48657822       2.86378779
S       24.22181374      21.92916157      35.23827312      17.26465032     -12.47882979      -7.15164355     378.66939087      -1.12933166      35.87769224
S       23.15859163      27.57524423      40.61786075     -10.34189636      -6.05392751     -14.42017897      45.35377152       9.58796317     -39.14216315
S       27.57287297      26.62078956      35.92474142      -8.77716246      22.64857827     -30.88381583     -29.36800333      -8.80633301      16.75960181
S       33.96920739      26.30757800      31.79965198     146.85873934     100.70580522    -194.92985998      17.24217477      11.10472675      16.27981683
S       28.44963846      25.16423614      34.38574336      -1.27029183      15.33426474       6.77852093     -18.95056495     -28.28882484     -11.20587927
S       24.03667276      30.04546919      40.01947874       1.74346015      -2.11961504      -9.06636237      23.17185282      20.81335963      -0.75247862
S       18.15774102      28.49914002      39.25458507       5.21022501       9.09242142       6.16816728     -19.08565374      24.48959089       6.20058712
S       19.30779649      20.73078060      38.54386236       9.19483754     -13.63162790     -14.25443510      21.65265646      47.63302502      -4.18487644
Sb      13.48108678      12.86729643      41.46223586    -230.72898004    -508.68208014     220.32010338       3.81830377       2.84836627       4.74486952
Sb      17.99611664      18.19628830      30.61488597     -22.54873747       6.34929700       2.38538208    -297.34998241     130.38239802     259.23530344
Sb      12.77685547      28.59336108      33.72047006     -30.95337384      -5.19634903     -16.68004168       5.42293195      -2.64017564       1.39770207
Sb      18.80647226      18.71583505      36.67347664      38.70876626      21.54618948     -31.95478510     -33.79660711     -17.56326164     -62.54104763
Sb      15.61509398      20.57285216      27.36285727      -1.11505255       0.16032629      -6.60498870      -0.08772423      -0.63695805      -1.79291296
Sb      17.79372796      25.27188282      31.06093105      -3.50096373       1.88804901       2.01579506       0.31394642       1.20766793      -0.82202193
Sb      14.22133406      21.87428317      33.47308224       3.92723711      -0.81360314      -4.17412674       1.49793190      -2.77056347       0.28531362
Sb      18.04642243      26.21017000      37.46674576      -8.58638379       9.59382496      -8.12899008     -18.25395253      21.61488118      18.35726306
Sb      21.59044660      28.32151444      26.20402856       6.88553938      -3.66116162       2.69066532      -1.06659183      -0.73196239      -0.30433786
Sb      24.87526165      17.57307297      30.84448535     -13.19891661     -18.10274589      18.85940420       4.70905351      -3.72705107      -4.16733884
Sb      21.37289981      13.65272701      34.06224162      -0.61900466      -7.33010414     -36.78777778      53.63375579     -56.35111320     -27.42765332
Sb      30.23384655       5.16020238      31.54651007     837.52073365   -1926.93402284   -1027.01899803      -0.36222538      -3.89980125       6.10617296
Sb      20.97408321      21.57006038      27.00188643       6.86948322       3.79022364       6.96632236       0.97902493      -0.58389759       0.18721743
Sb      24.89084269      25.03615579      30.91203041     -45.78445909       7.43307722       0.88243729     -10.52062558       3.82196569       3.01114518
Sb      21.44467169      22.05564210      34.67106465      -6.49742554       2.70249183       6.69915028     -40.41421780      -2.74719780      -6.53710200
Sb      27.91601469      23.03105516      37.85272820      15.72854074     -25.51172159      17.16092273    -163.96517406    -135.94687801      15.46816476
Na      21.15046648      17.53844643      38.65201549     -81.78866506      15.78837123     -58.39296031       0.89410820       1.11269753       2.37610396
Na      17.14804297      32.37781272      43.59482965      48.45271499      16.01380520     -24.25417360     -94.67987335     -16.69237922      15.29264596
Na      17.02562752      22.13763059      35.55803192     -18.08155890     -21.37881101     -64.50072971      -1.26185849       0.08038359       0.97610944
Na      16.08555732      18.25646161      44.27656572       3.92195917       7.73465499     -22.93095294      15.35655386     -21.62867785       4.55770613
Na      27.24772639      21.36487202      60.11364084     -45.34569953     -86.71055960     247.23167144       0.55500695       2.03907689      -0.54094104
Na      25.95797326      16.09551968      36.16012903     117.70080931       7.36715118      -4.97845767       0.95037988      -2.59919313      -2.07517499
Na      14.80782438      26.57394751     137.77988977       5.15305948      36.60092938     543.42689002     -23.24566676      20.89862281      43.93545791
Na       5.45673785      -9.91379735      74.17323480    -101.81950048    -143.42225783     112.03911497      -0.55033832       3.75757356       4.84873529
Na      15.81075781      -6.27591330       4.12131263     -14.13620563    -109.31761928    -283.71624436       2.30957438       3.98586731       4.16474889
Na       0.58802209     -44.10892480      63.09451740     -81.48153382    -351.92837898      58.41034020      57.56388698     -37.56918772    -132.72558633
Na      51.63220210     -18.30925117      32.95711495     217.46847845    -181.00889514    -115.80677667       1.07121057      -4.00844785      -0.13103337
Na     -16.18892132       8.22328229      16.75129211    -114.84956070    -148.88130605    -189.60269267       9.34434125      -6.21907562      12.37487494
Na      26.48302170      16.41414750      40.32827741     -20.45040837    -154.27348191     100.18516188    1319.09822320     -38.60812902    1247.84394225
Na      19.71447186      10.71050178      57.68173011       9.71672852     -61.59557721      38.53774904     -12.94279902      26.09910632     -32.62831921
Na      18.81868678      22.75871105      46.73271597       3.51127459      -2.14615134      14.65680985      17.54563561       6.48029958       3.74621552
Na      24.78004099      23.08035136      50.09339981     -51.80540658      -7.17947698      74.13224482       7.13328946      -7.40145999      -8.32238489
Na      28.25721441      24.99672773      45.56696635       5.88737719      33.85278167      -7.80543126     184.89551892    -142.92235409      -4.36020454
Na      17.07438840      28.64369599      41.67446275     -14.15230652      28.56906696      -2.11754914    -147.35173024      21.79474655      20.09571598
Na      27.15890483      26.52729953      45.79191475     -15.88271574      28.79895846     -62.62909956      72.50075123     185.84330464    -126.36717021
Na      81.41430570     108.98342306      43.26201288     383.29139154     510.59635990    -109.31588997      -8.13132138      16.32952235      10.96281113
Na      -8.70493293      45.74605416      87.30600996    -468.00469251     172.63312160     415.01294953      -3.20387546       5.09121354      -3.18152831
Na      26.62124045      22.37534130      54.75521579      -5.46129969     -11.15157483      -9.86525943      -9.37857997       2.97691979      -8.15924247
Na      27.85809806      24.12823242      52.07267686      -1.85853454      17.37403789      -4.06919561      16.26699208     -18.20056025      -4.67025482
Na      15.35488477      26.01638607      46.86320872     -23.05356531      19.89479740     -12.47619551    -157.39078922      55.20809428      31.48112888
Na      21.70536188      16.92582126      41.80427164      -1.43959227       8.02767923     -19.94510226       5.70907879      -4.69501641      -0.05109909
Na      20.39207943      31.46709085      48.68225149     -16.65381913      59.01593977     -33.12473331      -3.40317841     -25.24860176      -0.80137914
Na      24.59436703      13.83196020      40.99389950       8.35812959      -4.82784791     -68.94495564      21.43929436       7.72989899      16.40841415
Na      22.15126007      15.92812373      46.91804239      -1.25801953      -9.06567999      11.34864280       5.63110355      -3.10449451      -5.23994670
Na      24.19056707      33.32401061      44.67639325     -65.88359152      99.78644238      -4.30520677       9.63678203      -4.75320999      10.79938259
Na      23.77171778      19.97679291      54.65750219       3.77620223      -4.79107348     -15.30623356      25.13406471      11.15384429     -22.33256660
Na      18.12155314      26.95929086      74.26475409     -13.13660561      80.26110594     136.80073117      -7.15369968       0.14917229     -14.79821561
Na      24.74181030      12.01530485      54.21977601      -5.05750399      -4.23694366     -17.68245811      -4.77228336      -0.10418099       3.77883139
Na      22.14713389      34.44726400      45.14385678     -99.93394521     115.50135434    -156.18729610     100.52581594    -287.95956649    -972.62410121
Na      12.89277862      10.75401055      64.16580313     -45.21082874     -14.96180295      76.52509267       0.68422257      -0.19722126       0.38835806
Na      23.00174408      38.38188742      55.94718595      24.84566280     147.09126386      58.37238309     -24.94964482     -17.37990115     -18.20302352
Na      23.88844600      19.52162277      47.82905097      -4.18281187       4.08075123     -12.79200240       8.50671555      -8.72204606       2.70145253
Na      20.94104126      31.33604123      34.67823658      10.79333828      25.30345640     -37.85146880     -25.87843634       3.45816475       8.44372713
Na      28.68481201      20.39922812      51.99002986      12.44398281      16.64461247       7.95834891       1.08643413      17.91526687       3.70729863
Na      25.81204053      18.21317130      42.57843363      -6.13400261     -18.49065853     -28.85418515      -0.87432135       1.58830264      -5.01840228
Na      21.62666567      23.69395627      45.67435511       0.52116975      -8.99523385     -11.56587750      -8.68003556     -14.58890149     -17.57141089
Na      24.87132668      18.58514260      44.05136028      15.31004024     -17.30769153     -12.45873349      -4.77031002      -5.14894087       2.71312158
Na      21.67498067      20.61363790      44.88108287     -95.33660935     -72.85940327      36.36400471     -31.76129769      -2.30802691     -30.03162509
Na      27.03440084      17.31638760      48.71919119       1.26529981     -37.28279035       3.59475347      27.53050838      20.98909355      -7.22483049
Na      23.66829269      17.42132980      53.31821304     -11.19558946     -19.54434379       9.32655541      -0.58760139       1.08646369       1.89468908
Na      21.86400554      23.23985781      50.07825381     -16.38801682      36.73702540     -43.09266303      -5.49202625      -0.69559862      -3.47476315
Na      22.64186604      26.10046837      50.56946496       9.04651086       1.55367010      -0.76877677      -1.74763669       4.45073157      -1.61722469
Na      21.59447911      17.15917875      55.08981122       6.59180496     -13.44183226      15.14948063      -0.75062504       0.12815425       0.28968784
Na      26.64213530      22.96116180      49.78020712      -1.82150749      -3.22019584      -1.46132571      10.97688043      -3.52060994       0.34947319
S       16.28907500      16.75201747      42.91572228      48.93784309      40.85331800      -0.56470105      -3.58154824      -0.17361797      -0.12765233
S       17.57907811      21.41250529      45.32158314      12.92243106      10.21197495       4.04246324     -19.73942117       9.86735443       2.75286582
S       19.67838378      22.63316158      43.43280404     -14.51801887      28.19569560     -14.41344502       5.58781564       5.82415565      -3.87616333
S       17.73563090      16.50520184      47.61716218     -36.84431646      19.49632090      -2.21374278       0.78116345       0.84337011      -1.80953005
S        5.89292925      18.72790492      42.21745250    -747.63670607     776.35485253     -92.51302068      15.36676983     -61.37582822      59.66681165
S       13.92470221       0.93374498      40.87737608     -76.66937537     -68.78140366     -20.00767033     331.72142747    1333.12626319     295.05157161
S       24.95227537      16.28642483      40.84009370      95.40643958      14.58238743     -49.04912220     -29.00097912     -11.66938023      25.68250839
S       17.54375133      11.94933758      47.27510222     106.57770848      10.20681552      53.98648777     -15.50517467      39.92405933      59.73251377
S       -4.95495836    -500.35600507    -341.58049570    -147.55692342   -4376.70307825   -3357.62229927      -1.05897627      -1.73557136       1.39322217
S      108.53645265      72.40866325     -24.58762396     779.44929569     469.14636404    -671.18340024       2.98196137       0.57841209      -1.16294482
S       25.31407867      35.76361190      44.75449760      83.90011565     309.27941306     -89.90839645       1.89062058      -2.88676972     -48.56621890
S      232.45278339     170.01575860     204.98226829    1628.67248451    1201.46639776    1239.06876854      45.58250511       2.01106965       9.40372037
S      -64.92199445      -9.70016734     107.32948130    -699.71056968    -227.70562245     476.21600760      -9.30148443       0.80970973      -0.60600276
S       11.84145513      25.28059294      47.97295421      18.66856263      21.61377923      10.29569152     -40.12578428   -1050.70014137     815.28687102
S     -184.03363017     111.60291990     143.97371061   -2449.05967968     421.82731102    -228.45150705    -198.68723601      -8.14384161     -23.56729057
S     -209.17683286     439.84027696     -42.13172087   -1947.51762716    3518.18205227    -831.95621500      15.59335327     -25.35774210      24.37143475
S       14.91838217      18.87680308      40.94891430      -7.57549107       6.81152141      15.42039739       2.00840468       0.91706188       3.29428095
S       11.34064301      30.01341835      41.29732904     -40.69524289      25.61623990     236.70184572    2131.98919824    1116.54584833    7168.04025206
S       20.76104929      26.54914279      45.47554784     -33.44026243       9.43229909      -4.05203968     -44.55215896      -2.91032776     -31.27393182
S       20.21278508      20.91405649      46.86939718     -20.66604426     -17.79326195      -5.27628263       1.10185414      -0.16134729       6.20125327
S       19.95042741      25.19927401      45.64065654      12.31967521      -9.16221210      -4.87179681      16.17485025     -32.42103287     -27.37128272
S       19.08754847      27.32963502      43.98562246     -17.03726910     -36.17091726       1.13842096     -14.15327072    -266.57841855     120.32264373
S       14.08192074      25.58838008      46.23867764     -40.16222211     -38.14981862      48.63551740     179.90416412    -604.95318644    -311.30891916
S       22.71059996      20.86954392      45.68191780       4.83496490      -4.48651697       0.09543933      33.10762827       8.16965751      13.65948991
S       14.57696919      24.03940764      49.11660222       0.08977535      38.37245891       6.42648129     -11.74448059      86.87620277      17.49405821
S       13.87248206      29.37498189      54.55163966     -20.26405253      -3.52854914      31.44338359       0.06930461       6.75310201       0.83891737
S       18.58176306      23.93730005      49.47032881      -3.82504550     -74.85247996       1.97338493      19.22753234     -49.06720141      33.63264083
S       17.84542380      21.65517250      54.68993871      -6.81252672      -6.92326081      10.07736820       5.84135889       9.00321175      -5.36686565
S       47.73757269      41.76183448      61.57356386     225.56769351     169.69502100      92.84327251      14.57707103      -1.68796390      10.64314478
S       15.07860427      24.03206529      55.90457907       4.22396406     -16.31794890      62.21565411      -0.78817567      -0.34777979      -1.04553559
S       15.65162655      26.14500970      51.68660138      -4.39251017       1.77292625       3.64172165    -108.39294619      26.32902474     -23.37318510
S       35.97710042      89.09973267      40.14982285     288.71975457    1127.46353266    -280.46922277    -278.08057469      36.36950651     -92.16229925
S       23.67387612      15.39883625      42.82607866     -34.53800732     -17.96535013     -11.09775854    -167.04102092      98.42207628    -202.10352555
S       23.24339753      20.57379858      43.18446338     -24.75320098      12.81626269       6.72725366      -9.59269525      -5.44213896      -1.05602244
S       26.53887698      23.60921138      40.48472356     -39.13412295      48.55526728     -50.17307958     -14.96690201      42.32609882     -81.64311782
S       27.76087350      11.62558579      45.75791516     -12.12677267     -40.76935530      18.89898109     -51.33049326      46.06442761     -58.98765218
S       26.76101387      15.58488839      44.80370158      98.18315733     -23.35141904     139.80941103     230.18721646    -253.88677476    -151.41678313
S       30.86661484     -17.74331184      52.29697586     207.40750475   -1409.78289635     651.44040074      -0.74929139      -3.54415303      -7.99455642
S       27.13260080       8.94243697      43.98176722      95.37522298    -164.01259250     -67.80478015      -2.86514083      -3.81632420       2.23328755
S       24.21376905      17.58120001      45.94937502     -15.90911968      24.71430259      -9.11846311      -2.41903395      -2.08651567       1.71903425
S       21.08246478      14.39276953      51.81544926     -26.41242902      74.40171252      11.31562887       9.76615655     -19.02393461      -2.30809406
S      148.02265365     -11.65400171     -35.05696219    1086.39693876    -231.57673144    -720.18929997      54.04520318      58.55363757     -68.05379219
S       21.08809309      28.17907285      47.94801341     -21.38096146      79.83362421     -11.20574397       4.99852678      -5.43129720      17.86950273
S       28.61629467      14.13022156      52.64911073       9.45413946     -16.68286975      -2.23783887       1.56923676      -0.96592386       1.00859060
S       28.13824014      15.18882573      49.61764277       6.34262365     -11.40544363       8.29094928       2.31130909       2.49691942       0.63613576
S       24.98453943      17.44852096      51.55482370       5.88983465       2.38429834      25.26390057      10.11412929      -1.38313315       0.54323202
S       10.56112245      40.57882023      33.70421172     -42.26369042      79.09667843    -169.20171943      -2.65424560      -3.11779909       2.78549039
S       25.84789617      16.68180357      48.87800653      25.80006173      -4.01852869     -14.69061139     -25.17375777     -15.02052745       4.41401252
S       25.34038274      31.28798790      41.93487312      35.99746794       0.78570697     -16.22980975      21.58436785      59.47917784       1.45358495
S       23.52931909      26.58575336      47.33468282      -0.16645689       2.98291121      25.99571025      10.48591876       1.25004487       3.42854373
S       24.22295743      26.09265235      34.02691455     -55.83180112     -12.98347377    -159.34451112      -2.06364896      -4.44437510       7.52740342
S       25.89811018      21.79522730      47.81356628     -26.35284529     -49.00779946       5.61240320      -4.45580283      -2.06251295      -3.25073359
S      166.45804849     150.80988565      12.57356165    3592.81209543    3296.98104412    -815.26775318     -21.37378651      -4.82542822      -2.37851392
S       38.17836183      23.25791945      33.16183115     144.60181314    -136.88019922    -349.31424548      -0.47760302      10.96000671      -0.64930022
S       24.48035654      21.59058999      42.28763597       9.28834767     -23.71164531       1.21832613      -2.06168853      -0.34432086     -24.54996993
S       25.13026348      24.34934853      47.31429719      26.81234030     -16.53844261      -5.33768673      -4.51197219      -0.48079794      -6.06208038
S       23.37047086      13.40649346      48.07437064      -6.69335202     -27.99463245     -19.35594216      -2.96057673      -3.70688377       1.07044182
S       30.02238513      29.08384064      48.94792736    -100.52935996      46.45069511      92.36382114      49.09961589     -18.86251916       5.08243868
S       24.91637039      26.73149294      51.56696660      -9.37690683      12.58764109       2.02471942     -14.13651671       2.73126820       1.69025001
S       41.30285284      17.06923572      56.07320538      54.48028157     -30.85643116     -16.50282273      -2.70436365      -2.46187565       4.26838545
S       27.12369571      24.60988522      50.90196517      -1.69714559      38.89108459     -23.65985413      -5.67228335      -2.13234916     -18.99495755
S       25.38312569      26.18174572      63.17740088     -78.63738561      39.45096124      78.27422776       1.00892132       0.46332886      -0.01624848
S       23.70534228      27.67956196      48.90671369      -6.73919430      -8.78559449     -31.26152568       3.35318419      -0.20642943       2.40771470
S       27.75772041      21.02128619      53.07190342      19.10899924     -17.45081771      -1.60688261     -22.07006819     -23.65331725      29.43282907
Sb      59.83189619      43.06451699     -41.12464575    1757.48577233    1355.72480109   -3803.90426607   12358.50948798   19005.12775037  -35901.31935580
Sb      17.64698055      17.87989802      45.76553385      33.20156445      -6.17260286     -25.34907989       0.06000671      -1.82015915       6.92524434
Sb      12.65055429      34.12161780      47.14885255      39.75752608     -37.48442617    -103.96414483      15.36260471    -608.37337384    -264.87008498
Sb     162.45806995       5.12605225      56.13926894    4644.43807431    -414.50395220     144.59474262      21.29734704       9.25677605      67.96052719
Sb       4.86401468      26.65161116      51.54035195     303.32617465    -191.01476871     975.19039204      87.58484751    -229.55768090    -117.68787219
Sb      17.27873332      25.38263763      45.48680482     -19.99199855      -5.85224119      -7.75428843     -41.01747445      10.34356036     -32.52682999
Sb    -168.21554693       6.77877343     518.54045435   -5127.21600271    -355.54089130   12876.26174902      21.81229072      12.10132120      -4.20435155
Sb      16.88356627      23.33686889      52.99656883       8.40047898      35.41855918      45.32306511     -30.16740971      -7.02017801      32.14475692
Sb      22.15322181      30.00970506      39.66409239      21.18031095      72.77525628    -186.25481580    -115.76351294      -4.85845322      31.18520481
Sb      26.11505668      16.33332796      45.22709116      23.65432352      17.49525382     -31.30776560    -221.25782012     251.49042113     153.03801529
Sb      20.90780490      13.64116085      49.08948631      32.62418396     -10.30185870      11.40054176      -4.87966987      42.83924676     -49.14694450
Sb      33.64051614       8.12658262      64.94959034      69.79293975     -96.95326393     233.21555721      -8.63128824     -26.96245692      26.69836155
Sb      19.21110853      20.15827112      42.56909097     -53.14753462       7.14613642      -5.00703149     -84.54229951      92.14422571    -195.42805144
Sb      27.88303846      26.79386450      45.06013907     136.21585647     132.35267048      -9.22221169    -143.48753617     -56.18390762     187.79029452
Sb      18.06239849      22.31946787      50.90560614     -19.05984958     -21.73890702      19.47030477      -0.11598537       4.31419013      -6.24070493
Sb      25.07445038      24.56207458      51.44847184       9.90640627      26.87355348     -46.19900477       9.87448270      13.21124239      10.43463194
Na      29.29477693      20.35542176      54.88777634      11.99010071       3.02180203       5.00448556       0.43234882       3.56887696       1.99914401
Na      15.55094057      30.26045518      69.13155166       0.53229716       5.46516032       3.26370378       0.71705021      -1.47149390      -1.38506759
Na      33.85592496      -8.44429969      29.74311958      92.90775886     -78.09024456    -199.02818801       7.02913466      15.77806247     -42.49871313
Na      24.45292767       8.56560677      56.48241500      77.29034744     -85.80084342     112.04626683       7.61774729     -11.52518636       1.11609375
Na      25.39361891      29.10037014      61.80508305     -23.76143874       0.24644772       9.69884124       2.06382264       2.90759169       3.20859704
Na      15.46123171      28.99030956      62.05407158     -19.72113842      67.31355812      42.95259379       0.03868257       0.19162816      -0.26795446
Na      12.94286052      13.69729049      73.04493310      12.35863610       3.87656833       6.75498768      -0.75823655      -1.97018821       1.70541091
Na      12.16991944       3.44055943      81.30405893      -1.49902531      -1.54444293       8.14297928      -1.46513933      -2.78439634      -0.81772521
Na      37.26739811       9.24533827      70.98741342       1.01729598       1.35596922       3.02832039      -0.00239223       0.57231194       0.30389754
Na      22.78118621      21.51426827      72.11564983      -6.70129234      -2.11291217       3.90992261       8.74510554       6.84712411      -0.83018023
Na      21.00067355       6.77713052      74.13745955      10.08370288      -7.07637889       5.40710908      -1.23491436      -0.37116290      -0.10610299
Na      14.23158898      18.82659998      68.18006732     -53.90235154     -29.72583862      -5.85517224      -1.79668442      -0.27596310       0.30941424
Na      33.80894723      23.76848834      58.32992620       1.59579704      -2.33731126       7.35404480      -3.58580510       3.93640958     -15.59672567
Na      12.15489565      36.62910973      53.76588296     -17.98215380      45.08433304     -16.97832786      -1.25030746      -0.22846329      -1.31940030
Na      23.42523624      34.50807036      68.96844908      25.19787990      43.87290478      39.90727836       0.97536156       1.32066425     -11.12259749
Na      27.00618720      18.42253843      54.40056656     -17.72453620      15.05278001     -18.43393248       3.02012069      -6.84481775      -6.42680100
Na      26.55614655      23.21691561      61.40036578       2.74727906      14.73460856       6.66010164       1.35391534       1.60716693      -3.61312022
Na      20.43758968      15.01723946      47.71255969      23.51419978     -51.46958850     -45.44876092       3.72076938       7.08872160      -4.61501527
Na      17.50805062      20.42838119      56.09089916     -19.18587340     -23.04752963       1.77186989      -1.31403029      -4.74709038       5.74043464
Na      13.52987187      26.52315808      64.01891769     -11.20784238      13.23077264     -14.79480365       2.90792275      -1.16165209       1.11948052
Na       4.95903641      14.02634181      75.72295987     -13.18016880      -6.82141722      14.16067454       0.02419884      -1.13363945      -0.52199391
Na     -69.72326452      78.24063649     177.59589148    -664.79244121     366.72398900     730.12218866       0.48925942      -8.79553580      -5.88889227
Na      20.30047958       1.20598270      58.30661191     -56.08709439      23.81220916       9.04038841       2.30089331      -3.53095161      -4.85174885
Na      17.79142064      13.32548827      60.58236954      10.30495846     -37.79287231     -12.29082338     -13.68428328       2.88643430     -11.04531487
Na      -3.78150533      33.15496851      57.74743666    -160.11384478     116.87654636      45.85153888      -0.33008794      -0.83771841       0.66521668
Na      29.54767282      26.74051732      64.70348858       2.43019536      -3.73942461      11.38789419       2.93507351      -2.36472496      -0.00568240
Na       3.49670433       9.53235804      54.11603787    -101.55600551     -48.06440966      -1.87874417      34.64608882      -1.98394937      -5.00535934
Na       1.80835308      27.99933819      51.57053798     -90.46082290      64.39901525     -37.40969385      89.09317420      45.12389084     -37.41940180
Na      19.34455004      30.06237784      55.28456895     -62.18570848      26.73359607     -21.02806107      -0.33386346       7.68516821      10.78457956
Na      25.08872452      14.53815781      65.92898578      -5.60669293     -25.41556002       8.95666818      -1.60578696       4.87623146       1.94200060
Na      17.36208462       7.46017465      67.12256165     -33.21611429      12.48394810      -5.25959220      -2.28031912       0.51277822      -1.79149884
Na       9.83998296       8.39423618      75.22438966     -15.16466404       0.05481438      -0.72600901      -1.36844214       0.22109436      -3.52770064
Na      14.72042844      24.08394721      83.14300241      -7.87168909      13.76977469      -1.38647252      -2.62702980       1.20292544       4.72237326
Na      20.91076072      17.69533153      73.65262176      -2.15103453      -3.20262151      17.17084979      -0.94863007      -0.76274422      -0.38578584
Na      26.31880962      29.23450323      70.09466722      -2.25762465      -0.98434564      -2.01527048      -1.95911391      -1.10547253       0.37937397
Na      23.00375155      18.79598692      66.83053037       1.50311620      -1.67669943      24.67974420       1.05261028       2.28798384       1.59745588
Na      19.75959224      24.73174481      54.34813969      -7.16167486      13.26380353      -6.76970283      -3.77524848       4.74932095      -0.93207150
Na      15.17214416      19.18269217      80.65732148      -8.15668199      -9.20265052      21.92865821       2.30306288     -14.36204440       4.34039041
Na      21.69268672      27.67717598      54.51687246     -47.61622043     102.54950236     -75.75952831       4.19281020      -7.07196834      -1.60506658
Na      19.88998989      47.55985484      78.71534579      -6.06947393      87.62020126      61.14260789     -18.57492294      -7.45245445     -10.89705265
Na      -7.23418876     -12.68865233     -63.44839610    -163.56486463    -193.99524766    -740.15672840      -2.15935736      -3.01095071      -2.61620554
Na      22.74898276      27.19231354      57.85193268       3.69163668      22.58253443       4.25867978       0.72324585      -0.23110750      -0.25382656
Na      20.05864950      24.53717370      65.12548768     -15.75779148       0.69014094     -15.40720683       3.33094817       7.13923384       4.76915240
Na      -0.96664886      -4.71951997      93.00572534     -15.04277583     -22.96687955       7.97113830      -0.22891833      -0.30486111      -0.18494156
Na      30.70794255      19.42260433      64.53609387      -2.16617449      -9.61804702       6.88024106       3.42843792       0.11285397       0.48743615
Na      40.00988637     -10.94808530      70.44037856      -6.56362912     -18.12313452       4.61100147      -8.42619022       7.80470046     -20.51712841
Na      34.12516360      27.08520465      71.26788192       0.24981392      -1.56679594      -5.93288198      -0.96520954      -0.13898702      -0.76923139
Na      21.53787702      26.28791661      70.18875178      -6.75903812      -7.51688762      -0.71750141      -1.05089112      -0.78737053      -0.14791752
S      523.41124974     203.20704154     240.20229135    4300.62093156    1554.97846785    1600.21417465    -182.25505020     -26.95323838      -9.00155434
S       16.57021691      16.09320692      66.38431481      -9.18721243     -30.75340548      27.17402216      -1.09841151       1.36173798      -1.81167015
S      295.41640403     105.47488658     360.73004187    2385.97843481     754.52959944    2610.29123781     -25.54131876      30.05982982      17.65712827
S       18.24721798       1.01977658     -57.49383798     -24.86111179     -95.71385607    -882.71394591       8.24555841     102.60048152      91.34645869
S       23.42196754      24.38922885      59.67223526      45.79065870      74.90688099     -30.84842050      -0.02225891      -0.14186525       0.42189224
S       18.50127884      16.14911299      59.92168938     -18.62540833      -4.24366620     -21.09094506      -0.05656222      -0.95006222      -0.58871096
S       10.28802006      15.18184355      61.39148740       8.10243763       7.68979415      -1.40011993      21.45695777      -9.62030776     -20.91867141
S       20.05234159      10.73136978      72.81792765      42.32347884     -43.16209648      87.20662053     -10.60846147      -3.04168171      -4.05424491
S        0.27371609      24.94308240      77.48781206    -113.89262640      66.30691631     145.49736593       1.46653680       5.73655688      11.22047353
S       13.22553449      18.56556372      80.09252987       1.98307110      -3.70511818      18.93467838      13.36531219       4.66634778       2.42744545
S       18.75040007      18.17537536      71.74012913     -14.67398301     -16.12897996      80.84090883      -0.87999079      -0.72059391       0.26725878
S       95.05031740      -4.94059503      67.62394893      57.93775779     -34.38327513     -27.91175663       0.73700780       0.17234772      -3.27769669
S        8.84526627      27.83587004      51.34616486      18.74676762      15.61703489      -9.94326697      67.15503434     -11.86648792     -14.93839735
S       21.83150132      21.41578625      69.24765759       1.06226361      -0.56009939      17.41523058       0.04074187      -0.72659153       1.27671351
S       15.04934483      16.78687267      64.39925231     -19.82458709      49.97782003      29.81011621       2.94238129       1.13900367       0.88210419
S       13.52533284      21.08131032      66.80085570      -0.95037063       9.52997946      -9.99341018       0.32564879       0.44000391       0.36829293
S       12.23827093      29.60744171      73.89103104     -23.12782457      77.02131767     124.87027925      -4.36966080       3.98703497       2.42550274
S       34.63793515      47.37410502      63.35614513      33.23057019     129.31341275      58.93364846      -8.73705803      -6.03190715      -3.23710992
S        9.29342641      14.27842548      40.07340080     -40.46133770       5.77270293     -26.62599380      -8.12221816     -21.33650186      21.05161495
S       54.35388817      23.69625043      72.83962783     309.66266641     -52.07858068      63.32571017       1.17246018      -4.02389909       9.47504731
S       18.49455322      12.46829954     269.48269017      14.65031675     -60.82486093    1125.59765350     -11.33134231      16.14168355      20.59274033
S       66.51138056      24.42131469      95.89952935     260.38186142       9.19565991     184.09858420      11.21409611       0.92087447       2.00047185
S       27.70835067     -61.60103053      65.12843882     112.09455061    -669.80254887     107.21635618     -48.82204210      59.82293348     -22.05076539
S       12.70179754      15.96590587      51.50005295     -27.61796252     -25.48099123     -94.98137095       2.54268359      -1.82774427       4.66115493
S       37.33316844      28.39106937      61.61454177      41.82465812      52.33807353      43.59156107     -83.32225233      22.40724151     -45.34573912
S        8.33113458      18.98994685      76.43659842      -4.15215492      -2.76581390      -4.19861551       1.83705742      -0.77250114       2.44356246
S       11.97853681      20.47077596      71.79716120     -37.01574054     -13.32576301      18.44449435       2.37363773      -1.05575755      -0.69095937
S       18.65634346      26.72382518      76.29749707     -12.33906931     -17.01812261      34.58916117       8.74823462      -0.37868326      15.48214664
S       25.16724633      21.13094171      66.86649602      18.25231016       0.07490738      -0.52495357      -2.11647177       8.84229841      -7.53921819
S       -3.49482331      20.19588337      75.91576548     -11.47350617     -15.94975092      -7.80390929       0.76888221       1.15310348      -0.58169054
S        4.00222738       0.82202092      55.41946880     -28.50910350     -18.96852494       8.50401568     -15.90364126     -80.89135871     230.72773500
S       16.62715005      20.21034927      62.40912636       7.16342166     -11.94081060     -28.66898800       0.21683641       0.43318606       1.76034085
S       28.22158748      18.35022178      68.98196025      40.02021187      27.08988041      59.12961083      -0.13366380      -0.50184385      -0.14198321
S       22.99273601      24.62790766      62.79256366     -13.82833710      10.09026366       4.61314576      -1.30953737      -0.79573891      -0.41331874
S       27.30879746      19.37958291      59.31372524       9.92016803      -0.80586719      13.95689079       9.32097186       1.90063408       0.35449669
S       34.27834473      24.77229487      59.18247645      42.30853260      52.88655838     -61.49691968      11.30504677      26.16849912      12.31360309
S       40.91596382      24.49023183      55.49538832     102.56274276      90.30307033      11.01477263       1.68845253       0.08315212       4.20038353
S       26.86860215      30.99898846      58.80440393      11.95046187       8.92995805     -13.96827423      -1.23326141       0.36165010      -1.35220708
S       26.13661101      24.97252541      55.48814495      -9.93875302      36.47208254     -33.81797807      -0.12256457      -0.97789215      -2.96227718
S       22.59968353      13.50890875      63.20409919      -0.64508634      -3.39889280       1.20665976       0.98079627       2.16680002      -0.80569627
S       30.42405937      17.83862894      59.44110826      -0.35007688       1.86430837       0.54681642     -12.56919199      25.49277631      15.46473255
S       30.10218649      20.26110950      72.56091316       9.81136520       3.31135831       4.17383614      -0.80194323       2.58220919      -0.68500184
S       20.47629142      26.75845589      68.10476948     -46.23531777      96.86934164      78.79781765     -12.61538645     -10.68142628       5.98363504
S       34.64748791       9.20406243      64.35003530     -47.85337398     -55.44204793      -9.49730497      36.85324986      10.04540238     -24.00629078
S       33.48313515      19.49146309      53.98267518      -2.84760154      64.40471478      12.47377054       1.29886862      -1.19233353      -2.16049760
S       30.70121265      -1.27246739      57.58743273      41.75979298     -17.37190211     -22.67304581      -2.80665006     -24.28822934      19.49931445
S       25.52321340      19.85089278      67.89657047      19.16251835      15.85718951      -0.54331317       2.64798029      -8.97271430       6.58024249
S       21.83574452      20.03279446      70.97220930      18.71382517       7.24948877      44.54222782      -0.69548851      -4.87252709      -7.91076147
S     -247.98438359    -136.02568757      35.28352770   -2259.09669837   -1301.02601458    -179.43450410    -348.43362295     578.63679262     -93.64585351
S       33.45256865      14.33660389      60.16405657      16.76285176     -85.84446751     -26.77544189      35.86863548      -5.08861355       1.33787307
S       24.84005634      27.89580662      60.31925698     -75.30602533      40.69972650      37.26995146      -2.11268123      -2.30175647      -2.93090484
S       28.56717944      19.75865811      63.04873780      -5.07560528     -15.77495102       5.06299585      -0.15478709       0.43627171      -6.46109116
S       22.30855393      21.00543961      54.14516780     -56.83812027     -34.11863882     -31.39728320      -3.20252618       3.41531105      -2.82737798
S       11.13084936      29.69445011      81.72058583     -11.79820373     -12.79119553       4.74506090       1.07993565      -0.51928028      -0.87094008
S       12.36905425      21.41260659      69.98084277     -86.91277483      13.11757171      55.50742607     -10.20561934       8.80165215      -2.93114875
S        9.47536572      25.68558975      61.40355551     -69.60986094     -19.12383292      13.03656371       3.98943705       3.78935161     -63.21892699
S      -33.03473880      25.88653500     -30.80936946    -227.85253634       3.38443567    -506.21998039      -1.08251586       3.11724535      -3.48061024
S        6.55689108      37.72390544      82.08946559      -1.02336392       4.62147985      18.62343194       6.49623403       4.42000219      -0.84364970
S       30.01098961      29.81204893      50.66102714      23.18381001     -33.42944833     -14.55960936      30.99521124     -70.58081121      10.75721781
S       19.13877117      30.40393596      68.07717640     -23.91734396      -1.83260193      20.23182656       2.34750321      -0.50383544       1.28085337
S       19.81653690      12.22298788      38.68054915     -27.34904788     -14.37463772     -14.11456025      -0.76136794       5.26359649       0.49256321
S      287.82313511    -401.65363224      94.25557333     189.91617896    -215.58804182      41.46515481      -0.01845558      -0.74953974      -0.11249039
S       32.44467924       0.19547284      65.46797153      -2.19968116      -7.63057555       7.56506404      -2.17225703       0.64703114      -0.20956068
S       10.34225049      44.32356590      93.07769626       8.24156192       4.01966518      10.21017956       3.94283737       3.30996346      -3.38211783
Sb      13.31901396      12.09063946      79.26100301      -7.07334015     -19.24782348      24.76747706       0.02979238      -0.19860766       1.09772615
Sb       1.38570917      27.72874316      34.30482253    -506.41058916     358.34379890    -444.61183812    -607.30680436   -2885.03260567    2893.81933379
Sb      11.06974075      35.01040774      50.98433275     -41.65329253     225.30025474    -168.83192779       7.62109466     -36.70391841     -47.99999261
Sb      17.28606710      16.63341719      69.73059244     -30.20783264     -34.17194602      39.43003602       1.38963532      -0.07234340       1.00497648
Sb      11.19652781      24.17451045      58.15046005     -30.19021209      52.73731404      28.26998603       7.19873542       5.27284984       2.13504054
Sb      26.58008692      19.75313443      56.02696830     152.56085741    -100.46546921     -82.30857091      -4.54669056       2.21900706       2.43673819
Sb       6.30817083      23.49315465      70.02515132    -204.73324842     174.80734241     230.97206355     174.04118210     -20.03889854      84.81400640
Sb      16.40674170      18.85513322      66.73232162     -40.69629143      19.21248963      50.31175379     -17.21163320      -8.49777847      11.42212266
Sb      18.61621123      47.96956821      38.94475310    -220.16303929    1312.65443757   -1238.26430655     -82.99093814     -23.93101962      83.93586007
Sb      25.66966229      18.30378757      59.01717063      22.04936595     -50.98937807     -73.38844676      -8.42512229      -4.33857408      -2.15490044
Sb      21.73179135      11.61676634      60.89034407     -33.57018412      -2.46815931     -21.96828299      -4.20728172      -1.07277384      -0.42517924
Sb      28.39825795      21.68076197      70.94135687      -1.42159549       2.90955369       5.59454336       1.61383006      -1.49637956       0.93459973
Sb      20.23606237      22.59076928      54.00378438     -20.25753976      29.39027273     -47.61931513      -4.37654966      -5.16831057      -0.42732363
Sb      23.15014765      19.55918008      55.47117497     151.45286810   -1294.80807385     219.54592312     -15.99056237     -16.23266095      27.63298175
Sb      20.69818731      23.25306122      63.18368164      15.62876035     103.81397022     -28.59406609       6.21306703      -1.10965164      -6.10713591
Sb      25.96371761      83.04328157     122.85800246     422.04832197      62.28268998    -146.25290244      -2.15060390      -6.99941424       6.62597792
Na      10.59066479       2.79184277      63.79210879     -20.60453311     -21.50519795      55.71851459       6.06505836       0.93039532      -1.73829912
Na      -3.06229563       9.62838774      71.26094598      -3.35171656       1.48955659       0.76072248       9.61381138       0.10174872       2.42891338
Na      -1.45598155       6.77315842      80.50959022     -10.68358600      -8.33815989       4.66705302      -0.35609832      -2.39629340      -1.41297724
Na      46.96872653       5.58477913      11.02176220     141.56277298     154.33232395    -259.53776196      15.23004429     -20.78160541       9.66947328
Na      -3.21773301       2.77650796      84.18945673       4.22241977       2.98192111       2.61502026      -0.39861425       0.29182469       0.84853899
Na       0.30506096       8.42625611      83.03844452       3.75696550      -0.60224918       2.44649580       3.67605735      -0.85696361       8.66497004
Na      -0.94197363       0.40660829      85.13232293      -1.37582720       0.48813162       2.31003486      -1.51768248       1.39341095       3.85034915
Na       7.41323055       2.02780347      91.00122422      -1.26865855      -2.56812560       0.93143602      -0.34307366       1.20160389      -0.56969628
Na      -2.97284116       0.63143867      90.88927085      -3.83665997       1.85612290       2.97959037      -0.08558605       0.18544312       0.15566422
Na       1.83252004       3.41191455      91.98342288      17.82755438      17.80187549      10.87345583      -0.13244538       0.53348087       0.86918075
Na      -1.25070711       0.26829217      94.96669318       0.42162963      -1.57235106       3.03382811       0.33956508      -0.13951598       0.75934736
Na       2.21102576       1.52811270      97.30503554      -0.30309323       2.41738682       3.40487589      -0.55653450      -0.91057870       0.52970641
Na       0.07503011      -4.47390884      75.97454192     -14.13746831      -7.25881034      -4.98240320       0.21906938       4.39616433      -8.13469706
Na       4.47506731       2.88224015      59.34963635      -7.03151310       8.81399566     -34.21574951       0.22190167      -1.48729313      -2.28634043
Na      -0.99552626       2.87057424      77.30145533       2.10036222      -6.82751187      -0.92602040       0.08162685      -3.56845822      -3.57407530
Na       5.77369413       8.26992763      79.02075243      -0.01653941     -10.42715456      -7.48024099       2.02584392       0.24867818      -1.02708720
Na       1.70028504       4.44703076      82.30945747       1.38935649       2.59792408       4.40025630      -0.93594898      -1.44993942       0.96179305
Na       2.72678251       5.95010135      83.52774845      -4.04024216      -2.87301698       0.61667167       0.01639912       1.25182616      -0.15748255
Na       0.71922708       3.87284757      89.15765079      -2.18427407       2.92732956      -9.37523942       1.74953720       0.14742627       0.68020163
Na       2.35009390       6.33349026      88.77043397       0.92634434       0.01311240       3.93363948      -0.02317712       0.74641716       1.27764261
Na      -3.51792445       8.38009213      92.01910298       4.78305603      -1.35906498       0.07792645       1.40516195      -0.84299817       0.67601611
Na      -0.73197608       5.83951908      89.66604880      -0.00411074       4.05062186      -8.91045059      -0.05256167       0.76413107       0.63188110
Na       5.32256613       4.74222049     100.24416326      -0.40350003      -1.13601300       4.36350029      -0.00452786      -0.07900033      -0.61828330
Na       2.31992064       7.43888895      96.87175140      -4.68612915      -7.34118318       1.15305538      -2.76748509       0.69061128      -1.45633190
Na       0.88731526       6.96739071      74.88049522       2.59360812      -6.78544989       3.71948584      -0.52152712      -2.50467814       0.67411752
Na       6.53910996      14.46502256      71.62383069       3.65898252       4.28098133      -7.35669921      -1.48379410       1.14226253       2.23414706
Na       2.36213564      11.33602827      83.18926829      -6.63193516      15.99295506      14.91956509      -1.17267845       1.15815160       0.08999629
Na       0.04226986       7.17115195      78.32395512       6.29827722      -5.98704939      -0.76521914       0.15610184       0.41340522      -0.59920337
Na       4.27460019      12.52687812      80.45068214       8.06987475       7.41761790      -7.42766381       0.71723026      -1.11551785      -2.79813294
Na       4.87545718       7.40230364      86.67838596      16.55480289     -35.14767606      24.74337755       3.42435708       5.27761197       2.39003501
Na       1.04915999       8.09437496      86.55265576       2.53360345       4.25170283      -0.31597199      -0.40506777       0.90067437      -0.51528667
Na       3.05872632       9.59105502      88.52604794       0.38661991       2.90489993       1.83734646      -0.20267179       0.43032231       0.60362617
Na       4.33869895      15.81975670      90.81241452      24.57060161      28.47683336      25.86749052      -0.22189530      -2.34236612      -4.94516698
Na       2.09131761       9.25539329      92.48150554      -1.33628285      -7.11420135       2.12372247      -0.39702870      -5.79946937       1.40388097
Na      -0.17007295       7.83703641      94.29130012       0.65357214      -5.99450006      -0.62431308       0.50246179      -0.71931957       0.04789306
Na       0.55102646      11.20596156      98.71629288      -0.26155494       1.19580931       6.93682566       0.00610208       0.19746989       0.71625095
Na      -4.85554236      12.51322141      61.14652582       2.64036612      21.40906305     -18.84270182       5.18027000       2.43607331       1.28795757
Na       0.41215294      19.84793799      80.15885424      -0.86728573       3.15181423       4.46009264      -5.05984733     -11.48251890      -1.37995785
Na       0.85428617      15.27188201      72.79169892       1.11919882      11.99206453      -2.77274249       1.17205071      -1.23665674      -0.51393168
Na       3.06973213       9.23965211      76.06874874      -4.78500007      -5.06995997       2.23569674      -1.13849424       0.70273320       5.93428096
Na      -1.64169099       9.55300220      81.96734544      -7.12611204       2.03148172       1.95559367       0.49724688       4.90157107       2.42749421
Na       3.45817566      12.49706734      86.47791624       2.15127828      -7.40820749      -1.38024189      -0.15531294      -0.29153878       0.11305299
Na      -3.41732460      14.94472346      84.58928134      -8.33680500       9.97049127      -1.63801156      -2.78203966      -3.51671618       6.12722742
Na      -0.17968752      11.72508791      90.18160892      -9.81907448     -13.17395759       1.98747061      -0.86511555       0.46518359      -2.46625787
Na      -1.60068357      14.29412902      88.88696008      -3.19421615       1.46899100      -2.68848705       0.04113543      -2.74440518      -2.82542598
Na       2.36902412      14.49701231      94.52553782       7.76882226       1.77940829      11.75306244      -1.12480524      -1.76627161      -3.40461046
Na       1.67079308      11.68931585      95.85914056       9.04178286     -11.07814784       2.40567673      -0.30314570      -3.10993036      -1.06573538
Na       2.49183591      14.35063056      97.26965185       1.06673161       2.46102869       8.03369403       0.13881359       0.94446402       2.63794060
Na      -2.04320146      19.73631459      73.29150745      -7.50919909      10.56890239       0.82636857       0.31014958       0.27984500       0.52126518
Na      -5.38588412      19.03168962      74.81343202       1.68464280     -14.33893635      11.76123699       0.05289131      -0.21373318       0.47801434
Na      -1.21218078      16.50483846      73.42806906       0.96702682       5.42387173      -5.94778837      -1.65925316       0.00501036       0.36482879
Na       1.55903354      19.10310709      78.58601945      -3.48226598      -4.81521878       0.52854642       3.39823980      -2.15495633      -3.10111558
Na       3.23494987      14.04184096      78.01193117      -7.41953680      -0.19941960      -8.84466793      -0.48366174       0.33410136       0.16912278
Na       2.36463621      22.75937778      89.88757381       0.04642146       5.59276420       3.83683475      -1.58327040      -0.41614601      -8.20316513
Na       0.73810220      15.47610903      88.81682364      -0.48690598      -6.27647001       3.42363657       1.79761977      -0.31356621      -0.78264672
Na       0.72645923      17.83135877      87.38268272     -13.02587737       1.17188992      -1.43256323      -0.46122944      -0.09514053       0.12548597
Na       0.96341160      15.03987010      91.40387181      -1.83295745       3.68238445       3.82343535       0.18346596       0.31147123       1.20331023
Na       1.02174519      17.71657165      93.17645810      -1.91096712       2.59388082       0.37113867       0.87798809       0.91727240      -0.81963430
Na      -0.38768479      15.82337824      94.94657771      -4.76206545      -0.00806784       1.86377146       2.72104536       6.16640996      -3.87527437
Na       2.23593095      18.42617132      96.74546053      -0.38058677      -1.24977938      -0.64279703      -0.10847720       0.21197848      -0.08615181
Na     -11.12637860       9.83811085      68.15628250      -1.20356263     -12.07248401      -3.51695427     -12.02651262     -11.20650188      -2.19782994
Na       5.16442353      16.41345788      75.43620184       1.80262230       1.76165802       5.84316891      -0.07218253      -0.76918322       3.40786684
Na      32.06505368      24.44765765      45.55512317      71.16190206      34.88982670     -73.51201088       0.09470601       1.83882531       2.49504824
Na       3.53953515      21.55624672      83.72962559      -2.69163453       2.77648096      -1.42978675      -2.55710588       2.59611246      -1.35511842
Na       0.70087913      20.26717438      82.50012771       0.91669471      -1.99189367      11.44964949       0.76304604      -3.28574306       4.91010802
Na       0.98511704      22.42265109      83.85821507       3.32049180       1.80526771      -0.39978338      -0.43516366       1.26267114      -0.12064754
Na       0.56459397      20.73103256      86.13278962       4.27474087       3.47158961       0.27233828       0.13299503       0.43575972       0.50367735
Na       5.51240033      19.80677144      90.72949477       2.67984138      31.39826118      24.73972554       1.10299760       0.98124190      -1.84211529
Na      -1.40092495      15.77193326      90.07105310      -5.24018787     -18.20120061      -1.48155221      -0.17445621       2.70232527       2.84737783
Na       2.31599843      22.55363239      92.60943343       2.06747580      -2.94708326       5.09897013      -0.63926251      -1.32341741       5.89028189
Na       1.08539951      21.69843125      94.17356381       3.07592384       3.05038205       4.43054475      -0.89241469      -0.69932618       1.53114051
Na       0.23696927      20.15181403      97.58058693      -4.46076319      -7.80394334       6.92832774       0.43844122       0.56052859      -0.17259806
Na      53.07491341     -31.28385782      -0.98598604      -9.61289849     -38.16163128     -49.41616684       0.39117896      -0.15413936      -0.00798869
Na      -7.16897903      27.84752998      67.27317683       8.66388408       3.09410073       0.83569255       9.69649424       8.91093487      -9.43175238
Na       7.71491011      35.70276051      44.63790180      23.99862278     -15.96972939      29.61544007      54.82147372     -27.46039470     -49.93000842
Na       8.91756092      24.09357066      88.31807269       3.20237889       0.48384865       3.35828528       0.39118948       0.42164970       1.95835722
Na      -4.30151785      22.22587544      87.09830484      -9.81102492      -3.17212159      24.32056059      -0.01402990       0.71008382       0.01660315
Na      -0.43502289      32.28378293      86.44897772      -7.04292350       1.96074790       5.54784540      -0.87280773      -0.34668224      -2.10624457
Na       1.23008690      24.87015032      86.25103478      16.23281624       5.28722211     -22.99547710      -0.91212551       0.54275455       0.02359083
Na       2.28430627      28.22442058      87.38940957       3.01273980      -1.03988591      -0.86405294      -0.41609928      -0.41268229      -0.29806142
Na       0.35681336      23.50794551      90.42597976      -4.61915339      -4.68033567       0.45634305      -1.76592944       0.40385376      -0.31519814
Na       2.36415383      24.93588950      92.87929415      -3.03601079       1.25168905       6.62269175       0.02711424       1.80591729       0.12444701
Na      -0.52901271      25.74471889      94.96928046     -10.00134784      -2.08305067       5.63976676      -4.88859116       1.51399092      -0.64246059
Na       4.56316542      25.65925808      98.36874221       4.93869243       1.86096508      -0.35125649       2.51563724       0.76080267      -1.06038818
Na       2.93791059       2.57527890      71.01445438      -7.44829303      10.86359524      -0.68487595      -2.18786524      -2.41868605       1.94378990
Na       7.68463411      11.30805642      77.73999194      -1.47598833       8.92962340       0.46977564       1.70599646      -1.73607080       0.69346907
Na       1.48999323       4.83896602      79.99274319      -0.08397665       2.41227591      -2.01533607      -1.21001932       1.96850238      -0.36620529
Na       6.92302282       1.82698825      80.39102692       2.71802706      -5.84719624       6.40684523      -0.70336212      -0.25036215       0.69301028
Na       8.78047426       0.97532827      82.25451518      -1.24155538      -3.66052640      -6.24282481      -1.70559043      -1.14480730      -1.81858662
Na       5.81826591       3.02188945      87.81314405      -0.65524133       1.91553134       5.30611755       0.61365313       1.19961206      -0.65860882
Na       2.82628550       2.33956726      86.72928056       3.20466525      -1.04069879       3.10121957      -0.70715027       0.03139893      -0.85460617
Na       7.91559286       1.43082750      88.86144433       6.14989950       1.33812450       2.81874132      -1.01902548      -0.59236834      -0.55709649
Na       1.16497742      -3.08637620      95.46014450     -10.30800225     -12.16437660      15.51585165       0.39345729       3.53449845      -1.48043306
Na       6.40379880       1.53418357      93.30523440       0.50160742      -1.42372271      -4.09400667      -0.90862700      -1.27928342       1.79110741
Na       2.41660048       2.03049976      94.61539994      -7.29253985       3.30349830       7.63586460      -0.04656356      -0.82057487      -0.80642809
Na       5.31373910       2.04588975      98.43051309      -3.15480930       0.28808553       6.75569102       0.41509679      -0.10560188      -0.25182081
Na      -6.90016830      -1.56668028      79.00323870      -2.92638780       3.37791703       5.98702692      18.06289787      -2.45261855      -1.16981428
Na       0.39751290      11.70882663      76.44484080      -5.45337798      11.94647362      13.91907172      -0.02547102      -0.66738447      -1.24357542
Na      10.56357618       7.20089096      77.03960513      10.19640121      -8.01186453      -2.24294318      -5.05515411       4.81442502       7.52567201
Na       4.15007987       4.20421186      80.77853284      -7.35792574       1.64456885       6.59356580       1.02321667       0.25550050       0.45634882
Na       4.86562101       3.70442907      84.64910080      -2.19779020      -2.39335814      -1.30616900      -0.31379409      -0.42456053      -0.65856724
Na       5.88613904       6.88110098      84.49042269      -1.48514708       2.73169323       1.77491717       1.31521060       0.77873001      -1.47436409
Na       1.79646642       5.31374768      86.43392327      -1.80568091       2.72600862       2.50287026      -0.14372940      -0.61054634      -0.00488777
Na       5.60621342       6.03812594      87.97268724      -5.51020176       0.16540466       1.09060168       1.13064992      -2.14783378       2.75991855
Na       3.99297192       3.78739191      90.26400199      -1.32676139      -1.79710911      -0.33213719       0.90528877       1.11600209       0.16569736
Na       6.86989899       8.23026775      93.96658469       4.27652289      -0.87196145       6.95699604       2.48226920      -1.18651858       2.56721474
Na       3.97405999       4.84284917      94.86567919       0.34286569       3.10400715      -0.63005624       0.72820186       0.17727431      -1.54281462
Na       6.40426725       6.48048488      96.59753603       2.86622049       1.85106310       3.89139694       0.76733483      -0.16839521       0.65544819
Na       7.24484460      19.85897253      74.75328299      -2.83682754      10.42245095      -9.25413363      -0.48377499       3.25037910       1.40994481
Na       7.78969812      19.78879674      59.49151309      -1.25613492      -3.96875656     -18.19848175     -11.33880581       5.26487877      13.13452108
Na       6.50574968      11.62165926      76.35519852      -0.31574259      11.26488276      -6.57911894       2.47276612       6.80837706      -0.84946369
Na       6.32285954      12.93162506      81.59703754       9.61720606       4.08985928       3.93835481       4.40465591      -4.17154529      -2.18126194
Na       3.44763019       9.36902311      83.66888621       0.60872296      -3.26567789      10.43808586       0.22012399      -0.77430285       1.40881158
Na     -72.49454850     -88.79979081     102.93590895    -128.21043253      -7.00299014      39.24557763     -17.55479816      -1.51460767     -24.63898227
Na       3.81020787       6.70195826      85.98352179      -6.12184755     -15.39732526      -1.13155871      -5.92101269      -3.58991933      -4.21955181
Na       6.06446035       9.12065674      87.44145528      -1.29177972      -2.79482738       0.43657686      -0.98572917       0.97274907       0.83841148
Na     -11.63404180       9.93495173      85.00546729    -218.36443310     -35.98526853     221.19883831       2.51894584     -11.41820776     -25.30671112
Na       6.20791503       9.43676665      92.59999847       1.26794014      -2.14197279       2.73991550      -1.32467979       1.61992573      -1.12479285
Na       4.46272177       6.68546576      91.87995988      -5.78640397       2.90677856      -4.76770930      -0.99304823       0.10343996      -1.10135661
Na       5.20812033       9.95185747      94.85073358       2.08507429       0.28305910       2.67139544      -1.33741064       0.57202643       0.85090730
Na      16.84716871       8.61134304      85.69337940       4.58056180     -13.54748494     -27.36209368       2.79514052      -5.61364282      -0.47738198
Na      10.20449677       9.09998495      86.29101391       0.05864014      -3.76448592       3.86405669       1.14284568      -1.78799045      -2.34480568
Na      11.98114876      13.92317313      62.70382239       1.61703641       0.57549274      -7.11926370     -11.38165735      -5.47268730     -13.26512738
Na       4.76610144      15.92607593      81.76501754      -0.40922917      -1.06512785       6.38019759       0.37431723       2.90589369      -1.81127034
Na       0.48827926      -1.02672461      66.56166203      21.88875297      13.72385080       5.92360788      -0.92631259       1.20855536       2.07130355
Na      10.11649592      14.79364007      85.96363632       7.49912923       4.29397755       1.09209707      -3.13237585       0.36325770      -2.12493863
Na      10.08810390      13.52030243      93.26948713       9.55097308      -0.35721509       6.50140984      -4.29214066      -2.03860254      -4.13245675
Na       7.66834054      15.03361441      87.28885605       4.32214028      -0.59071650      -2.86846135      -0.41876077      -0.66277326      -0.18847586
Na       5.97561549       9.85845247      90.55099813       7.48798263      -7.71685233      -4.89462195      -0.43667899       0.86612714      -2.21786948
Na       5.66272031      17.89347819      94.51075891       0.90494828       9.21678283       7.15436704      -0.03217447       0.19955005       1.34829185
Na       3.84672447      12.04008779      96.71820223      -1.98496510      -3.09281141      11.24472741       1.60494565       0.63296894       0.18441211
Na       5.87737963      14.14252699      96.19292312       0.65186851      -0.01707746       2.47244661       0.29518278       0.12708274       1.64286743
Na       3.81642782       9.82192418      67.81078123       5.27429613      -3.42666996      -6.65568090      -0.05008918      -0.44224608      -0.18982090
Na      -3.12694792      24.61830568      71.27882217      -5.63548424       4.89109953      -5.28988834       0.67475657       3.94936591      -6.11188799
Na       1.02954643      17.97366280      72.63487298       0.30051560       2.72702536      -2.12797114       0.59670449      -0.23994868      -0.60862730
Na       6.00601715      19.92958966      80.12092031     -16.04447968      -0.94451739      -6.55451803      -0.34843501       0.28664504      -0.20297009
Na      -6.48121767      17.61019440      87.67387626     -15.99296245       0.40652349       0.50468817       3.60712421      -2.27728417       0.00814098
Na       3.29708377      18.79007869      87.42280721       0.65856498       7.44150826       2.48006366       0.81169270       0.28989596       0.39419635
Na       3.95351029      15.35828868      86.28243442      -6.93420971       1.72687263      -3.06144319       0.12827953       0.58209240       0.57297813
Na       7.80952179      17.04558704      89.15285441      12.04899007       2.69132148       3.51641231      -0.04135536       1.48985716       0.85806429
Na       4.51212586      16.63257303      92.43257368      -4.67031923      -0.92511313      14.93944783      -0.24795991       1.93628665       3.46840155
Na       7.14565833      18.92639066      92.30114578       7.06033286       4.20300800       2.90817419       2.33592026      -0.57914356       0.97379359
Na       3.35353873      15.79185338      95.17061983      -5.79520418      -7.27519675       2.05492598       2.34808078       3.96254986       1.22705708
Na       6.63264222      19.72754596      97.48796287      10.21647698      17.85791449       8.41369872      -1.44692075       0.66595971       1.24322102
Na     -87.50854970      25.83356438     109.19895814     -21.67606511     -17.99197275      16.42811263       0.48121478       3.15698375       2.91230234
Na      -4.41056770      23.21317220      78.87096123     -15.45923684     -19.53314186       3.63365521      -1.78478441       1.07910675      -4.78281103
Na       4.38392739      23.45063641      78.45384794       2.50346202       2.82030605       4.82067709      -1.16517598      -0.44806521      -1.22868519
Na       2.03768491      21.01060784      79.85249785       9.85466075      -7.11656684       3.61560487      16.81273004      -1.90881389      -7.24386883
Na       3.01036497      18.66273666      82.02409861      -4.51573941      -1.12066241       2.13727595       0.32953602      -0.33573395      -0.17715477
Na       8.33269824      24.15679085      86.28107493       1.78175133      10.68655431       0.66504793      -1.06121511      -0.40200832      -2.09698282
Na       4.86872910      22.11951556      87.34542173      -4.27240424       8.59219164       2.68426081       1.44499870      -0.76072911      -0.50295676
Na       5.06681823      20.94778549      89.91000090     -11.07389421       7.34496025      -2.65441135      -2.40118719       4.65144332      -4.67510594
Na       5.31221304      18.76905152      91.48863720       3.77790657      -2.26745300       6.25763954      -2.41059358      -6.08151599       3.69176613
Na       5.78392382      22.75166735      92.58218253      -0.22784808       1.48144864       0.90490985      -0.02248617      -0.05971093       0.03397704
Na       4.62938777      21.88384338      95.40389069       5.71108626       8.28809928       4.07935857       0.58971180      -0.92767631      -6.17300480
Na       5.42738825      22.76996338      96.82092103       1.72651382       4.01327529       7.49995661       1.48275002       1.59949042       3.54542507
Na     -18.57561230      10.55931425      94.55718704      -0.15387965      -3.19900542       2.42317982      -0.33588265      -0.93407791       0.99041670
Na       3.90574322      31.27023892      78.43396159      10.47669405     -12.35872103       2.55214502      24.52749226     -20.03344606      -9.57321388
Na       7.02007838      26.63016056      76.00908839       2.38555824       7.81182210      -5.54648539       1.46193168       1.91430968       2.14160812
Na     -12.45639170      22.65938290      93.13490401     -13.15859368       4.43962641      11.39287178      -0.57097520      -1.72293404      -1.91208731
Na      12.76415196      22.44760804      81.44993683     -16.22861969       1.64837989      -0.41706082      -0.87237431      -3.06525635       1.19334932
Na       6.00223610      28.42738336      86.41877541      -1.48363382       1.49894122       1.99730052      -0.44200255      -0.76832720      -0.15978185
Na       4.67148693      29.78219849      88.40300825      -4.24738578       0.99958980      -3.85533058       0.17920357      -1.80951372       0.47808712
Na       8.63672347      27.73798278      88.89910083       2.29006913       1.85632215       0.12668995      -0.27117650      -1.40394527      -0.63972760
Na       4.78369146      24.32761258      89.30930677       3.74544618      -2.22571820      -4.61757129       0.56415284       1.57320714       0.07521355
Na       2.91410265      22.70345663      91.12113959      -9.44134814     -27.45878154      -4.69566903       5.35929779      -0.85219769       0.96164379
Na       2.23531579      24.67841169      96.39263859       0.00691001      -0.02785895       2.10680351       4.20311372      -3.52474163       0.87103058
Na      17.50574296      47.76331463      88.18184116      13.22151472      41.68220806     -15.69464633      -4.47016121       5.53003712      -0.99494657
Na       8.06585182       6.36091065      72.20759713      -6.60656657      -5.69497725      10.24316048      -0.42587173      -0.13049293       0.18696839
Na       7.54374501       1.63203755      77.59786215      -0.92990826       3.41236227      -5.33244277       0.09332040      -0.54872506      -0.83178017
Na       7.42811318       1.08525520      73.16967362      -4.77242446      -1.34688018      -6.86531321       0.06012989      -0.49472088       0.10144840
Na       5.03147174      -2.07983978      79.75970175     -25.94827291     -11.70446215       1.98392123       0.39600974       1.11857430      -0.01221171
Na       9.03715365      -1.44549175      83.87135696       2.02528813      -0.13702479       2.62099285       1.15636062      -1.00028067      -6.35458733
Na      13.66761847       2.66964527      84.21736410       0.56224918      19.29571773      -1.76853814      -3.88251818      10.24829190      -6.00253802
Na       8.76683573      -1.21123758      85.54254695      -4.47475502      -0.06551439      12.88938638      -3.83745446       1.32610046       4.42068444
Na       7.69359044       1.50394178      84.83873642      -8.19516167      -9.68347397       2.07327541      -3.76834546      -0.78506268       2.29857624
Na       8.09782354      -0.04985744      91.19186495      -2.45248426       0.33996143       0.98770724      -0.29398541      -2.31485411       1.47377934
Na       9.42306868       4.56516613      93.29329884      -0.83143290       0.69508629       2.35928853      -0.07856235      -2.09708739      -1.06295339
Na      10.52234725      -0.44358962      93.80286761       5.62643092      -0.68563995       0.63050225      -0.18317548      -0.14368508       0.05271124
Na      10.21278553       2.62419758      97.21424493      -1.98802260       1.25142089       3.86147056      -1.03543173      -0.30767139      -0.60283550
Na       9.16755689       6.14140643      67.16050152       0.74388065      10.74298316       8.85531656      -7.63020524      -1.22565794       8.30932151
Na       6.92821782       5.69617702      80.82246776       0.39874249      -8.99114799      10.17884361       0.37051236       0.04222609       0.42676322
Na       9.38749940       3.37824952      79.09225824       7.54516166      -0.17968285      -2.84586106       0.74259929       0.22205199       0.19313606
Na       9.14670347       2.22878062      84.13712085      -1.54354843     -16.74181062       6.99028587      -9.37978023       3.76969960       4.66941058
Na       7.06595012       4.82353025      85.31657137      -7.95328545       1.83971478       6.12288089       0.23655421      -1.76012994      -1.02713548
Na      12.74203707       5.27556781      85.75651968       6.96866644      -4.82582341      -3.74228518      -0.41307768       0.40677892      -0.28614997
Na       7.91366324       6.23624522      86.72135244       1.07510703       2.84384105       2.01038037       1.35485420      -0.91196911       0.76876307
Na       9.09434663       7.52172371      90.15252988      -9.00016628       5.37160865       6.65136125      -1.22882173       0.91813129      -2.16927386
Na       9.19602916       4.81869718      89.76602964      -3.72049579       0.74380935       2.69943926      -0.40907934      -0.26845302      -0.12191202
Na      10.25121769       6.67865041      91.75721392       0.39417756       0.28391985       3.35467461       1.54175353      -0.26139632       1.58827317
Na       5.89740500       6.15147066      93.73859363      -3.07197036       0.75251344       1.21623439       0.29433755      -1.40756663       0.07079968
Na      11.23769193       3.44726072      99.40002194       2.11727451       5.23166668      -4.45646824      -0.83684328      -0.06274388       0.89881146
Na      15.70600746      11.07806885      75.09256033     147.39476747      19.92587856     101.75917456      -0.28619364       0.48862639      -0.11240884
Na      21.92800020       9.60407141      74.19573825      15.01134699      -2.80562435       8.01299273      -8.57836932      -8.40791163      13.75645874
Na      15.87057208      23.64554409      66.89440483      11.08511759      11.74009650       5.84208390       0.73533407      -7.87010174       0.45787136
Na       4.36722251      11.02534493      79.40843792     -40.10476020      17.59810333      -5.31493908       0.84213987      -2.97805246      -3.27460566
Na       8.95034572       7.80723301      83.41230429       2.29421198      -0.96793343      -0.71617101      -0.03004315      -0.01453236      -0.41223464
Na       5.73083842      11.22169018      84.78030207      21.35278538      18.31729738      -5.47592372       0.12578363       0.02147858      -0.56864621
Na       8.28268369       8.31089798      87.09210122      -3.41585510       1.74930133       1.81986538      -0.17829642      -0.94908253       0.55938889
Na       8.75608398       9.37733908      92.11804370       0.63627565       1.77413199       1.42709752       0.82892100       0.88065989      -0.20995034
Na       6.64286097       3.74135829      92.31759587      -0.04906783      -5.31703894       3.74404346      -0.54712079       2.08993910       0.34958503
Na      11.58083878      10.84548249      92.15999759       6.22322531       7.75264711      15.77979502       0.63773136      -0.89982493       0.10620218
Na       9.22905209       6.04976471      94.60119687      -5.24970978      -3.83213156      -2.58012778      -0.65776823       2.05540703       2.05025721
Na       8.92727787       6.55305928     103.66280302      -1.12274774      -7.67617759       8.91022356       0.94150783       1.15245348      -1.86959409
Na     -16.10974702      13.71670479      88.02850221       4.50220153       4.15519514       3.10928082       6.09175081       0.49730805       1.52000603
Na       4.99669063       7.95398184      82.39257116      -6.00499409      -0.52375538       5.39325187      -4.60538619      -4.41339950       0.88098558
Na       1.03623978      -0.09064777      76.81820994     -11.90449200     -16.65196794       2.34424657      -0.20649195      -0.36529494       0.22883189
Na      13.01721591      16.03646609      84.22607810       2.51472947       9.61340166       9.84444899       1.89760237      -6.53008575       8.85563206
Na      12.53836042       4.98293562      88.58607968       4.12567925      -4.25901239       9.06021808      -0.63635997       0.21895843      -0.26970202
Na      10.85150051      13.19022372      87.74520871     -15.69374580      -1.03914968      -1.36661590      -4.25356747      -0.24674448      -2.36352335
Na       7.90057730      10.76676455      87.07191867       6.35395034      -5.55277686      -0.46627706      -1.36745148       2.79049921      -2.70555828
Na       8.97183994      10.54119666      88.73465304      -7.91754228     -23.57244574     -10.56490612      -1.47961750      -1.80617768       2.87039728
Na       3.36505877      12.92907055      92.96065552      -3.11555558       0.50388163       1.19549159       1.42397307       0.26663745      -0.31253378
Na      11.37799641      13.05360078      94.32238065       9.93187666       0.59096183      10.11941418       2.76881298       0.45491261       3.06711644
Na       7.35727160      12.30538678      94.19442589      -5.97975273       0.83310030       3.95061198       0.26539294      -0.33626304      -0.06366558
Na       8.84411285      14.02229761      96.66803197       1.97827007      -2.55102746       1.99768803       0.28776795      -0.78535540       1.02393841
Na      66.75908347      -6.89478714      79.74335177       1.45317320     -17.84071380      12.79861293      -0.44514628      -2.15726110      -0.91607666
Na       7.14351821      21.26759032      86.82281765       0.37272689       2.84641648       2.10329076     -43.19805661       9.95633771      13.11391842
Na       6.79018778      16.57961647      78.13858484      -1.79211485      -9.73219036      -3.77848680       5.54563927      -2.18669070      -0.67913530
Na      11.11850482      17.88715410      80.59334747      -9.81588469      -5.71801139      16.40649446     -18.51274678      -0.77556551      21.72995941
Na       4.02256677      15.38320903      83.61133301      -7.28605155      -1.54759247       6.58759795      -1.35721864       0.85532080       3.01181041
Na      12.72878874      18.41691588      85.33386800      -4.46991955      -0.10108827       4.08953864     -47.70719514      -1.54744469     -12.99016180
Na       4.99010996      20.38721666      84.09500987      -2.22662042       7.20543504     -10.05968037       3.51891104      -2.47398402       0.86616022
Na    -255.65094352     -29.62216309    -340.13938390   -1398.28665984     192.59114305   -2209.73275596       9.52018052      -2.32612488      -0.85168128
Na       5.92667483      14.75694591      93.97193051       8.73812280      -8.31965948      15.06997719       0.22490857       0.00052501      -1.46763218
Na       8.95356614      17.54482457      92.19864723     -10.70941803      -8.69230962       7.99566959       0.04448658      -0.30095966      -0.33468391
Na       8.93092397      15.40194744      94.63499947       2.01033849      -2.03167271       2.71939625      -2.85549542       1.12916434       2.46418036
Na       8.46866087      19.12283621      96.30034736       2.85823124       2.54279388       0.69239258       1.03412332      -1.15821116      -0.66107398
Na       9.62911875      24.80081797      73.08350031       4.14397878       5.19776164      -6.53568853      -1.55523170      -2.96682143       0.76612002
Na      10.14545837      26.76259779      74.11738363      -2.37527460      -4.07285927      -8.79588946       0.99183535      -0.37361948      -1.94819832
Na       7.59687166      23.35238154      80.87142387      -5.03104737       8.00442173       9.04382203      -0.73637224      -0.23688145      -1.07588420
Na      13.39978152      20.24618803      81.19595571      -1.04221168       6.95958792      10.55425357      -1.48219153       4.07631140       3.76813858
Na      10.67164988      15.37473562      82.67011462      12.93372454      -5.19323050       3.77796414      -0.41165409      -0.26754602      -0.61564873
Na      11.83098828      23.13537797      88.42187915       5.03499816      -1.14749354       3.85020272      -1.01308684      -2.26997952      -0.28392712
Na       7.92109960      21.22753136      91.78826924      -0.74985034       5.34751613      14.39564222       1.93634626       0.85657776       0.32279982
Na      10.24900573      23.00576623      90.87962902      -4.23920035      -1.00057729       6.79406057      -0.65955135      -2.06526785       0.24760078
Na      11.43149214      19.81055087      92.37731806      13.92373445       1.28862271       7.82956860      16.61925669     -16.77612544     -14.85273195
Na      11.61000926      24.29735346      92.33602236       6.87125334      12.02664890       1.52400459       0.46975659      -0.20447333      -0.36004837
Na       7.38307276      20.90944040      94.23358994       1.08815730      -0.12513143      -1.16002896       0.94075612       0.36136537       0.61805607
Na       9.72853013      21.73086763      96.43501829      -0.70910842      -0.39101043       1.12009996      -0.17639968       0.61231433      -0.26257032
Na       6.56213172      26.54061886      66.59515666     -10.43218895       1.19066253      -1.65902805       0.65236725       7.07622909      10.91625328
Na       8.47407874      12.51598730      82.75344467      -7.44163374     -38.44227200      22.37984266       0.96545830       0.14211956       0.61375932
Na      17.71823766      22.72562929      74.77377914      57.46362199     -11.77092478     -26.27763602     -12.22846984     -10.83468988     -10.64147669
Na      10.78921275      26.86815379      78.54809937       4.63777415      -5.17585165      14.85618070      -1.88599144      -7.34167069       3.22878917
Na       4.72453608      23.77282705      81.41453600       1.95875515       2.84520242       4.06076244       0.30717092       0.20069700      11.62322936
Na       8.41645276      24.27988961      82.87117196      -6.65307602      -8.02400181      -2.11946033      -0.48232417       0.46317726       1.41324734
Na       2.86886663      23.24442423      87.00882447      -3.28935712      -3.69871317       4.28480354      -0.58360595      -0.14330939      -0.17570920
Na      11.53843030      26.87787614      89.09882870       0.54966708       1.47637747      -0.20906581      -0.55961591       1.25319052       0.35423369
Na       6.83991215      22.60803959      89.85193294      -2.68004483       3.95677614      -1.40796492       0.86170942       1.01232006      -0.76494203
Na      10.07574324      26.11347136      91.48386635       8.10014102       5.79562526      -3.54803779      -0.57027242       0.21361513       0.32994579
Na       7.47059936      24.22124100      95.52354950     -23.39087258      -8.70998088      33.12637525      -9.78921092      -0.96815848      -1.98250567
Na       9.74376820      26.63271316      97.16003004       2.10111495      -0.10812343       1.23726666      -0.14159688       0.06639325      -0.11382905
Na       5.35545850      -2.40747910      74.30658819      -1.54032225      21.60183534      -5.85982457      -4.86934919       7.69787036      -3.61330511
Na      14.45843821       1.68424667      77.81308474      14.64168781      -0.66574738       9.94868432       1.98730968       0.27231194       1.94852686
Na      15.74122041      -0.54718873      85.69799386       1.12169958      -1.29497388       3.83524910       0.00724090      -1.18862369       0.75127146
Na      15.25952600       7.90651868      76.16613175      -1.32094613       4.55116099      -1.96231289      16.65712731      -2.53561271      29.39201859
Na      13.49613686      -4.53692362      80.68727741      32.62905484     -66.89184810     -15.41566846      -1.05959084       4.45290349      -2.86853010
Na      17.51131755       3.96144060      84.34012830       2.44492059      -3.09572070       0.64194417       0.28371485       0.08404198      -0.66289093
Na      11.12255024       0.45911238      86.64660734      -6.36306606      10.59112313      10.94329137      -1.82807476       0.63803118       1.29085170
Na      15.87022943       2.20417862      88.43452675       0.68112161      -1.57398384       0.06863428      -0.35925259      -0.72397609      -0.49850252
Na      12.95308894       1.94888652      87.48314844       2.90023917      -2.48132225      -2.97728768       0.34238528       1.53145522       2.85827869
Na      11.72026897       2.36276368      94.43737038      -0.85070980      -0.88513652       0.05008639       0.41196409       0.53751700       0.12909430
Na      12.35840982      -0.10852718      96.02910965       0.06008516      -1.73211666       2.69014068       0.29689613       0.07758831       0.52828001
Na      12.98360496       4.26086887      97.54025321      -5.30534212       5.46533845       3.94646223       0.59952731      -1.06852521       0.05837439
Na       9.39030647      -2.13182436      80.89366861     -12.06268236     -14.69913731      12.11689879      -0.70866125       0.97311743      -0.11114167
Na      -2.73517197       8.97855002      80.66364624     -53.01739011      18.25015335      -7.99723313       0.67168854      -4.52720548      -4.15516106
Na      10.04366899      -0.93407603      75.78856981     -10.42553328     -10.32938545      -6.67553097      -0.07559177       2.19211102       1.80795027
Na      12.26692513       8.74106555      82.00144940     -12.88907867      -4.13917058       1.88896533      -6.13716987      -0.71228750      -2.92924111
Na      15.57431910       2.95630550      85.46854415      12.19945117       4.87849952      14.44018142       1.97448791       4.19109927       5.07001844
Na      14.91501467       3.04938978      81.63556065       0.91197519     -11.94902133      -9.13345147      -0.18891492      -0.53273342      -0.62120794
Na       9.76398635       3.65571771      87.29426651      -3.08588117       1.38801714      -3.21552917       3.50895866       9.04044566      -3.82917761
Na      15.23422590       5.80908301      90.01527735      -2.97290680      -0.03708171       8.84087687      -1.98949461     -13.11928538       6.84396452
Na      13.28211234       4.41614471      91.36559957     -14.89990318      -8.77767356      10.50753939      -0.03421127       0.05439346       0.28878879
Na      13.44664258       7.09841141      92.69504832       0.05106793       1.28370312       3.20937689       0.51660185      -4.22356434       5.47343218
Na      11.41805108       6.18089137      96.24973902       0.73231594       2.47189632       6.38715881      -0.68083261       0.18102498      -0.00562969
Na      14.07848151       6.36684911      96.71988622       3.20658295      -1.85829763       3.17318425       1.43592418      -0.29699443       0.15849077
Na      11.79160395      13.87138989      76.43647522      -0.92474988       5.81565697      -0.32934022       0.57459303      -0.02178727       0.07752298
Na      17.04956508      13.83100422      74.52691545       5.64728544      -7.23265452      19.06923153       3.99183114       0.10258361       4.81743650
Na      14.86875392      10.18510233      77.96114184      -1.38850403       1.39269115      -6.34794363      -4.07557815       1.81515334      -5.73915861
Na      22.00399021      19.42460165      84.90580877      17.12052467      12.01637666      -2.01291661      -0.87030403       2.44355727      -5.11044954
Na      13.31786716       8.53059556      84.85786894      10.91245731      -3.54936897       9.12934573      -0.45730887      -0.08281177       1.73898149
Na      11.37108662      10.39366188      87.42231220       0.97077940      -2.51517153       2.80888857       2.89576881       0.04147128      -0.01984551
Na      15.84163242      20.93026034      89.27256905      43.41597788     222.31123592      32.52045201     139.84415059    -287.45412571     -20.00747966
Na      13.85151310      10.68487212      89.34506341      -2.64241496       2.12658650       0.62199619       1.51252666      -0.24241425       0.01206825
Na      12.23532271       8.27238396      90.11367545      -4.61169594     -10.70035453     -13.73815723     -17.06646625      -2.46992992     -22.65894490
Na      18.86476858       8.12276628      93.49417547      43.85090226     -11.24724891      22.97473210     -10.61956869       6.92796787     -16.71877286
Na      13.60626201       8.65826191      96.26076677       2.83377069       2.58096769       5.02671667      -0.62811135       0.41924287      -1.02316684
Na      14.26125223      10.83388495      97.11264765       0.43770281       5.03339287       5.33393937       0.56388851       1.13889263       0.90628466
Na      12.85358537       1.99002702      76.45529450       5.91431395       3.79679660      -4.37624148      -2.19207737      -1.56976859      -0.46318114
Na       4.97533312      18.77145448      72.19247565     -10.94410047       1.22316169     -10.43060139      -1.12880099       3.75725597      -5.76086117
Na      14.42017977       5.20473345      67.48173656      -2.83184502      -1.08450544      -0.42581592       5.04092820      -7.69878338     -12.99813565
Na      13.28636934      14.75447902      79.24076679      -3.38842987      -4.41236692      -1.63489833      -2.04931770      -0.94807075       0.50685877
Na      16.53885845      10.79083608      82.95633610      11.30765323      -2.33799125       4.75412124       0.08415418       0.34610933      -2.92326505
Na      16.03722799      12.63500112      84.78464324       3.90871906      -3.48022946       1.09905710       0.30747735       1.49642173       0.23357677
Na      13.59668184      12.69314999      85.10397097      -1.12095411      -3.99763811      -2.16141895      -5.61897183      11.96390318       5.59205362
Na      12.53289719      16.69968805      90.26943452      -7.41886962       8.76451385       7.22903304       0.84075135      -2.32308678      -3.24040849
Na      11.84854911      12.50952640      90.07613080       2.29422670       3.58730663       8.16530836       3.13627401       1.81835467       3.72984520
Na      14.31098002      14.40459520      92.88108747      -4.65937167       1.85817553       1.79860061      -0.28708397       0.23316772      -0.47216499
Na      13.31485560      12.10467795      94.54628273       1.76035465       1.96687367       3.74037222       1.50949846      -1.71346085       0.18527493
Na      14.02966608      14.21355651      96.04989329      -0.38017081       1.07611766      -0.65333125       0.34516939       0.40332369       0.52569312
Na      13.11953723      10.93401801      82.38286299      -5.43600186       4.81762662      13.79240394      -0.14489953       2.89048817      -0.92968503
Na      20.77816759      23.84564420      78.50319770      18.43259840       4.60040789       9.38788618      -3.02386303      -0.72816755      -2.91545153
Na      11.14185082      21.03527672      75.37665479       4.56717690       8.99491512      -3.19459525      -0.52282001       0.70719293      -0.74594273
Na      14.27518509      16.50178751      79.10306615      13.45115438     -10.83277778      -0.46838141       1.14033098       1.97697583      -0.94373005
Na      12.02036882      18.60152754      82.34000350       1.69469709       2.44924340       6.08281281      -5.73049399      10.42669787      -2.34887266
Na      17.48292802      17.92820270      87.65176563       2.92544481     -10.93666451      11.58399687      -4.80563358      -7.02446532      -3.69625361
Na      11.73335198      17.69072858      91.90913000       0.22442703       6.31570769       7.22565220      -3.51519424       1.70151604       0.12869481
Na      13.68038196      17.68381972      87.74861142      -0.51439799      -3.07907727       2.62297656       0.93716114      -1.14719374       0.16827907
Na      13.09870343      16.75485298      92.78454391       6.70539763       3.97844873      -4.64788941       2.41522620      -1.43833399       3.06629794
Na      12.77164396      22.36395628      96.58707083       1.32276829       9.49794591       2.70102939       0.39763268      -0.54295259       0.75472507
Na       9.99725927      19.19337303     101.50459017      -5.92679241       3.80066141       2.56301508      -0.45919336       0.79829900      -1.31212389
Na      14.38524017      17.69485684      95.97117508      -2.94008737      -0.40660690      -1.84555733      -0.25157107       0.11223773      -0.23816455
Na       9.66040305      20.92275059      71.62595964      -5.26528358       1.73871409      11.37362766      -1.04295200       1.47765705      -0.58484734
Na       7.48744713      23.59380729      75.71112708      -9.95390726      14.29743190       9.43502597       2.22244633      -1.32699957       2.13000624
Na       9.87722599      14.24740990      78.86819922      -5.20959408      -3.07008095       5.57313686       0.11756566       0.38326198       0.38033978
Na      16.21857957      22.08225939      77.61804375      22.27545476      25.41150916      -4.41450114      -0.19165592       7.15055866       5.73427574
Na       9.28534891      19.07035431      82.53342891       2.13007568      -3.99030890       6.60561517      -0.83014322       0.16923728       0.15317165
Na      14.05109675      23.84927244      86.69799552       0.17485526       1.24646361       4.58497529       1.17283950      -0.61266581      -1.37155115
Na      10.71285616      20.68412011      87.14144254      -8.05912879       1.24416639       6.38966966      -3.05481752       1.09309467      -0.19240376
Na      12.46251352      22.00062071      93.54139015       0.13963759      -2.91009152      15.32830620       1.96255846      -0.36695924      -0.22627356
Na      12.37956071      19.41311646      89.69086800       3.45408928      -7.13317400      -3.79609489      -0.57342112       1.14329265       1.79100507
Na      11.82191351      29.56359913      90.78026278       1.74247057       0.35352377      -2.38080830       0.50920145      -0.51373001       0.07696626
Na      10.81212426      19.72907043      94.15556994      -2.14962457      -5.68865983       9.04698260       1.49164439     -12.44667380      16.87942284
Na       3.84827624       6.40894412      97.66444290      -7.11378750      -2.66587205      -4.17245432       2.12527070      -1.15990502       1.15104433
Na       7.92739887      25.21047209      69.83476620      -1.88081590       0.94111176      17.87836299       5.13555415       0.43557398      -2.11793661
Na      10.71031400      23.83237322      80.01549463     -63.17507089     -76.57930291     126.09650596      -1.01243796       0.92286972      -9.89301180
Na      13.60379961      27.66629484      77.65878552       0.91899116       5.64053944       0.64018502       0.77483093      -1.20466758      -0.36701459
Na       9.35221906      30.97877942      87.74618030     -26.21380194       7.01187931      42.89335434      -1.67317902      -7.53473163       1.96800190
Na      11.56598573      24.16625054      83.81846213      -0.52363067       6.40883365       5.29167073       0.26823667       0.44143911       1.67071152
Na      10.45190314      26.92399311      86.40521710     -21.54311189      -9.22115192      15.95424606       1.56347803      -2.04956940       0.42374714
Na      12.20797949      25.56004171      87.18494810       0.96464375       4.29599258       3.06912102       0.13836476       0.59823885      -2.71208748
Na      20.87439065      29.25288762     101.72517070      12.88097908       7.10550174      31.77136277       0.44539976       0.39474614      -1.45242331
Na      13.31603611      25.62977802      90.26989127       2.53078524       0.76258194       0.26981784       2.96371207       5.26851148       7.50436680
Na      13.38392576      26.86357215      93.04325216      -5.23750626       0.75453075       2.99126749       0.37986610       0.49875476       0.08824473
Na      12.35131566      24.21966358      94.63533878       2.82598749      -1.79202713      -0.48602414      -0.29818761       1.00307484       1.40059065
Na      14.29824466      26.17356777      96.21149208       0.28799774      -1.63132270       1.28203519       0.19645534       0.14872834       0.04179005
Na       5.19233540      -7.14064036      76.86974308     -10.36764644      -5.60700692      -0.29826556       0.71333707      -2.44513293      -0.17882185
Na      20.65711720      -1.34877730      79.05715440      -7.14881836       0.82415963       5.57877945     -17.34617150       3.42349103      -0.97233418
Na      17.46195777      -3.57263272      77.10184660       5.48596885      -8.70222719      -4.69486192       2.53354256      27.55907811      12.38859596
Na      58.04533993     234.16831268    -134.86570463      72.82465412     327.71351784    -316.02433968      34.17887134     -37.81900737       3.15848444
Na      12.56135216       5.33886161      81.80633292      -3.12259572      -4.95578552       2.07067081       0.33854500       2.80025250       0.66266241
Na      18.38682511       1.11686372      86.45161247      -0.56159815      -2.79392820       7.24071137      -2.45404298       1.14994378      -2.24592114
Na      19.84121637       0.34178875      87.56219262      14.34980085      -4.50008109       1.19215486       2.29199708      -1.44057908       1.86079914
Na      18.67642610       2.88183427      89.23052565       0.71400665       0.71044779       4.53041199       1.13667744      -1.40730161      -0.81703548
Na      17.20055087       7.32741964      92.82146977       0.78831667     -10.00882879       8.91972252      -1.22884711       2.50318997       2.94148935
Na      18.83221415       4.08453017      92.88805567      -4.98591673       0.73609845       4.93779388      -0.01027263      -0.92266541       0.89303637
Na      15.47592041       0.40026072      98.39044628       0.31221711      -0.12693214       6.21115030       0.01640074       0.17531083      -0.09625749
Na      18.92037685       2.50621328      96.53311636      -0.69039168      10.38403971     -10.76961511       0.16563703       8.96532421      -4.33879570
Na      17.91600875       3.59131262      75.55344386       1.51572487      -4.42260231      17.94155763       0.16618101       0.27068748       0.28358991
Na      19.40684257       5.63046810      80.26295168      -5.34290870      -8.00260364      -2.83671924       0.95424565       3.30280396      -5.16598849
Na      14.63395575       3.41751642      74.57645365      -3.57918316       4.30761741      -8.88965864       1.26881965      -0.29836067      -0.08423667
Na      18.49123927       6.74043862      81.74399951      28.19690994     -22.32609945      18.87350875       6.00742378       3.02892109       0.10253254
Na      17.30819809       6.49656465      81.18931182      -8.71525184      -9.01355488      -9.47527258      -7.19793518      -1.55790983      -3.09971008
Na      20.35710878       3.93022266      86.09091791       0.88896058      -4.30366972       0.54458592      -0.50640931      -1.88511908      -1.74893410
Na      20.16399275       4.97030162      88.06909813       0.36278378      -0.03352082       0.35513159      -3.87861320       0.54543206       0.68390191
Na      18.86362070       7.74935280      89.47997367       9.95952174       5.81192197      -6.18866601      -2.90789708       0.83207025      -0.15226289
Na      17.06685959       4.09450282      89.99478556      13.05732054     -12.82603574       1.14774911      -1.49287165      -2.59115845      -1.85649369
Na      19.64966268       6.66033346      92.23890698       2.59693769       3.34277498       3.46813402       2.85618197      -0.57849152      -0.01484336
Na      16.67973180       4.34824677      97.17531979       1.02371405       0.55153755       4.18775645      -0.31309371       0.04667481       0.16143793
Na      18.75733095       7.30162154      97.10454496      -1.57452445       4.05121006       1.43294953       0.20617685      -0.60944089      -0.25526819
Na      14.88266991       3.12642624      71.28303009      -4.95309796     -12.38379521      -6.24461331      -1.83764739      -6.47406666      -3.11515642
Na      13.95621902       8.72092912      82.67409686      -5.56201490     -15.75035665      18.53240369       7.14027616      -1.48402643       0.37137233
Na      14.77416163      18.59153804      84.48724245       5.73435798       0.20692598       1.13700282       4.51466660       0.18389793      -3.98210069
Na      16.97053093      10.34435516      85.66421134      -3.15486506       6.77857388      11.27064720      -1.25857980      19.63228590      24.14363584
Na      16.82965196       4.12562325      80.76125371     -23.22870614     -34.61869916    -113.30975600      -2.19498969       0.09738694       0.64788466
Na      18.04655061       6.85083726      83.54434207      -5.06266936      -2.78230954       4.62401164      -0.86076093       1.08374848       6.08500411
Na      15.81177046       7.58130785      86.46820728      -7.49727846      -8.53688880       0.12733863      -3.58871640      -4.67669637       3.10986844
Na      23.87595129      10.15037837      91.87728360       8.26200640       4.93037396       1.77576394      -1.05289671       2.70208209       1.88578902
Na      15.21594566       6.86542321      89.39548300     -18.37966280      -6.01692175     -11.25855718      -0.34397645      14.65752152      -7.45957123
Na      17.65379027      10.64579709      93.45758999      -2.67763393      -0.05896737       2.70257266       9.29693177      10.39598198      11.16788017
Na      16.58902947       9.12323942      95.79607673       0.14785737       0.73799549       4.30308447      -1.42532774      -0.42515401      -0.22849504
Na      18.45849641      10.37971163      96.71738228       0.76855101       1.60037481       4.19105725       0.88563739       1.03171073       0.79991134
Na       7.74975665      17.42257992      73.06228817     -15.77670194       4.85708710      -0.80184543       0.47176014      -6.61733848      -0.06759737
Na      34.66327948      24.89403744      74.71710238      22.45521708      -1.19146114       1.00261648       2.13901851      -6.77123433      -0.77944856
Na      17.74072751      14.32132618      78.44318258      13.85005715      10.15454828      15.30205442       3.96691050      -1.18271924      -2.32142803
Na      20.55325737      18.86260976      81.68801112       8.75238482      -0.03049675      -0.49887698       0.45454085       0.41046416      -0.21487529
Na      23.95793489      13.95662914      78.29827848      12.19295132      -2.12510063      -1.14052325      -0.04760797       0.23544056      -0.67028429
Na      17.74681714      13.77254697      85.14514640       3.57874980      -2.25418984       1.60723413       3.58148912      -7.67622297      -4.26928437
Na      24.50300852      11.74321988      88.46683659      34.38325666     -16.70984199      -5.11736653       5.72799605      -0.32167484      -2.79196765
Na      20.75181465      16.84334534      88.54144451       6.14656475      10.65657970      -2.40908268       0.11562551      -2.07079570       6.77659784
Na      15.75683631      12.29825016      92.86911691      -1.81918710      -2.58686296      11.61510115      -0.83321570      -0.58951934      -2.61106679
Na      19.00557137      14.26049327      91.47875471       3.69317355       2.95915092      -5.89998356      -0.84335848       0.06722372      -0.13571404
Na      16.82979213      12.25459643      94.73413475       1.70589814       2.29374810       3.85498824       0.23465045       1.22921256       2.39999608
Na      18.43376413      13.91265308      96.67862881      -1.13237046      -2.69824675       0.88155362      -0.49569566      -1.54031624       0.98813608
Na      11.71533441      17.47538016      71.07957201      -7.82696364       3.68942238       7.88124937      10.85182210      -5.73632108      22.00524568
Na      19.22090328      13.87516875      73.44945355       9.55089057     -20.09445629      -5.48355547       0.61038928      -0.25839082      -0.29830854
Na      16.17404998      14.78035206      79.23607875      -3.82718927      -0.65311192       5.39172763      -3.01630728       0.87294964       1.56229883
Na      12.50231609      19.86933768      87.36776372      -6.90209966      -3.16061843      10.98127824       2.82517972      -0.28163965      -0.67823809
Na      11.91193085      15.22669557      86.61829131     -10.58609099      -6.18210887      15.34703176       2.46368805       3.53113723      -0.55805726
Na      19.09610579      18.73369028      86.98035037      14.33503341       2.85801880       7.96226240       2.74020843       1.57162000      -3.24586145
Na      16.73714570      15.98864191      86.76199416       0.03180238      -6.00279623       2.27156897     -18.72665020      29.79952495      27.30846684
Na      18.41602748      18.69534899      89.12001206       4.12310685       3.00725665       9.50476544       5.25272728      -0.07029786       5.83568414
Na      16.60295675      17.05419466      91.69586383      -1.48966060       4.99942232       2.97256010      -0.10616493      -2.74099240       1.81059560
Na      18.51529361      18.35078547      92.68640856       1.50356050       3.56071897       1.81118191      -0.14405381       0.90545892       0.23175996
Na      16.70946240      15.83910601      94.66082944      -1.15222543       0.33469489       4.72329803      -0.40985297       0.00082707      -0.58981735
Na      16.69264308      19.07382491      97.36144659      -6.20625145       3.03515470       3.67298712       0.05122432       0.28681534       0.21864311
Na      10.71418553      20.30613310      67.51877743     -13.75463052       1.16923889     -11.98279359       1.00049048       1.41737168      -0.79492905
Na      17.20090112      26.44769612      75.33257922     -23.47360026      23.47907892      27.39907967     -13.56672169      -6.99784537      -1.97589959
Na      21.77865043       5.49000342      81.85747174      -2.16726866     -15.04938618       3.95684607      -0.21904724       1.69347966       2.69914977
Na      16.10751353      21.18163984      81.70747210      -6.27045012       0.68327466       7.04756519       6.05279936       1.83654917      12.62017030
Na      18.66149856      19.10091258      83.09974123       7.96077663      -0.26679118       1.43995384      -1.41843696      -0.06832269       0.63042549
Na      18.39525724      21.21324368      85.36560128       4.56307997      -9.00513250       1.34498237      -3.64336597      -1.29107721      -2.67996231
Na      15.62846842      21.37161967      89.30063214       0.62749870      12.29622337      17.84794053    -141.49297174     293.59236510      15.45995881
Na      21.54508078      19.90164677      89.54981095      -0.56863993      -0.60183615       1.82312508      -1.49295660       0.89223555       2.62923107
Na      15.85818294      20.05802780      90.48427357      -3.42444862      -5.01386615       3.16155506      -0.19883704      -3.05060551       5.68276742
Na      19.82046750      22.23552151      93.33496796       4.67655426      -1.09016101       0.96300547      -2.32992663       0.75886146      -0.14884441
Na      18.13363776      20.62494455      94.48866367       6.15629090       0.93779093       3.68189067      -0.76252754      -0.82830689       0.45369850
Na      19.04024496      21.41504885      96.89504321       6.46545091      -0.44346468      -6.88108430       0.30359860       0.18952291       0.66120880
Na      25.98065219      21.26677807      78.95768902      10.01797329      -8.38748123       9.08372481       1.38237398      -1.04002695      -1.19674009
Na      16.62503619      26.69784780      67.80043678       1.89369825     -17.17686863     -11.20152823      16.70778859     -39.55281467     -10.02260413
Na      15.98439359      23.32920428      79.19656892      -4.61794942      -3.03099524       1.08830306       1.13332724       1.06379487      -0.90201590
Na      13.40768130      18.43250966      85.52704662     -49.18222938     -59.31564985      45.10250703      44.06605842       0.93823520      16.62856399
Na      18.02570472      23.21972996      85.77553967      10.08147273       5.05155502      16.15926008       0.24103666       2.93703353      -0.24373627
Na      17.52520142      26.04372430      83.83597195      -1.66009064      -4.29884061       5.54069185      -1.30904167      -1.63830866       4.11053871
Na      19.78720895      23.44321794      90.93957992     219.68647013    -194.55997710     365.52800200       0.66299981      -1.08434852       4.65206804
Na      16.76954017      22.37743720      87.51194064      -0.22946190       2.43320633      -4.22673097      -0.87989573      -0.38560698       0.70698827
Na     -13.47805379       4.57660254      72.06602469    -230.81845995    -146.16967497    -155.19576408       1.36541393       7.44520853       3.09452239
Na      18.60629169      24.18574154      94.91612168      -6.21907985     -13.65672783      18.12643439      -2.24823160      -0.47896239      -0.36130683
Na      15.75557607      23.46472294      95.27119080       0.61648111      -2.13710663       2.19162961      -0.79057094      -0.11032630       1.58557219
Na      17.52145255      25.16193931      97.00153188      -2.98240657      -5.29445874       6.02709076      -0.17891635       0.65866668       1.10645474
Na      21.06032464     -11.21629333      66.43851862      10.61428498      17.42136380       4.74787737      -0.50964009      -2.92216317      -0.25721165
Na      25.84578765       1.17833380      75.30329273       7.61777372      -5.33783009      19.25156387      -0.25401965      -0.90514281      -0.32048368
Na      22.07826520      -3.74298638      74.00438112       5.22076460     -15.03889106      15.11623392      -2.89761044      -2.40702694       2.66644732
Na      20.67532884       1.21196494      82.85726208       3.49552734       1.07322072      -0.43888435       0.27425898      -0.24926899      -0.06820511
Na      18.50907881      -0.97530607      83.48646307       3.30533902       0.42054844       4.50813657       2.05180718       2.73499816       0.92750788
Na      22.22669841       3.69962781      83.95984460       5.10402511      -0.56340596      -2.72040952       2.07440882       0.39960348       1.34492165
Na      20.21797886      -1.68947221      84.75058256      -9.95074135      -3.61529244      -5.39439632     -21.58975010       3.18933748      -2.19703871
Na      21.78392087       3.29773784      91.40253618      -0.87962334       4.16355140       6.78444015       0.56668416      -1.49068156       0.44724872
Na      19.03428336       1.27917375      91.49949500      -3.85319637       1.00911383       1.74910383       1.21754238      -0.32259719      -0.80714063
Na      23.38174987       2.04657408      93.10725361       5.72495429      -2.72921034       6.73363608       0.21686113      -0.67168568       0.36131138
Na      17.42451510       0.94401066      93.07653100      -6.56316479       0.69069256       3.09301856      -1.03110344      -0.36041549       1.32888209
Na      22.42412283       2.54295855      97.73918299      -2.85491595      -0.53629605       2.31574603      -0.13518163      -0.05457110      -0.00243224
Na      15.16666193       1.63993991      84.38157612      15.09780297       9.26840549      10.70186444       5.97627253      -4.14032076      -3.35326995
Na      23.27603660      -3.05382335      84.93629458     -16.67154013     -21.55961644      21.01037883      -1.17084150      -1.32887035       0.58791185
Na      16.95035821       7.38044933      78.80227885      -0.20985045       1.19151440       3.48305511      -0.58731275      -1.99580728      -1.39685759
Na      23.59435170       5.74044961      81.06724298      16.68423927      -6.75426365      -9.37056375       2.70177360      -2.46848549      -2.93644823
Na      20.09586670       4.41568048      80.98010602      -4.01682263      -5.44734770      -2.80282238       1.58444440      -1.40405235       2.13258722
Na      22.00221943       6.90762159      85.85813091      -5.25901528      11.35420473      14.90274767      10.65936134      -2.26938020      -3.60028444
Na      22.26605076       0.32072229      85.49348610      -7.11408204      -1.20618003      -8.42375713       0.45638133       0.27785249      -0.07097319
Na      21.88665713       5.18495155      87.41794224       5.40800138      -1.09394163      -1.26488335       5.21596784      -0.60665422      -0.47413377
Na      20.63313700       4.78124620      90.34291239       1.26226293      -0.64440423       4.37987498      -0.80074082       0.49461862       0.83858909
Na      22.73974446       5.89019962      92.51341392      -5.38608242      -4.76499709      -1.71553755      -0.80826188       0.74943155       0.77557343
Na      21.45030646       3.93663859      94.65877022      -2.03040535      -1.05805062       3.30438530       0.12985096       0.03732362       0.32448805
Na      22.55514727       6.43320262      97.62351887      -2.01578108      -0.93046602       5.68691189       0.13041810      -0.90094415       1.54733307
Na      18.91368771       7.67618639      78.39927096      -2.39197379      14.47759612       3.76956042     -12.75459873      18.69083087      14.81026876
Na      20.87621390      14.28169038      71.24420158     -12.55521209     -11.93668249      17.04626935       0.45446015      -0.11779091      -0.82119490
Na      15.31409688      23.33948015      81.43395799      13.24835410      17.25651874      -2.59359069       1.20141878      -1.57201154      -2.96749979
Na      16.42462864      -0.59180200      76.45520635      -8.34067821     -18.82706814      -7.79046983      -0.92065350       2.76134261       1.65450519
Na      20.79934335       7.14826679      86.14291127     -14.81582134       1.02773165      23.23977307      -9.75227668       2.25121544       1.17727305
Na      20.73341205      11.57283691      87.39740449      -5.28834250       5.65280615       5.61492281      -0.88269457       0.45204625      -0.49441698
Na      20.84386186       8.91787127      88.10810778      -0.81262382       0.40421474       2.27147005       0.22626637       0.92731028      -1.45999643
Na      23.96381091       7.21045632      87.50432417       1.45490403      -2.40716328       0.10149526       0.43289816       0.05682693      -0.85531354
Na      21.09414161       7.52235780      89.80120502       2.65806647       3.96314476      -0.70024314       0.59368671      -0.16901634       1.16440152
Na      22.34131398       8.50595481      96.22494836      -0.77087735      -1.00028102      13.47215742      -0.46236619       1.75122941      -0.79627850
Na      19.38124808       7.88041973      94.35050571      -0.96653905      -1.73148031       6.71360919      11.89204153      -4.84733174      18.62325759
Na      26.24322651       9.34724258      94.57843637       2.25331890      -3.15363460      -2.73380660      -1.04891352       1.24318416      -0.04648512
Na     104.08395420      76.87127430     -33.84619043     116.11013838     -10.05399159    -126.01918207      -5.12639253      21.55703168       3.68860757
Na      25.48152200      16.45519543      82.69511455      -7.14786946      10.69491162       3.49923575      -0.83553638       6.96013488      -5.63406220
Na      22.29138398       9.86149076      78.67093722      -2.67512463      -0.19171773       7.67082336       0.28807413      -0.57273868       0.16084792
Na      28.35238405      12.09889091      78.92989958       6.87381167       2.71956985       2.18184048       0.35255938       0.35191693       1.27470291
Na      20.70676893      12.58589278      80.94696148      -1.69575776       0.48502980      -3.39130733       0.10085344       0.01354553       0.16867688
Na      22.76542804      14.49201437      83.26772179       1.41221900      -5.03771617      -8.75537836      31.93781265     -10.49065882       5.49539449
Na      21.53497085      13.81903930      85.81998948       0.02890367      -0.40191382       2.76423170      -0.18622559       0.07949819       0.30092740
Na      23.06109803      14.79743699      88.44381034       4.64135841       7.82476302      -1.78559564      -1.17705408       0.18917340       0.11375193
Na      20.18571699      12.34600373      90.46983280      -1.21812181      -2.15609105      -0.53832550      -0.18676731      -1.07528574      -0.49352299
Na      21.79126655      14.16789577      92.51303727      -1.30320024       0.04816025      -1.22163537       1.28263498      -0.59409819      -0.49814921
Na      20.85474258      12.15014000      94.46487659      -3.02933070      -0.60138292       7.73269385      -0.23635188      -1.71464757      -0.18697256
Na      21.22749196      14.59937150      96.04109006      -5.93511876      -0.33074379       1.39253733       0.37118484       0.11829700       1.50010652
Na      20.72036843      14.47632895      77.07525198      -2.92020471      -1.80117903      -1.07696808      -1.89175792      -0.35112809       1.90611923
Na       3.37699178      13.51124634      81.55237181     -19.64243291      -2.43161697      19.83432539      -6.79082088       2.16374348       1.36155085
Na      20.96572518       2.56366116      80.18369715     -12.79738739      -9.16736725      34.02556186       1.39729081      -4.31456068       1.51328785
Na      22.05859362      18.28780007      78.43788638       9.68081490       2.44219128      -2.38148360      -6.88702702       0.82245447       0.19980006
Na      19.66116165      15.16235658      84.13787556      -2.45582672      -4.56852987      -4.62175659      -4.03135203       1.24937412       2.71698904
Na      22.18739454      18.54115958      86.33425185       3.96758471      -0.91794406       4.22360693       1.47701861      -2.54580506      -2.24506407
Na      19.91091682      15.82300377      86.96278542       0.35053156      -2.90661802       1.76492100      -0.45206558      -7.68147939      -3.03471019
Na      22.70155870      17.70278460      89.70388206       0.71064683      -3.92903262       8.77503671       1.23415305      -0.36453630       2.25717560
Na      20.16398337      16.89787964      91.16401257       1.06261791       4.88869064       8.01446048       0.41224630      -0.00856782       0.23092729
Na      23.68578973      17.40820360      92.17499949       1.83908647      -3.39102583      -4.65830953      -0.49877054      -0.05626140      -0.07474744
Na      20.03521855      15.66764593      94.10732647      -0.43020866      -0.95467544       1.21935031      -1.17495870       0.32298616       0.00355050
Na      24.01794338      16.37412615      98.52909445       2.29678568      -7.29951163       4.45830952      -0.29596031      -0.25447274       0.41798794
Na      26.15103690      10.08916453      68.81292708       9.36795451      -0.46393578      -2.71960630      19.89081876       0.15244617      14.34644371
Na      23.61919666       6.41711897      74.85869055      -3.80141853      -7.26850290      11.30341007      -4.94261361      -1.30181512      -0.21763290
Na      17.03109823      16.80772226      74.33915020      -5.27607783       0.94180319       1.96086863       0.58328247       0.32493889      -0.13952016
Na      24.81109841      22.71721237      80.55398892      13.77554377       2.65410506       8.43364872       2.53036287      -0.97384674       3.78275980
Na      22.40134137      21.07352191      80.79026306       7.11463882       7.73959658      -4.24512897       0.10109364      -0.35529016      -1.44183969
Na      23.60010744      21.30340772      82.63207365       1.89160661      -3.52051189      -1.74343154       0.31559470       0.09623145       1.00772874
Na      19.97833734      20.76765487      86.16110061       5.38897193       3.75835926       0.62961761       2.68263993       0.49330353       1.41862221
Na      21.89557626      20.17256257      87.54365940     -19.30550497      -7.34872721       0.44990638       0.60459748       4.01052133       0.35170027
Na      21.53888776      21.35395230      93.18765765       1.85331072       9.18410601       5.51025633       1.85146616      -1.23632786       0.22011564
Na      19.06457529      23.37060553      89.35858437       0.70616026     -15.14402109      -9.71836596      -2.71010906      -1.02787565      -5.58115756
Na      18.19113737      16.23417411      96.71218130      -5.42277950      -6.44985249       4.41829013       0.06128477       1.76851345       0.92307413
Na      23.58616036      18.90894458      97.94585686       0.89085281      -1.83073294      -3.83998630       0.14768819       0.62224449      -0.39986545
Na      31.53841544      25.12665928      80.72414580       0.85537428       7.17082818       2.10875404      -3.08446506       1.53585275       0.15509109
Na      -2.96728614      10.48752581     136.51793607      -4.37153285      71.54328440      68.92641025      15.52408722     -21.75025773       5.30582964
Na      22.27103813      24.37678290      79.72616813      16.62306624      -3.14094210     -13.82767833       0.88918928       1.61354755       1.38037200
Na      24.49423913      26.10912382      87.50821500       5.45475239      -5.35799052      20.93479410       0.03810182      -0.58689753       0.05068991
Na      20.40857030      22.66947531      80.94368542      23.09042957     -12.73459527      -5.74681759      -0.26179933       3.11758732       3.71397122
Na      16.89354486      23.11586958      83.01450619      -6.39637885      -5.39762712      -0.88651977       3.23078259      -0.82438649       1.80095749
Na      19.52673663      25.28744595      87.69373974       4.48159565       7.21831990       4.88688221       0.13426341       1.11525301      -0.96602929
Na      23.49716800      24.43277755      90.53051006       2.36272939      -7.39964792      -1.95970556       0.98293667      -0.18605775      -0.36464249
Na      16.54939662      24.97767262      92.80649524     -21.49467783      -7.85465213       6.94972442      -0.13400945       1.38939822      -1.02354632
Na      21.23392453      24.81195976      91.45387002     -13.36178415     -10.18860553      -3.37967272       1.18617864       2.12792797       1.15046770
Na      20.60596054      24.14078688      95.07525483      11.97737466      -0.64818638       8.06853339       3.49616500       0.33864052       0.99601376
Na      20.60787550      28.55641146      95.37644623      -3.50878409      -1.29740219       0.25451726       0.64564322      -0.34111112      -0.54523601
Na      68.21173908      23.80288968      81.51662662      11.24534265      10.25865750      -7.38919520      -0.49447279       0.69763501       8.65044300
Na      22.94596852      -2.36115456      75.40294800      -2.83755559      -4.24718831       1.41176379       0.85699114       1.78300262       1.83340401
Na      25.14292478       3.43704150      76.66249601      11.55739038       0.98393914       3.15128877      -1.74522906      -0.35144624       1.39666397
Na      27.38146917       3.39034996      80.46918516       0.08429186       0.29201869       1.67569262       1.96994552      -2.73984248       2.58202448
Na      26.64369290      -0.24790046      80.51186653       5.79961948      -0.82345368      -2.63164935      -0.07125836       0.03055089       0.12044559
Na      27.82783172       5.68918833      85.43702037      -3.60077815       6.89584539      -2.57244630      -1.86718374       0.61209628      -0.85604624
Na      25.01529008       0.02167419      88.17410119       0.77753179      -0.33962308       6.80150069       0.06986609       0.92484282      -0.35759227
Na      27.58731620       2.90804869      88.42828059      -1.60751127       1.54882757       0.23358138      -2.86530293      -1.84578683       0.80308053
Na      19.22511866      -2.21335683      93.52271259       1.40368616       3.92099681      12.64656326       0.08699397       0.90470109      -0.56482650
Na      27.68793142       2.64016378      92.63037812       3.07820863       2.14464826      -9.81294572      -0.11425054       0.14974074       0.26224766
Na      19.80418999      -4.34641468      83.93861867     -32.91863834     -33.67850912     -64.83190399       0.74332530      -0.59497085       0.28330468
Na      21.83688155      -2.15605941     101.15842402      -2.89052353       1.83500858       9.97301967      -0.33681711      -0.03458525      -0.80902596
Na      25.15196615       6.41176506      73.33282450      15.22299859      -4.93860794      -1.96816442      -1.63825146      -4.94964298      -6.97361258
Na      26.02418106       7.48770227      74.24036849      17.00238714       4.05443445      -0.46401085       6.25423648       6.02897893       1.41175012
Na      16.61234542       0.85247476      83.05504755      -3.60620434      -4.50154780       0.06166544       1.10705803      -0.82186108      -1.45646209
Na      23.13210723       8.85178013      84.12545703       0.97964640       4.71729595       3.09488986       0.16932559      -1.02495974       0.42953974
Na      25.81828081       3.41456946      81.39891028      27.43213308      -1.53170776     -17.58965113      -4.12809320       0.02342063       2.46122152
Na      25.21471176       5.97970110      85.04696070       7.43456989      -2.80377406       7.94790952       1.81084493       4.94056078      -6.07633755
Na      25.23042438       3.56059500      87.52354275       0.76759055       1.73794714      -0.33165011       3.95986978      -7.10800883       8.77593896
Na      25.92534574       6.21946166      88.36117645      -0.69705714      -2.72652374      -0.52901425       0.53116134       0.07582878      -0.54262185
Na      24.57370018       4.25445822      89.80448725      -1.10500984      -0.64401702       0.78814138      -0.17578519      -0.62436792      -1.21307495
Na      24.71538854       4.73927983      92.27514478      -6.41705632      -5.60511076      -9.65629782       1.49727967      -0.78758733       1.09525632
Na      24.79100864       4.19786815      95.50082474       2.86298693      -1.50734254       0.98533616       0.05427890      -0.36002615       0.04477636
Na      31.39618131       4.09155864      96.42836338       1.81477274      -4.60775991       0.46332611      -1.41689510      -0.16764426       1.76227935
Na      16.17421570      11.62352383      71.64555526      -2.73252787       3.99599048     -10.31587792       2.21055139      -0.02189573      -0.03833194
Na      18.90779419      23.18909500      64.66549112      13.11572229      17.12540303      46.40332602      -7.47623490      -5.00463172       1.26816666
Na      25.54217335       5.77170975      76.03636039     -20.42225908      33.17179628     -22.49424512       3.82731921      -3.91253015       1.23201374
Na      25.70867289       7.09599874      82.40106246       6.32001878      -2.66440754       1.36302837       0.69166037      -2.13468899       3.41658564
Na      24.38896116       4.94833235      85.95683867       8.72075470      -4.72583099      -3.36511389     -26.08492434      28.15785747     -45.58809286
Na      26.47661246       9.63618398      84.25102500      -0.59077839      -1.34928075      -1.88188617       1.50410255       1.17722018      -2.21861307
Na      25.67533068       9.29785704      85.88613089       3.16088005       0.27747522      -1.17895582      -1.92969399      -0.83430368       3.94020233
Na      29.20714233       9.44135690      90.65187663      -3.11557077       2.02391093       3.00740071      -0.95309193      -1.57004524      -1.02905791
Na      23.49361320       7.22695845      90.25737125       4.44984636      -0.65422116       0.97770249      -0.33352122     -14.05766810      -2.17248426
Na      37.28666427       7.08535408     101.24094763      87.34349338     -24.81352278      67.34502658      -0.03667193       0.67676574      -0.95985741
Na      24.35552250       7.03901809      95.50302451       2.73531900      -7.17249511       3.10783908       0.64140593       0.07412259      -0.68453800
Na      26.76038368      10.60984380      97.50164719      -0.39210375       1.44367372       5.94707003      -0.60714114      -0.13347707      -0.25497765
Na      31.66673207       8.88967377      74.31820311      -7.34312215      -9.18319758      -4.16388483      -0.09693405      -0.75046007      -5.89569823
Na      18.36790044      -2.78414485      81.77511058      -9.67053565     -25.54154645       5.13001635       2.53606929      -0.70001165      -3.48382593
Na      -9.58357645       2.39609288      49.69307020    -111.99129451     -10.39192272     -66.15908274     -15.50670325     -24.89287761       5.00648054
Na      29.97331281      24.54402300     108.21742618       1.21510872      18.57543437      34.60166598      -1.54713918       0.80095444       0.22654028
Na      22.92063090      11.35284549      83.53233685       0.80002558      -1.15346773       0.86768029      -0.07604220       0.65372795       0.00103147
Na      33.78203956      13.78146785      82.41549765      28.73305532      24.54232238     -15.09938826       0.69556394       0.94346549       5.16607176
Na      23.27613319      10.78295657      88.67328656     -11.86520651     -12.52898178      -3.08736851      -6.19783579      -5.44973515       0.91427792
Na      24.76446195      13.39460196      88.98382723       2.93309816      -2.25186210       6.25660498       1.23601003       4.51401288       2.29337432
Na      25.96831220      13.73629019      93.07882256       2.60091163      -8.16021024      10.71634851      -0.41548331       0.03369112       0.88886135
Na      28.96652488      12.31131499      92.16433111      -0.87898754      -2.86406287       7.96301484      -0.40422789       1.09726959       2.41043227
Na      23.94360256      15.39839041      96.21152071      -2.05083515       6.05040460       1.77243787       0.42714013      -0.16966718       1.71205962
Na      26.72455469      14.60235081      97.17967646       2.45539281      -0.33311952      10.02146655      -3.74305482      -1.46643948       4.89292423
Na      24.55275042       9.92181656      81.24594687      -2.63628082       2.26834140       8.73071771      -4.63265526       5.12422611       1.20105249
Na      25.74351253      21.77662812      71.65164567      -5.26222214      -0.17400692      -9.70035922      -0.70032284      -1.93081285      -1.23746515
Na      26.09006898      18.05078890      76.25417584     -11.07703581      -0.67040568      -3.54639204      -0.28988661      -1.29765362       0.49885740
Na      25.22726180      18.91536804      83.47588292     -27.04774438      -3.49171871      61.98767078      16.28522946       0.97744371      -7.93573386
Na      24.34260564      18.66120148      83.72749668      -4.81066749      -0.59834614       0.04216315     -18.41713183      -6.85147539       4.47085994
Na      29.83753375      15.98652892      82.84994272       2.48982973       3.54257423       2.25525421      -0.52665740      -0.00764310      -0.14460183
Na      24.00465402      14.76392513      86.01613889      -7.44827402      -2.82583853       1.73687935      -0.79846605      -0.04450143       1.48677465
Na      25.23255147      17.37193888      89.82002023      -1.92595503      -2.34300690       4.10747832       0.13530493      -0.98191390      -0.74811582
Na      26.67378239      16.86196444      92.82943982       2.33291673       1.72951497       2.95941142      -0.15898749      -0.85868070      -0.27118851
Na      25.91494492      19.29613205      91.77985540       0.05911768       0.20655200       0.90746535       0.55846786      -2.50666908      -0.73374012
Na      23.89307201      16.87767672      94.66658536      -0.26810614       5.65656512      -2.99689719       0.09558749       0.63548820      -0.45454031
Na      26.99247682      17.88777380      96.87780966      -1.54016179       2.12593584       3.23630351      -6.64978692       6.20303142      14.65315876
Na      29.38792881      50.20166104      57.21198699     -51.65913851      55.31546121       9.59654598       0.94506842     -18.67234904      19.89057217
Na      14.57798104      30.61146812      91.78893948       0.85575810       1.58408422      -2.00066265       0.26527150      -0.41691555       0.12233625
Na      22.56466792      16.98957007      83.00003488       2.27206472       1.74323184      -3.09667387       0.28465919       0.88645825      -0.54666536
Na      27.28506852      18.48871591      85.42635354       5.24620287      -4.73512366       0.32815095       0.94347334      -0.82852944      -0.16614229
Na      27.06964687      20.69800812      82.74392855       0.36978823      -0.11854398       2.13389155      -0.58440455       0.72894454      -0.65096600
Na      25.94080511      21.47126860      90.92686376       4.83806949      -1.19451744      -1.01552414       0.68176002       2.81348238      -1.82579199
Na      25.46245467      20.09479235      84.72949175       4.47097792      -7.57108823     -12.34830099       0.40454273       4.19993617       4.41207128
Na      25.95269879      19.62621261      89.27147242      -2.27472164      -5.15439124      -0.06403473       0.47843120       0.05746895      -1.83035727
Na      23.61372193      20.95633162      92.08527928      -3.78042379       2.46434443       2.93815004      -0.93073261      -0.20671535      -0.80850149
Na      26.29864789      20.85899720      93.22083087     -22.32864710     -13.87217144       4.81137874       2.42682297       1.98788535       1.89495907
Na      25.29889906      19.31836503      94.47230813       0.05231731      -0.76041127       4.09488057      -0.68408365      -0.10468327       1.80286485
Na      27.08082087      22.54351321      95.97775027      -1.90159107       2.14863053       0.37498847      -0.05506933       0.10329231       0.57019078
Na      53.53329165     111.42549327     107.40238095      11.68443916      20.00684789      29.42181870       1.85403724      -0.92209964       0.55923353
Na      56.09990078      53.08051391     112.03800709      14.51160697      14.71054009       3.13716667      -5.72099632       2.25351835      -4.54235147
Na      26.18732003      14.59087846     114.66171619       1.52040774      -6.81736126      -4.11443692      -3.10553701       4.10859650       3.38643815
Na      28.40124644      28.39349694      83.52250846      15.39642045       8.24495896       3.92282180       1.38152142      -1.15842959      -4.13315582
Na      23.67289290      24.30111747      81.98778887      -0.06539775      -2.27059103      -4.48612036      -0.06461817       1.22821558       1.74863353
Na      31.36800648      30.43428554      89.81282788      22.49311126       7.03873175       3.43639696      -0.95293257      -1.53953248       0.71157768
Na      21.00222865      26.83329863      84.82072360     -13.78592299      18.56202514     -21.27350686      21.86131156      -3.43388929       2.95795761
Na      26.72071475      25.24371662      89.84262233      -6.52136854     -11.10923593       4.91888339      -0.25766213       0.10194855      -0.28958039
Na      24.26008729      22.58485903      94.33535913      -5.06212789      -3.71284577       7.95247415      -0.26367213       0.79233939       0.69020006
Na      26.78007313      27.16118103      92.43166832      -3.84737011       1.02688199       2.52666642       0.13064836      -0.26790266       0.06119996
Na      24.59318114      26.97199060      96.52648299      -2.43125270       9.12475120      12.19334821       0.53536934      -0.02173838      -0.07467296
Na      20.75006802      18.22715092      93.83130347      -2.49110549      -4.73789030      -0.17425196       0.74620110       0.55056400       0.82836845
