2712
Lattice="28.6612 0.0 0.0 0.0 28.6612 0.0 0.0 0.0 100.8156" Properties=species:S:1:pos:R:3:momenta:R:3:forces:R:3 energy=-5050.0147314121805 pbc="T T T"
Na       0.58879992       0.75168538       0.20773022      37.20908461      55.56808009     -21.13470790      -0.28226383      -0.34724832      -0.10112899
Na       2.08704432       1.97884476       2.35179802       0.12621622       0.45536114       0.40266701       0.23701190       0.20807573       0.28993546
Na       0.05377267       0.04941477       4.37840466       0.48199870       0.59379573       0.25859249       0.12597799      -0.15625154       0.00823602
Na       1.85906496       2.15610852       6.40474297      -1.01161228      -1.37801147       0.83672884       0.10314225      -0.05665950       0.00722781
Na       0.10559671      -0.06308255       8.66992436      -0.28330118       0.10433873      -0.80976714      -0.02925866       0.13280382      -0.05414101
Na       2.10710019       2.30354863      10.83165494      -0.24491430       0.19876110      -0.30482093      -0.05323332      -0.06095552      -0.05785200
Na      -0.22362667      -0.03418208      12.46202000       0.60680002      -0.00740833       0.45767767       0.19552790      -0.06682669       0.07263495
Na       2.06003539       2.01423287      14.76010513      -0.38204407      -0.31988296       0.33160647      -0.01719731      -0.00669092      -0.06204349
Na       0.09260203      -0.07247880      16.85004422      -0.34653872       0.19272020      -0.01314423      -0.07251230       0.00075635       0.03630866
Na       1.93243444       2.23925932      18.60575210       1.14228377       0.17156662      -0.43614419       0.08481497      -0.08885550       0.11458365
Na      -0.17962849       0.05711422      20.82233967      -0.20006555       0.56757007      -0.59566429       0.08122042      -0.00176805      -0.03835187
Na       1.95620738       1.95687066      22.89596275       0.30853793      -0.46802560       0.25362649      -0.06338606       0.03083929      -0.03613398
Na      -0.18088507       3.99759820       0.58002392       0.10970278      -0.58434227       0.18496869       0.05482397       0.23647074      -0.10993139
Na       2.10426220       5.89888997       2.35716407       0.35734956       0.51293848       0.03818342      -0.02637886       0.14458382      -0.05932571
Na      -0.17645940       4.29127278       4.26395409       0.32294295      -0.00999799      -0.17238780       0.11198212      -0.06183765       0.22906055
Na       2.04283234       6.22779753       6.62492301      -0.62645766      -0.14900373      -0.27868141      -0.09116036      -0.01563605      -0.10579290
Na      -0.10734415       4.05262034       8.44939561      -0.35941954      -0.71238917       0.12617731      -0.02464167      -0.00051128       0.07750405
Na       1.91391619       6.18943351      10.54641652      -0.19557178       0.07838257      -0.42900462       0.02168938       0.07985481      -0.00254884
Na      -0.14676807       4.32693505      12.75522956       0.07326974       0.09423484       0.29923436       0.08007233      -0.00645943       0.08957355
Na       2.22635885       6.68469120      14.89110869      -0.38383786      -0.10430639       0.13219733      -0.07203916      -0.15586006      -0.11074524
Na       0.04638976       4.24283698      16.64329645      -0.37745497       0.36257329      -0.32729393      -0.09093011       0.07141741      -0.00746631
Na       2.21574067       6.12687906      18.86051483       0.33833304      -0.04235644      -0.11696483      -0.14316185      -0.02333379       0.04375010
Na      -0.23800907       4.00592201      20.84143917      -0.06868893      -0.89115458      -0.83085019       0.06181613       0.08191704       0.03720943
Na       1.76749416       5.79668498      22.87669169      -0.14526191      -0.66028540       0.03131256       0.03390741       0.07111371      -0.03619227
Na      -0.27542592       7.95632412       0.62701008       0.24086814      -0.43131441       0.44310407       0.07774422       0.05099946       0.05402816
Na       2.06814962      10.18262449       2.38297651       0.11901973       0.09381613       0.47688967      -0.01097021      -0.05306856      -0.15093738
Na      -0.09417286       8.05156786       4.26841567      -0.40315109       0.08403260      -0.79389614       0.05013151       0.00662947       0.13437433
Na       2.14592993      10.02117812       6.44237439       0.09224571      -0.77194674       0.56597248      -0.04799207       0.10042970       0.00415482
Na      -0.18564081       8.40849326       8.48328608      -0.60389391      -0.07632948       0.56666447       0.02271041      -0.10204553       0.00195610
Na       2.04140165      10.31382390      10.44245360       0.40464450       0.00062799       0.05261504       0.08812235      -0.00962517      -0.07694627
Na       0.02992780       8.53007847      12.56194669      -0.17266254       0.12977378       0.72968406       0.00708668      -0.04926077       0.05063524
Na       2.15555041      10.49078602      14.86458312      -0.17315902       0.82136708       0.39203233      -0.04669868      -0.00453462      -0.09889574
Na       0.07605356       8.26130819      16.78641596      -0.33373410      -0.48477780       0.40934936      -0.03163240       0.15328276       0.19367584
Na       2.08562135      10.37297594      19.15692204      -0.51264651       0.05652551      -0.50141624       0.00994437       0.04565634       0.00689215
Na      -0.18723552       8.13702746      20.87635365       0.21812921       0.02023125      -0.04989458       0.17736567      -0.02700610      -0.01867767
Na       1.99080704       9.96083383      22.91229577      -0.04017760      -0.07374329       0.31033824      -0.12447247       0.04420500      -0.07885552
Na      -0.05453172      11.99683730       0.40271645      -0.25543601       0.10926068       0.40268851       0.07298063      -0.03828848       0.10577375
Na       2.13033355      14.11848000       2.18980305      -0.16730558       0.12741964      -0.70438350       0.05384083       0.01447037      -0.10312335
Na       0.17500733      12.19701681       4.41872509      -0.03694151      -0.05411442       0.26845758      -0.15680935      -0.02759758       0.03501242
Na       2.13145857      14.25089367       6.38653392       0.02624681      -0.57692903      -0.11438836       0.11638886      -0.03657733      -0.03263258
Na      -0.15714709      12.37143221       8.09360558      -0.03214607       0.06471453      -0.24414671       0.07162562      -0.05880853       0.09202270
Na       2.26370888      14.21844108      10.42434067      -0.49196763      -0.30493267       0.08358008      -0.12758978      -0.03117576      -0.00438293
Na       0.05477365      12.34661551      12.25333016       0.29634861      -0.32736062      -0.14547169       0.01750915       0.14580001       0.13802554
Na       1.91520348      14.37404825      14.74880671       0.08235034      -0.07415924       0.37813668       0.06351765      -0.03345996      -0.02879350
Na       0.00610702      12.30452963      17.09359102       0.59262560       0.03779670      -0.75898700       0.10463593       0.14453667      -0.14549346
Na       2.07856893      14.31974992      19.03729595      -0.67091723       0.17691328       0.25235818       0.07239086      -0.03927792      -0.01563303
Na      -0.21942367      12.37048806      21.05349296      -0.30659421       0.45252522      -0.02739545       0.10347874       0.09493274       0.10946626
Na       1.97193112      14.32654585      23.07542438      -0.03495133       0.50028500       0.98730401      -0.03867564      -0.00289541      -0.02741869
Na       0.06005702      16.33526102       0.63637572      -0.45338507       0.32721561      -0.53707347       0.05602218      -0.00285808      -0.15916131
Na       2.00672056      18.45992271       2.36666923      -0.47782095       0.29846064      -0.45260696      -0.00795092       0.01906672       0.03815107
Na       0.14650001      15.97121158       4.27054212       0.03314432       0.18954027      -0.78774779      -0.03727849       0.12816009       0.06868897
Na       1.93154371      18.56995711       6.26225739      -0.50948636      -0.66781600      -0.06425937       0.00709641      -0.13371599      -0.01486914
Na      -0.00943845      16.15626261       8.32071170       0.05889356       0.45538270       0.03142994       0.04768915       0.09922295      -0.00804118
Na       2.18420975      18.25226210      10.28923457      -0.29709685      -0.43994583       0.83328574      -0.11626854       0.13033450       0.07955903
Na      -0.06373028      16.39524168      12.27421243      -0.24033248      -0.52445503       0.50886510      -0.01268337      -0.02305585       0.02417436
Na       1.87129054      18.32287386      14.49974883      -0.10949801       0.07314346      -0.30932596       0.18239098      -0.04910507       0.20034483
Na       0.07546470      16.43202025      16.92505753      -0.12163955       0.96207160      -0.86796668      -0.05329246      -0.08985187      -0.01084760
Na       2.09845895      18.42561088      18.80886015      -0.53679152      -0.19067041      -0.21280286       0.04525029      -0.00807736       0.08223973
Na       0.01586413      16.24512517      21.02827154       0.68651992       0.06504677      -0.66407756      -0.10909628      -0.02228640       0.00665625
Na       1.86249105      18.39354227      22.92584161      -0.26998406       0.35516672       0.15790358       0.01007760       0.00145886       0.00806887
Na      -0.02288209      20.40042525       0.65737523      -0.46699068       0.17593118      -0.06247876       0.04637550       0.03937512      -0.11297056
Na       2.08974949      22.50735646       2.23136719       0.34742175       0.49577403       0.18066520       0.08793031      -0.02146192      -0.10557162
Na      -0.17809396      20.65254842       4.18204105       0.68100627       0.06433940      -0.34610471       0.03561682      -0.09767172       0.11341631
Na       1.98058625      22.58004749       6.22213678       0.14023048      -0.56221185      -0.10597526      -0.00312193      -0.01518298       0.09585537
Na       0.10913775      20.33579493       8.39969733      -0.23196756      -0.17829526       0.53939387      -0.08331452       0.05819470      -0.00328230
Na       2.09819941      22.42064106      10.42580208       0.26083164       0.23368881      -0.44993627       0.01123961       0.00450129       0.05700830
Na       0.21612492      20.36447434      12.68599565      -0.38700465       0.30429785       0.89839187      -0.15430120       0.06255183      -0.16825916
Na       2.21320532      22.49043195      14.62956152      -0.10589802       0.15595629      -0.50212964      -0.01332086      -0.06150966       0.05896726
Na       0.23943580      20.52510439      16.93473620       0.88090408      -0.68176738      -0.39567660      -0.05308422      -0.00036104      -0.05431868
Na       2.30387579      22.45853600      19.06487583       0.99089103       0.39507930       0.48455091      -0.14391829       0.20258520      -0.04900860
Na       0.02148722      20.45754331      20.95129796       0.40904865      -0.11013580      -0.74492619       0.04833504       0.01682541       0.00002840
Na       2.06451087      22.47441445      22.92705401      -0.51200395       0.27169819       0.21842932      -0.02641844      -0.02388823       0.01597195
Na       0.17779162      24.75653261       0.46297728       0.23262750      -0.29116537       0.42645094      -0.09912794      -0.14624401      -0.10022933
Na       2.66386528      26.12353288       2.94223025     101.94307197    -157.11084978     254.17339395    -128.67719857    -347.30889515     689.85013983
Na       0.00410510      24.46104373       4.15688055       0.29040860      -0.14592925       0.15207130      -0.10735893       0.10029193       0.21564183
Na       1.91247202      26.45290108       6.49597930      -0.79138465       0.56930443      -0.22440551       0.09080251       0.05744415      -0.12652381
Na      -0.04020791      24.32967978       8.41648357       0.20540103      -0.27824947       0.35265864      -0.08062059       0.01173436       0.01720397
Na       2.05709604      26.25154316      10.38939703      -0.20773578       0.29102644       0.30723165       0.00385747       0.08030260       0.12144171
Na      -0.09223473      24.31910503      12.72117441       0.42378058      -0.44760783       0.58702401       0.02001993       0.08739261      -0.05088327
Na       1.98169578      26.81981975      14.53315666       0.15080467       0.59192615       0.17468185       0.01574859      -0.08859984       0.04897377
Na       0.15748809      24.55531946      16.73181900       0.07769535       0.21011307       0.09990247       0.01179966      -0.05084592       0.02319626
Na       2.32071621      26.59195248      18.75932010      -0.10078942      -0.35654605       0.22913283      -0.14659088       0.04200249       0.07458624
Na       0.02492966      24.77168077      21.36796937      -0.36810135       0.53996791       0.05174514       0.10348306      -0.12256866      -0.20984237
Na       1.86481341      27.07874461      23.02952903      -0.28751322      -0.06582086       0.44001544       0.04881286      -0.02018181      -0.09625198
Na       4.46418705      -0.12654748       0.61798890       0.18297287       0.28361709       0.42291005       0.26685181       0.53109377      -0.43258159
Na       6.38062623       2.18253780       2.20785820       0.01652467       0.19560740       0.51613093      -0.11822766      -0.16267614       0.01252546
Na       4.23534495      -0.15179386       4.24159951       0.19558496       0.32474951      -0.11252392       0.16833623       0.38730053       0.58489352
Na       6.33144225       2.05280601       6.68660266      -0.48366528      -0.70849225       0.29024957      -0.13771679      -0.05744436      -0.17095542
Na       3.92320072      -0.05114661       8.38664986      -0.26200317      -0.52059885      -0.23746788       0.04494637       0.08020998      -0.01844894
Na       6.19612288       2.22923652      10.66924694       0.15821382      -0.33294099       0.30384426      -0.05434242       0.02502111       0.04972168
Na       4.11172858       0.02765851      12.60742388       0.27009912       0.18065665       0.64100284      -0.00797211       0.00799182      -0.04239869
Na       6.38014480       2.01244142      14.65778563       0.26902321       0.35668883      -0.02414310      -0.10735496       0.03346829       0.00212553
Na       4.29622495      -0.00255130      16.78216229       0.01551373      -0.08217590      -0.21169886      -0.08159836       0.04951987       0.00145948
Na       6.45082986       2.20187419      18.41862179      -0.20869062      -0.66922946      -0.44929919      -0.13369717       0.01554074       0.19783886
Na       4.23061552       0.18349458      20.75332111       0.06154301      -0.26393135      -0.46619241      -0.07760813      -0.05676655       0.08369209
Na       5.98056889       1.89830429      23.21483121      -0.19065089      -0.44437109      -0.00740498       0.02175565       0.08564401      -0.02069604
Na       4.03000197       3.92388851       0.45193464      -0.29157667      -0.67421926      -0.13304357       0.05423171      -0.01962087      -0.02043457
Na       6.07114451       5.90164091       2.39020453      -0.01286139       0.81431491      -0.37928732       0.03436745       0.01968082      -0.04484801
Na       4.06678331       4.06266855       4.59086429       0.78070771       0.23543988       0.17790326      -0.01103880      -0.05944925       0.01475449
Na       5.99400311       5.90828506       6.56812366       0.41705200       0.18990001      -0.10821908       0.11418366       0.13965620      -0.09824571
Na       4.03619597       4.17965627       8.59141921      -1.30114811       0.53428610       0.64636222      -0.00061676      -0.09293416       0.02162146
Na       6.41426506       6.21929964      10.54238027      -0.26795469      -0.44673924       0.11126390      -0.07019031      -0.02783116       0.03935993
Na       4.11874217       4.48739288      12.87237348      -0.58249107      -0.30690692      -0.06877996       0.04811196      -0.06688181      -0.02286935
Na       6.28479368       6.59697085      14.99487827       0.11500799      -0.36414166       0.41975629      -0.09161024      -0.08961210      -0.05309912
Na       3.95099181       4.22467943      16.70635197       0.42657304      -0.28299297       0.18227135       0.17785874      -0.01820211      -0.04354463
Na       6.19213479       6.14408447      18.85408939       0.12098920       1.07316586       0.06453874      -0.01346011       0.01161796       0.02880868
Na       4.31445844       3.93385060      20.93365158       0.83870361      -0.64650882      -0.79390555      -0.10743551      -0.01282879       0.00915159
Na       6.25784703       6.14570532      22.59588965       0.17642255       0.13917240      -0.19608324       0.06523657       0.06687779       0.22692232
Na       4.25987414       8.14310818       0.68493739       0.20818162      -0.83569297       0.02360264      -0.10011658      -0.03105356      -0.14885431
Na       6.24618640      10.33417809       2.22894423      -0.16798472       0.17394504       0.32936749       0.08626826      -0.07803743       0.00883609
Na       4.13209602       8.17889025       4.40250850      -0.36230707      -0.34186725      -0.02585553       0.05027653      -0.08051070       0.01943318
Na       6.21430699      10.25405022       6.36864009       0.23898714       0.09802584      -0.02640477      -0.04921421      -0.05754559      -0.13142537
Na       4.31685323       8.19534704       8.53927595       0.83576980      -0.54912772      -0.22729111      -0.05652656       0.02247971       0.02950307
Na       6.37408724      10.26628059      10.60857158      -0.25371894      -0.41404831       0.74559353      -0.03429243      -0.07092686      -0.11004882
Na       4.24771488       8.30140911      12.58334469       0.05781296      -0.48016405       0.13852595      -0.03392688       0.03497756      -0.02617048
Na       6.24007936      10.15374493      14.96048332      -0.43856477       0.01353320       0.57426848       0.01607153       0.10877593      -0.01676931
Na       3.97218485       8.44766907      17.10492511      -0.21465131       0.04925513       0.25445169       0.16374996       0.02259220       0.03079905
Na       6.15678053      10.57817949      19.25896720       0.15453419      -0.19859386      -0.04590706      -0.00491547      -0.16392160      -0.02401448
Na       3.97703709       8.04431616      21.14268389       0.19716465      -0.01554950       0.58510987       0.06845947       0.01644675      -0.04631495
Na       6.40789053       9.97284109      22.83410007      -0.07119795       0.05927652      -0.14245238       0.08279262      -0.24955295       0.12958057
Na       4.22488092      12.12538426       0.16914434      -0.27427234       1.02539935      -0.51002594      -0.04079605       0.01904170       0.17326717
Na       6.20104405      14.15799007       2.19463293      -0.29559443      -0.30649060      -0.08596364      -0.15576357       0.03185728       0.03809039
Na       4.11701420      12.13262970       4.24663859       0.21428686       0.34559486       0.21420099      -0.00893280       0.04177726       0.15086965
Na       6.11835688      14.25030925       6.20666972      -0.12449575      -0.79300948       0.11026151      -0.06827565       0.05939515       0.03585300
Na       4.26944068      12.17637353       8.38904296       0.32944834      -0.11528233      -0.19084244      -0.05313897       0.01309019      -0.01436400
Na       6.26159152      14.33853882      10.44378430       0.28109127      -0.14015705      -0.47822385      -0.01863485       0.05065670      -0.03898878
Na       4.37166676      12.30558305      12.44176776      -0.03842243       0.25579900       0.50140714      -0.11818347      -0.00150584       0.17641620
Na       6.42379705      14.21363321      15.10029603      -0.37554501      -0.27286793       0.73678420      -0.09971175       0.01712558      -0.06720124
Na       4.11607612      12.36584330      16.94678732       0.24319393      -0.04534111       0.37933153       0.01011910       0.01936879      -0.00081806
Na       5.97742931      14.37343468      19.25413960       0.50228294       0.55969360       0.62268683       0.11281331      -0.06110432      -0.01032512
Na       4.46280115      12.19813078      21.78339382       0.49472517       0.36299853      -0.33383696      -0.25665774       0.12796097      -0.12876593
Na       6.01707144      14.75448108      23.18041467      -0.19475851      -1.04461513      -0.47695563       0.09542503       0.04770903      -0.03602414
Na       3.97839168      16.56025733       0.42854269      -0.50988674      -0.15473742      -0.09265422       0.03946751      -0.13973052       0.09459712
Na       5.92494225      18.31848162       2.44744665      -0.08316643      -0.17597488      -0.38936835       0.10654419      -0.01438428      -0.00716991
Na       4.07629263      16.44750706       4.33663473       0.04774698       0.37893727      -0.13107961      -0.13647233      -0.24071037       0.00383274
Na       5.84934269      18.22202713       6.32079251       0.68145897       0.16041608      -0.71318004       0.11894252       0.11028301       0.10654559
Na       3.93693186      16.26746233       8.47430110      -0.61801549      -0.27379082      -0.34527391       0.18834646       0.03704691      -0.15757619
Na       6.16768846      18.59305309      10.56083730      -0.01775778      -0.06406037      -0.35327102       0.03658376      -0.21830060      -0.15833687
Na       4.13915946      16.36381271      12.43695757      -0.47101338      -0.21192251       0.83005458       0.05820322      -0.02419800       0.16367979
Na       6.22885771      18.50982994      15.15257935       0.37711832       0.10878464      -0.73915513       0.01453967       0.01391127      -0.09497771
Na       4.20232588      16.40578870      16.88242782      -0.51315952       0.42539696      -0.65619638      -0.10882139      -0.07043050      -0.01562742
Na       6.18840748      18.55583946      18.83569364      -0.29671775      -0.27855203      -0.31540045       0.06426979       0.07375276       0.10901447
Na       4.11990859      16.56024972      21.08012203      -0.41385537       0.87198407      -0.71277424      -0.08221770       0.01544192       0.03807814
Na       6.02629828      18.40660191      23.32746581       0.01986148       0.22864628       0.83253051       0.00027279       0.12369199       0.09064492
Na       4.14466072      20.46419074       0.74126378       0.55248090      -0.42598338      -0.00655603      -0.07805725       0.04823979      -0.29000872
Na       6.09607553      22.56912146       2.19907804       0.40686768      -0.47984047       0.09812532       0.11502568      -0.03783495       0.02228362
Na       4.09735620      20.66138355       4.52071395       0.61307483       0.57160698       0.20262226       0.05679139      -0.09668906      -0.01318849
Na       6.46863901      22.49709173       6.40473478       0.25666085      -0.06977162       0.35538066      -0.07323713       0.04433419      -0.02162008
Na       4.09450127      20.50752570       8.33041792       0.50623867       0.33251073      -0.94826700       0.02569580      -0.01606853      -0.06940333
Na       6.41307621      22.12603261      10.47155224       0.20974982       0.05251266      -0.01422519       0.00206525       0.20749306      -0.01033184
Na       4.17145483      20.28167469      12.45391682       0.58385356       0.25282630      -0.44309187      -0.08277147       0.07560584       0.16655596
Na       6.26722395      22.31938345      14.75014935      -0.18125561      -0.37813022      -0.36330372      -0.00669353       0.07734807       0.01585612
Na       4.11987968      20.65166906      16.97240324       0.09727071      -0.02042173       0.09362768       0.02344294      -0.04839948      -0.07573399
Na       6.30032702      22.74383624      19.23299852       0.90158557       0.17613445       0.34536563      -0.09280236      -0.04722825      -0.07864592
Na       4.04057054      20.45477767      21.10941234      -0.18741674       0.08977925       0.10528239       0.14474984      -0.03189654       0.08074703
Na       5.93234657      22.96543516      23.14408267      -0.59992687       0.70652598       0.13791131      -0.01732185      -0.05192354      -0.08294821
Na       4.11386036      24.52256958       0.41860384       1.28540103      -0.40574146      -0.24338743       0.37545332      -0.58960172      -0.36406096
Na       6.24972076      26.42414504       2.26102347      -0.24151054       0.47359794      -0.30622545       0.45961083      -0.02738827      -0.18913206
Na       4.29724373      24.58587264       4.32210201      -0.30993749      -0.21417821      -0.16926921       0.40413529      -0.49275007       0.77071512
Na       6.35091400      26.68984847       6.48463080       0.56168230       0.64661721       0.32561007      -0.10312710       0.02122484      -0.06661659
Na       4.24375278      24.39508260       8.18864086      -0.09330738      -0.29784963       0.19633910       0.00930338       0.01883560       0.04412841
Na       5.93764836      26.58124087      10.50663517       0.01002168      -0.28719127       0.48931552       0.08495196      -0.02346941      -0.00810373
Na       4.11197528      24.49304840      12.64738465      -0.13107437      -0.34818567      -0.34741376       0.07019132      -0.01362208       0.00130016
Na       6.22782801      26.84449823      14.66406903      -0.75497607      -1.05012881      -0.33514017       0.04143969      -0.11811472       0.02737141
Na       4.13745217      24.74149821      16.63221068       0.02675723      -0.23310352       0.03576923       0.09301582      -0.10391065       0.02695963
Na       6.31785838      26.60078225      19.00199299      -0.32702667      -0.47938876       1.03451497      -0.01031429       0.04327268      -0.03655060
Na       3.98903029      24.82235900      21.23383117       0.11041274       0.50391152      -0.12609881      -0.01593186       0.06116126      -0.00977487
Na       5.95767547      26.81792792      23.28439127       0.15172098      -0.43857617       0.65268980       0.03179066       0.06532990      -0.08184333
Na       8.20576508      -0.21231816       0.18573719       0.05228320       0.03024198       0.25652131      -0.07745409       0.11476889       0.19929823
Na      10.15671561       1.96152596       2.08674188       0.11661964      -0.26657822      -0.46115651      -0.00511243       0.02388016       0.04326879
Na       8.15464971      -0.06599001       4.13256762      -0.07701153       0.19302256       0.28026133       0.06547980       0.01047750       0.17399146
Na      10.25671796       1.88690766       6.40623377       0.19761747       0.35245241      -0.37791376      -0.08268201       0.01934129      -0.01766853
Na       8.03086799       0.10784687       8.78583880      -0.47138317      -0.03320166       0.70251877       0.14014595      -0.10579530      -0.07450028
Na      10.20505724       2.26661662      10.57428642       0.62295765      -0.28710050       0.34100458       0.01197566      -0.01566678       0.11220993
Na       8.45305083      -0.06668127      12.60246470      -0.27965115      -0.86881637       0.50666427      -0.08414916       0.03497220       0.00527656
Na      10.37227987       2.11264651      14.77482146      -0.06219980       0.81915567       0.05133351      -0.08938665       0.05986309       0.04115164
Na       8.36078203       0.05714887      16.84731812      -0.06587471       0.23373834      -0.41525228       0.08407218      -0.11942553      -0.05989662
Na      10.34564489       2.24202560      18.96471572       0.33817660      -0.04095688      -0.43831582       0.02121979      -0.02339147      -0.04613086
Na       8.17126443       0.34094709      21.23505619       0.44322115      -0.51895500      -0.19521001      -0.03058246      -0.10430986      -0.07291136
Na      10.21136244       2.22120916      23.38516884      -0.04591185       0.69431369       0.63928322       0.06294893       0.06698417       0.14605649
Na       8.18815511       4.09867165       0.34838345       0.76483391      -0.13851229      -0.67728772      -0.00211018      -0.02693738      -0.02432229
Na      10.03637224       6.01815216       2.19401529       0.29225991       0.48464946      -0.47339138       0.17729134      -0.02689868       0.02607139
Na       8.28525011       4.11234270       4.53811612       0.10328119       0.06644114      -0.23576648      -0.01065708      -0.05012274       0.00899285
Na      10.30505248       6.07201771       6.39103567      -0.10073742      -0.19921907       0.06041908      -0.05804214       0.05525240       0.00633737
Na       8.25803956       4.15698770       8.42959954      -0.06279782      -0.43604049      -0.14696841       0.02483458      -0.00771379      -0.01439929
Na      10.23884263       6.15209041      10.41211266       0.13811424       0.28866388       1.19405377       0.00030477       0.04895811       0.10006659
Na       8.29559698       4.27660462      12.85759801      -0.35493399      -0.46726935       0.87969441      -0.02969173       0.00824699      -0.07379170
Na      10.11273957       6.37308752      14.86074205      -0.20786327       0.04072126       0.02058585       0.17338356       0.00611896       0.00716547
Na       8.17192867       4.30054929      16.66153536      -0.34630101       0.28450346       0.08051376       0.13933775      -0.02791218       0.04064068
Na      10.53271784       5.98933683      18.82995876       0.78357428      -0.36460547       0.11030396      -0.04220806      -0.01174024       0.01657274
Na       8.50696637       4.04043152      21.32037429      -0.85380279      -0.49052571      -0.54386217      -0.09810059       0.09540139      -0.05406743
Na      10.34738578       6.19780845      23.49755461       0.51386404      -0.00864633      -0.32581241      -0.03263244       0.02627163      -0.12912079
Na       8.00018784       7.90143838       0.40336653       0.76173871       0.02306101       0.27970950       0.04025530       0.12502767       0.03853835
Na      10.10944176      10.18964026       2.30599275      -0.81961839       0.44670783      -0.37556190      -0.04969253      -0.07050408      -0.09831793
Na       8.20112842       7.94321768       4.41830329       0.44565110      -0.35905572      -0.64335546      -0.08916743       0.07610714       0.00147194
Na      10.22318807      10.25035384       6.24222658      -0.83272278      -0.08981672      -0.19392798      -0.04121861      -0.07721971       0.02622236
Na       8.15985389       8.19147843       8.21156795       0.08708546       0.18418670       0.46202863       0.05657995      -0.02448795       0.05123414
Na      10.13445847      10.36707014      10.37620898      -0.23331321      -0.04388571       0.24892027      -0.01697359      -0.00794526      -0.03114848
Na       8.46934007       8.28534092      12.59124827       0.24394193       0.58607934      -0.14820118      -0.11048982       0.01361569       0.04029619
Na      10.20550646      10.60850063      14.65602446      -0.41170347       0.21833568       0.05468564      -0.06099783      -0.08937935       0.17069792
Na       8.37372217       8.30174374      17.13506375       0.03799534      -0.28536476      -0.44498541       0.01285752       0.09973733       0.03056949
Na      10.68248569      10.42183566      19.02353323      -0.07039647      -0.28307178      -0.24890774      -0.16845156      -0.01067983       0.12958212
Na       8.60260245       8.08033588      20.94590113      -0.49161421      -0.22594819       0.14800127      -0.05595112      -0.02445904       0.06809395
Na      10.27538963       9.99395979      23.22317956      -0.55957965      -0.23498911       0.06474708      -0.03537805       0.03612852      -0.02857826
Na       8.22786092      12.34426830       0.20471864       0.25518831       0.21812261      -0.11180400       0.00255559      -0.12237268       0.07768463
Na      10.29364906      14.21738578       2.09485675       0.33355228      -0.71269382       0.38348578      -0.05601375       0.01973398       0.14280721
Na       8.23030420      12.31411607       4.37040502      -0.05462604      -0.88119379      -0.66425290       0.00631571      -0.01389742      -0.04196274
Na      10.32647124      14.25828462       6.23200876      -0.04994036      -0.30463877       0.35601782      -0.04388108       0.01505421       0.06061709
Na       8.04602597      12.25216284       8.25230083       0.86666020       0.08090915       0.38366589       0.10322946       0.04117046      -0.01347297
Na      10.24191727      14.08474105      10.22828842      -0.06976354      -0.07147944      -0.02749245      -0.09446369       0.13850174      -0.01905527
Na       8.02892228      12.37593277      12.62268374      -0.37754300      -0.48745197       0.34650948       0.14996577       0.03947910       0.04040867
Na      10.23494928      14.38231937      15.07542317       0.07578513      -0.65004496       0.18792085      -0.03019061      -0.00155245      -0.07498833
Na       8.37787918      12.16886389      17.27267402       0.18453764      -0.04367405       0.80864098      -0.03360078       0.09558743      -0.05830284
Na      10.31568275      14.54830217      19.20908210       0.91849554       0.20674450       0.71202046       0.01887081      -0.05385477       0.03553223
Na       8.26449856      12.51065508      21.76317320      -0.14127931      -0.21355262      -0.21317400      -0.00390113       0.02118988      -0.10076024
Na      10.32562863      14.33509556      23.66915307      -0.05857948      -0.00415255      -0.10639960      -0.03452949       0.08140581      -0.05546913
Na       8.04297096      16.19763894       0.57888520       0.90721558       0.32104665      -0.04182986       0.04121426       0.10261779      -0.17022620
Na      10.42034792      18.13991830       2.15854182      -0.17752797      -0.20426447      -0.33231243      -0.06606992       0.08933102       0.04717552
Na       8.21036485      16.40902876       4.37280339       0.18179361       0.22079345      -0.01036368      -0.01461369      -0.05832277      -0.03456519
Na      10.39874866      18.17488820       6.21454409      -0.08687348      -0.25204228       0.08892590      -0.10525960       0.02299157       0.11007386
Na       8.02698518      16.33823188       8.31369193       0.12825181      -0.27914104      -0.20822795       0.07835114       0.00051430      -0.06031511
Na      10.16586304      18.37151080      10.25099201       0.90770779       0.93080659      -0.07282187       0.05212769       0.02001040       0.03669103
Na       8.09143905      16.49786285      12.78510890       0.58286078       0.17067665       0.53300407       0.01763982      -0.11150635      -0.07076232
Na      10.16516622      18.31233121      15.00550353       0.43373934       1.40043106       0.23553610       0.04323965       0.05399402       0.05524786
Na       8.17644669      16.21993537      17.24943595       0.14823906      -0.12874298      -0.48965410       0.04307266       0.10649576      -0.03053223
Na      10.56177410      18.57132022      19.01107911       0.43532195      -0.52166254      -0.39955072      -0.24547578      -0.13328724       0.08360094
Na       8.43098839      16.83276317      21.42949787       0.54225465       0.63184727      -0.09041283      -0.13871132      -0.19359132      -0.01742041
Na      10.24927074      18.58641458      23.47628905       0.39100267      -0.51450522       0.13438103       0.06935675       0.06162058       0.17412171
Na       8.02029232      20.05009341       0.67064844      -0.18075491       0.27957062       0.21659731       0.09368681       0.13897568      -0.05674914
Na      10.44171510      22.40297293       2.29656958      -0.20551898       0.42072994      -0.24830132      -0.10551142      -0.03446554      -0.02028523
Na       8.11919726      20.29685291       4.41432266       0.22142516       0.07592153      -0.28368833       0.09771250      -0.04694477      -0.05773193
Na      10.29058104      22.53461047       6.20546147       0.43144326      -0.51688764      -0.77839125      -0.09287917      -0.04004568       0.15671052
Na       8.20232908      20.13371541       8.16508494       0.23694797      -0.07142443       0.53171400       0.05517174       0.07998150      -0.06687422
Na      10.41975154      22.53362920      10.38703694      -0.07382856       0.12221699      -0.21138711      -0.09100916      -0.07634252       0.06986187
Na       8.30887249      20.15509139      12.77717632      -0.16407534       0.22867139      -0.19333827       0.02335207       0.07923263      -0.08487391
Na      10.24118839      22.38643372      14.50502482       0.49156102       0.62831083      -0.56026589       0.03608480       0.05674553       0.03849483
Na       8.56226559      20.89148965      17.11703619      -0.85468697       0.28843127       0.35826350      -0.13216440      -0.12559438      -0.03317316
Na      10.19417252      22.82955834      19.37417058       0.56273057       0.46549617       0.39724971       0.09216159       0.02296137      -0.01584889
Na       8.12358418      20.60092633      21.73774210       0.67189068      -0.56149135      -0.19622976      -0.03507242       0.00438059      -0.11964399
Na      10.10104168      22.59901480      23.57527938       0.52898975       0.04224150       0.20025610       0.01005276      -0.02314357      -0.05064567
Na       8.32079097      24.36587173       0.52736122      -0.26013901       0.29657146       0.21104877      -0.05124857       0.06070005      -0.11675603
Na      10.31226030      26.82048015       2.08134546       0.81584607      -0.50477464       0.26681477       0.03456376      -0.12412549       0.02900645
Na       8.43005927      24.70641356       4.32638092       0.34449746       0.10559438       0.06737148      -0.01099438      -0.00344264       0.05584309
Na      10.30887895      26.73423399       6.53934205      -0.14214003       0.09271624      -0.18319535      -0.07348218       0.02266905      -0.12376316
Na       8.29433597      24.71029721       8.37030673      -0.38559743      -0.74750039       0.93547773      -0.01663883      -0.11048230       0.05434215
Na      10.27532227      26.53984979      10.54338877       0.16950557      -1.11869775       0.25702130       0.05364446      -0.07570558       0.08715529
Na       8.13499995      24.59580964      12.62471799       0.44360929       0.08798033      -0.24868635      -0.03266527      -0.06297135      -0.06276822
Na      10.28697978      26.28509661      14.68152894       0.01455495       0.01437508      -0.35041257       0.04530870       0.15322380       0.03102593
Na       8.41473186      24.67249602      16.92128871      -0.57896336      -0.09643002       0.40390029      -0.11613361      -0.04608549      -0.01091865
Na      10.46362923      26.80379806      19.05638809      -0.48057194      -0.22266738       0.41403404      -0.09512216      -0.06166483       0.00476571
Na       8.17992043      24.80167618      21.34081451       0.14056009      -0.36955646       0.08991026       0.06028797       0.11367989       0.12322007
Na      10.14871440      27.45883454      23.40886437       0.16897056       0.30619196       0.12269550       0.00955852      -0.14371126       0.06336180
Na      12.23353025       0.20058386       0.11457916       0.39564991       0.53261036       0.03189238       0.07948967      -0.02947669       0.20101614
Na      14.24691968       2.11172795       2.31215941      -0.04552180       0.92954682      -0.04537667       0.01176055      -0.11643559      -0.06017636
Na      12.31457606      -0.01576363       4.28518127      -0.70602713       0.34662517       0.37399986      -0.06893850      -0.00655284       0.07569937
Na      14.18826590       1.80463934       6.63951011      -0.42466319      -0.58876110       1.00230335      -0.11951378       0.15989923      -0.11174351
Na      11.98762984       0.03587721       8.65132853      -0.13922333       0.85799601      -0.38817859       0.15653284      -0.02582779       0.00926885
Na      14.04605624       1.88680584      10.82617651       0.07879221       0.18732226       0.78278993       0.08276286       0.12601927      -0.05518694
Na      12.18720151      -0.04953622      12.94018520      -0.19572791       0.42818686      -0.12256613       0.02309467      -0.03783653      -0.08918681
Na      14.47156695       2.09802383      14.76329812       0.39439555      -0.71431347       0.24376125       0.00714646      -0.00114276       0.06320680
Na      12.27139112       0.13837141      16.87415491      -0.72905151       0.45301618       0.04106531       0.02495072      -0.03878276      -0.06408491
Na      14.30167000       2.27356354      18.85334533      -0.44471470       0.20560686       0.09595365      -0.03337887       0.02132681       0.04322095
Na      12.48457185       0.34643904      21.32719100      -0.87923796      -0.68539985       0.29821590      -0.13160807      -0.08639352      -0.06780748
Na      14.43981509       1.99470565      23.27718957       0.58699919       0.09583596      -0.10189682       0.13596623       0.05405616       0.04469242
Na      12.18929421       3.94748776       0.36069638      -0.20371000      -0.13601256      -0.76762642       0.00168585       0.06821005      -0.03216164
Na      14.15438096       5.97560771       2.29270277      -0.12865015       0.64362023       0.06899824       0.11954062       0.07397481      -0.07776235
Na      12.18914927       4.06894168       4.37426772       0.28195092       0.61356487      -0.29038672      -0.04443899      -0.09330395      -0.00541387
Na      14.02703937       6.09893809       6.34681061      -0.08144308      -0.40042017       0.00551649       0.11787974       0.04479138       0.04174521
Na      12.16390904       4.13851885       8.41200210      -0.48928380       0.55605969      -0.04217019       0.05793657      -0.09386459       0.02632123
Na      14.25146953       6.11469173      10.63163548       0.36526575       0.26347255      -0.25319124      -0.07695292       0.16304556       0.00061981
Na      12.33696416       4.37748221      12.77584612      -0.28136859      -0.02813144       0.48820304      -0.05748978      -0.03092309       0.05131332
Na      14.23111190       6.39207287      15.19113239      -0.06266716       0.30989513       0.57360071       0.07334081       0.03519578      -0.21232887
Na      12.43287533       4.10004569      16.72080181      -0.15151788      -0.19153723       0.39221025      -0.08537725       0.02901743       0.01746561
Na      14.41769811       6.48357359      18.84639231       0.45919466       0.02798652      -0.08097369      -0.16033642      -0.17410575       0.05089500
Na      12.34917628       4.24740072      21.56178099      -0.66237554      -0.73777703      -0.02374580       0.01448624      -0.04546833      -0.08468981
Na      14.76043198       6.13703716      23.03220023       0.08699340       0.75219282       0.12659703      -0.07366706       0.06902845       0.08603545
Na      12.18615568       8.01415030       0.29582870       0.30952001      -0.35169093      -0.03111382       0.00248226       0.04683526       0.17780866
Na      14.32713126      10.18789809       2.17199076      -0.36223797       0.39947163      -0.08198412      -0.03231108      -0.12479482       0.04841245
Na      12.20879913       8.05779749       4.25100479       0.19130220       0.17202793      -0.38558415      -0.06518281       0.03489258      -0.03489410
Na      14.14581812      10.09385778       6.25490838      -0.18736476      -0.03564119       0.66073228       0.08052929      -0.05064972       0.09943014
Na      12.15791709       8.14272332       8.40854949       0.22692275       0.14665542       0.61162580       0.05251958       0.06634426       0.00971566
Na      14.33145271      10.26538633      10.45442864       0.25321498      -0.31158826       0.10430499       0.00471154       0.05191356      -0.00378720
Na      12.15417947       8.64401595      12.53828585      -0.01583858       0.27089996       0.32127757       0.05291214      -0.21788164       0.06544934
Na      13.86699723      10.55498841      14.95837164      -0.01701221       0.05055416       0.03042129       0.24256298      -0.07082113      -0.03734072
Na      12.14558927       8.32303287      16.85981726      -0.22009968       0.73787901       0.25547050      -0.01580696       0.04810671       0.03465959
Na      14.09422250      10.46288775      19.08348075      -0.41700102       0.18668750       0.39883602       0.13411091      -0.01202703       0.01006166
Na      12.30619274       8.02484680      21.24642225       0.01069912      -0.36255393       0.37010723       0.00157135      -0.06493882       0.01279788
Na      14.23312219       9.99106942      23.11509728      -0.07396530       0.13146809       0.12406517       0.06604836       0.07773221      -0.02749569
Na      12.12376839      12.11345572       0.40904546      -0.56068403       0.55314712      -0.14470960       0.05249517      -0.04078921      -0.12766144
Na      14.36177126      13.97290299       2.23412081      -0.58924077      -0.29459276      -0.02481780      -0.10366840       0.13430025       0.03083009
Na      12.28322041      12.09723806       4.28339290       0.16513072      -0.23604632       0.50547917      -0.00783774       0.09350666      -0.00813267
Na      14.26831790      14.11051451       6.49362021       0.28266252       0.17181874      -0.12519715      -0.01324000       0.02607360      -0.12611019
Na      12.23595265      12.07451268       8.23410405      -0.27350790       0.35393871       0.43350627       0.03989270       0.04767676       0.05535845
Na      14.48356998      14.07387952      10.48219372      -0.02473195      -0.44584084       0.47819637      -0.14906997       0.04940641      -0.11138217
Na      12.09367648      12.46051615      12.53105062       0.22751517      -0.00554251      -0.55768130       0.09383411       0.00844704       0.02175228
Na      14.34875202      14.37097684      14.84393081       0.30268908      -0.07199764       0.02833648      -0.05891491       0.08252469       0.00276028
Na      12.33739973      12.57065635      17.03154649      -0.41978433       0.47181210      -0.19358816      -0.11065589       0.01129852      -0.03070194
Na      13.98368909      14.42009852      19.19038768       0.09218867      -0.15224589      -0.16250229       0.15313103       0.04951808       0.02528047
Na      12.20391400      12.42193777      21.52029297       0.02769475       0.39150898       0.27508528      -0.06820418      -0.08956183      -0.06545367
Na      14.03138666      14.02829002      23.51611959       0.28439404       0.23152967      -0.41738485       0.07674367       0.14962393       0.14571877
Na      12.47329458      16.16077716       0.43389050      -0.14991827      -0.08375036      -0.72449244       0.00033808      -0.00154635       0.04955558
Na      14.50875408      18.36538052       2.27038731       0.37754649      -0.46299995      -0.26165588      -0.13211910       0.01063523       0.01864952
Na      12.42159268      16.30400488       4.22714291       0.47285675       0.01138018       0.58618700       0.06866991      -0.10522837       0.04863381
Na      14.56009616      18.32882130       6.31801435      -0.27796536       0.29732932      -0.36598389      -0.21048220      -0.00035281      -0.01399711
Na      12.36358623      16.25140889       8.23117698      -0.48249336       0.01177614       0.54998101      -0.08919138      -0.03675837       0.02305619
Na      14.31825943      18.09723398      10.12347225      -0.28991411       0.65856516       0.27481312      -0.07410052       0.17466967       0.11020995
Na      11.85347024      16.31317693      12.40454546       0.18772207       0.03404039      -0.15172670       0.17927622       0.00061459       0.09868684
Na      14.38567416      18.29754072      14.87716413      -0.29592417       0.25167205       0.05748615       0.00297473       0.05002651      -0.00466775
Na      12.35778127      16.49281088      16.89803924      -0.19087007       0.09960994       0.58317903      -0.01755119      -0.07251428       0.03862158
Na      14.12308245      18.33828517      19.22541274      -0.33603042       0.00157397       0.00279260      -0.01861034       0.00219095      -0.02028783
Na      12.19953634      16.44383660      21.70297866      -0.47680710       0.86229656       0.67000619       0.09342045      -0.02446077       0.02889038
Na      14.38395677      18.95313508      23.23884128      -0.15018235       0.40836959      -0.24198759      -0.00855744      -0.09754249      -0.06184176
Na      12.35529670      20.40714668       0.46724736       0.40500778       0.34535184       0.50200304      -0.05645643      -0.09310708      -0.06343593
Na      14.28761070      22.40666464       2.15518263      -0.50830957       0.14921871       0.72176136       0.04850972       0.12759377       0.08643321
Na      12.25847996      20.26532525       4.50319820       0.15630481       0.61153559      -0.03054411       0.03537604      -0.01352601      -0.19515683
Na      14.20291511      22.47275987       6.09148801       0.26282025      -1.17573164      -0.42080557       0.08992337       0.09021738       0.18126708
Na      12.30285712      20.45528081       8.06473369       0.17850030       0.23985938      -0.37152836      -0.00459158      -0.07871066       0.12413358
Na      14.27177376      22.39575322      10.30638067       0.47037949      -1.15065832      -0.49058009       0.04240543       0.02714335       0.05489375
Na      12.44814056      20.32853299      12.68280238      -0.02259674       0.10952180      -0.09956069      -0.05502922      -0.07017441      -0.06730918
Na      14.56343292      22.17637489      14.92277180       0.01637444      -0.32111819       0.12024872      -0.08443659       0.02130759      -0.02191172
Na      12.16346039      20.57413041      17.10058697      -0.77644912       0.02735281       0.11483097       0.15906963       0.06657829      -0.11925517
Na      14.04820220      22.76909022      19.26337978      -0.46998027      -0.38283164       0.32465646       0.00939535       0.01189795      -0.06729382
Na      12.02717159      20.62408774      21.39608539       0.54796225      -0.61951151      -0.24872439       0.06434012       0.04086674       0.02888690
Na      14.40212728      22.66145585      23.10320629       0.60261108      -0.33562910       0.32444187      -0.05198690      -0.04501758      -0.01603666
Na      12.46937192      24.66547794       0.41305621      -0.29477431       0.15105401      -0.44539985      -0.04288629       0.01727261       0.04112222
Na      14.33574148      26.88668093       2.17037883       0.27773931       0.04664946       0.15176555      -0.13317043      -0.11533503       0.00673310
Na      12.19244711      24.56014516       4.39879153       0.51183143      -0.21384478      -0.42204992       0.06112548       0.15442055      -0.08842066
Na      14.17178649      26.57246676       6.48954763      -0.70695856       0.53153348       0.18631153      -0.03712613       0.11508930      -0.07242950
Na      12.39636709      24.56960283       8.39421976       0.57715719      -0.14026044      -0.29134827      -0.07277592      -0.03663477      -0.03119617
Na      14.29150449      26.61267166      10.70278946       0.41015771      -0.62342457       0.24554938      -0.00659093       0.02400421      -0.03545327
Na      12.71272608      24.34890101      12.81877524       0.63036727       0.22000917      -0.16067459      -0.15110916      -0.02600870      -0.06700719
Na      14.28895408      26.57355127      14.86200310       0.30406175      -0.20158322      -0.43569648       0.01686740       0.13068775       0.04189091
Na      12.20980859      24.35288058      16.77722427       0.04790500       0.27609704       0.74792452       0.01155116       0.01974539       0.02511050
Na      14.08209495      26.63506676      18.87835632      -0.73387815      -0.84825154       0.12507855       0.04945959      -0.06119224       0.04228050
Na      12.15497525      24.98243143      21.72759954      -0.04217915       0.29382512      -0.59433097       0.00938123      -0.06158243      -0.02129414
Na      14.35486694      26.87360499      23.48714169      -0.23254561      -0.28607360       0.44197251      -0.01634819       0.05618251      -0.00429235
Na      16.41479174      -0.01767173       0.47792261       0.38626208      -0.06792334      -0.26794027      -0.01299052       0.16694918      -0.13337860
Na      18.42460205       1.99497069       2.44945569      -0.01301967       0.84307359       1.16954919      -0.03429782       0.04095299      -0.05353727
Na      16.14305896       0.00861186       4.54708577       0.27364867       0.23304446      -0.39980967      -0.03062095       0.04074726      -0.10061128
Na      17.96646133       2.08070479       6.43384968      -0.20427114       0.57016605      -0.51728926       0.22625229      -0.00212011       0.14165121
Na      16.13476065       0.06263615       8.54241993       0.87148403       0.58627960       0.02701652       0.05223215      -0.09262018       0.03520614
Na      18.19608613       2.04718720      10.51459667      -0.92909296       0.25660453       0.30857535       0.02544686       0.03484804      -0.02708651
Na      16.42201100       0.02644073      12.74800638      -0.13893317       0.06701238       0.62166357      -0.03006973      -0.03062882      -0.04024232
Na      18.51325838       2.02829198      14.97396216      -0.13447843       0.13842637      -0.31402807      -0.08563966       0.02145489      -0.07245354
Na      16.39719082       0.16027414      17.12830374      -0.27733467      -0.18445178       0.53479144      -0.04458344      -0.08659466      -0.13922767
Na      18.55242586       2.22159566      18.84134965      -0.38706919      -0.28509145      -0.61565418       0.03745480       0.02083741       0.06780308
Na      16.22672000      -0.03864031      20.86955117      -0.15387700      -0.29733843       0.27746405       0.04033679       0.06111237       0.12389581
Na      18.61599384       2.06816411      22.81706095      -0.45655944      -0.32940896       0.04631451      -0.01810051       0.05311727      -0.03132534
Na      16.22676831       3.90751272       0.34337413      -0.92509969       0.77455549      -0.54780340       0.09892876       0.04060653       0.10965812
Na      18.34983070       5.76299768       2.45429049       0.07593950      -0.18031100      -0.14782498       0.00078406       0.10657219      -0.06125932
Na      16.19796266       4.08654246       4.51410140       0.17283261       0.05205295       0.22526898      -0.13922923      -0.05049253      -0.03250368
Na      18.09882918       5.98987332       6.46777745       0.22506511       0.03013868      -0.07045002       0.09418151      -0.00018077       0.00234061
Na      15.90442680       4.21193908       8.52005391      -0.78953242      -0.46020312       0.51420689       0.11940870      -0.14164890      -0.03279022
Na      18.05075305       6.15814547      10.53156435       0.24641874      -0.81553513      -0.44999008       0.17788240      -0.00966006       0.05885343
Na      16.35879013       4.34545657      12.78467162      -0.52397153      -0.21394821      -0.63607673      -0.02461880      -0.09972733       0.09863286
Na      18.42989824       6.47967123      14.87704222       0.30486747       0.37204579      -0.36526342      -0.04372295      -0.06654487      -0.04325064
Na      16.46419217       4.44722136      16.99216713      -0.37639358      -0.10233000       0.27676083      -0.02283278      -0.16190138      -0.12093228
Na      18.42388237       6.26812315      18.92669794       0.67550987      -0.37209563      -0.27862956       0.00197081       0.01296033      -0.00481246
Na      16.31828307       4.05729220      21.10211400       0.24399382       0.70594177       1.15937855       0.01067326      -0.06759602      -0.07287188
Na      18.41358394       6.18263365      22.61152173       0.63024765       0.20330956      -0.57876639      -0.03434957       0.13108309       0.08079539
Na      16.51274278       8.11771629       0.39908559      -0.10541353      -0.12520483      -0.76284936      -0.13253464      -0.19517892       0.02308205
Na      18.28828953       9.84813266       2.30808888      -0.52165096       0.23456325      -0.25051683       0.01520710       0.20115238       0.07833847
Na      16.28600501       7.96702534       4.50475499       0.29716054      -0.57713956       0.61549565      -0.01330595       0.07617173      -0.06932879
Na      18.50658189      10.14140883       6.51673838       0.07060747       0.00658900       0.08745218      -0.10261952      -0.24802755       0.09278605
Na      16.32350238       8.14103105       8.46394622       1.58655748      -0.61623609       0.58413426      -0.08986471       0.04517551      -0.10212745
Na      18.46633994       9.99775611      10.69232621      -0.51117139       0.84159310      -0.17394328      -0.06969090       0.06205174      -0.08811586
Na      16.14212093       8.34023061      12.82726970      -0.16976156       0.32231370      -0.24305927      -0.05243891      -0.04367380       0.00102381
Na      18.27301663      10.26484071      14.69055363       0.38986258       0.18052518       0.60140607       0.10997738       0.06509276       0.10845450
Na      16.38360479       8.49400716      16.99164871      -0.09973226       0.05185829      -0.05635135      -0.01698305       0.07267037      -0.05320644
Na      18.48010457      10.42494821      19.16815870      -0.00242859      -0.00607453      -0.60363708      -0.01329068       0.03348258      -0.07307807
Na      16.25170145       8.34615609      20.88575643       0.22131062      -0.20878987      -0.13081670       0.09334265       0.00492197       0.13118070
Na      18.66721058      10.15342941      22.62706605       0.05292025       0.12530412      -0.75828361      -0.11941577      -0.20115730       0.10144841
Na      16.28691411      12.11106041       0.46608045       0.12069303       0.24310794      -0.14668006       0.02971606      -0.02769394      -0.11057165
Na      18.06601928      14.12503297       2.37788578       0.49405084       0.59974192      -0.31551886       0.23606390      -0.02680318       0.03189610
Na      16.30980059      12.16590271       4.63916392      -1.28176430       0.92613565       0.01248483      -0.03318347      -0.08304508      -0.13792378
Na      18.42029428      14.25457503       6.35109754       0.67296283       0.70840136      -0.40749382      -0.09326200       0.26170334       0.08935196
Na      16.48308033      12.09844746       8.28093492       0.27429134      -0.39763361      -0.54655410      -0.06596053       0.00134669       0.08071459
Na      18.33757553      14.45573091      10.38332794      -0.03783865       0.09559489      -0.18387968      -0.08506555      -0.02405672       0.09604517
Na      16.36113210      12.41064913      12.80127013       0.61776720       0.20310275       0.11232897      -0.00773565      -0.11136205      -0.07940522
Na      18.13784730      14.60369547      14.77125775      -0.55828133      -0.32154447      -0.07930018       0.07966418      -0.03454261       0.02102672
Na      16.37143258      12.47023521      17.08364756      -0.96446761      -0.68705640      -0.05058258      -0.02300798      -0.01197853      -0.01442639
Na      18.37757563      14.45932147      19.31564988       0.04242170      -0.18575318       1.19797492       0.06452224      -0.03340433      -0.01862375
Na      16.23160363      12.51908713      21.58673406      -0.38601195      -0.21359854       0.06024208       0.00576716      -0.14434514      -0.08763093
Na      18.29574467      14.57360624      23.22298068       0.19567114       0.46234457       0.48481317      -0.03124976      -0.09922423       0.04683546
Na      16.53655298      16.29966209       0.60211805       0.22981691      -0.78913302      -0.34041159      -0.25540899      -0.03947298      -0.13994385
Na      18.30363585      18.47851380       2.25858144       0.25219656       0.13564078      -0.26217722       0.14649182      -0.04039443       0.07126963
Na      16.31417055      16.18055317       4.27920620       0.09214569       0.17219822       0.06604936      -0.03651529      -0.04614628       0.03200165
Na      18.09747160      18.50729335       5.97200152       0.76819525      -0.72413864      -0.62788232       0.28507251      -0.17888303       0.22595104
Na      16.27539807      16.22633822       8.16076921       0.09517377      -0.41881549       0.41305379       0.16123933      -0.01866965       0.04479247
Na      18.45117227      18.41210052      10.24679241      -0.75756092      -0.44265940      -0.00503476      -0.05337996      -0.06733503       0.05173236
Na      16.09012796      16.32848003      12.43609745       0.69123639       0.13600626      -0.04712853       0.10644146       0.07059024       0.05049682
Na      18.37696868      18.37750337      14.71779373      -0.12242025      -0.30600753      -0.46609928      -0.08475176       0.05303888      -0.03384259
Na      16.49156966      16.55801418      17.25172617       0.21063754       0.16207941      -0.09904679      -0.08932156      -0.06024941      -0.02074567
Na      18.50496212      18.40657711      19.50679384      -0.11067449      -0.36868240      -0.62802566       0.05076059      -0.11301032      -0.13976580
Na      16.07439114      16.21324961      21.47584080       0.18870326       1.11223058       0.19985793      -0.08170992       0.07603971       0.06582772
Na      18.26372319      18.57044436      22.90661864       0.03526196       0.64716812       0.66178209      -0.00038865       0.00773581       0.01944491
Na      16.34580695      20.44595762       0.47966087      -0.39952168      -0.52154405       0.19444473       0.01929197       0.11384176       0.00444014
Na      18.18283445      22.81403555       2.47240116       0.05186138       0.11239228       0.09460450      -0.19742007       0.04691044      -0.05562488
Na      16.27851920      20.51522907       4.44441186       0.23138595       0.13230900       0.28544399      -0.01859825       0.09215796      -0.18171283
Na      18.25408170      22.68861193       6.29017386      -0.46341695      -0.29573497       0.58838930      -0.03962151       0.02624145       0.06898413
Na      16.36679988      20.48708352       8.35584484      -0.19224137      -0.46448499       0.89044492       0.00181751       0.03725253      -0.05202713
Na      18.62499057      22.53657594      10.41110613      -0.02599448       0.51180660      -0.28808900      -0.16606611       0.04096923      -0.05549841
Na      16.24739058      20.18682460      12.27886186       0.51315593      -0.39618793      -0.25904297       0.04374232       0.07098221       0.08548075
Na      18.16530808      22.30077999      14.77206830       0.62470036      -0.22904735      -0.54541281       0.09772075      -0.01250332      -0.01326794
Na      16.30471841      20.35569421      17.20554104       0.67141950      -0.09132588      -0.06731007       0.01315724      -0.00969854      -0.02507814
Na      18.15770318      22.86135968      19.05406079       0.01237541       0.04669778      -0.03602900       0.10718474      -0.07605511      -0.02159058
Na      16.22835825      20.53098313      20.79211211      -0.12099206      -0.30163737      -0.17990041      -0.03863439       0.08312952       0.24689587
Na      18.28644226      22.30926339      22.94672686      -0.06617948      -0.02603377       0.53971324      -0.09809968       0.07770923      -0.08487411
Na      16.42720201      24.86587913       0.34991041      -0.35560727      -0.01784016       0.12029644      -0.07360258      -0.13331037       0.02529749
Na      18.18577315      26.70725669       2.41355130       1.21607795      -0.08281303      -0.54944987       0.18694710       0.12916086       0.05792090
Na      16.10405065      24.62166047       4.21975219       0.28196328      -0.24252246      -0.20791196      -0.12269236       0.05039333       0.11364349
Na      18.02090380      26.62751812       6.32286965       0.23508588      -0.26899025      -1.08753048       0.14012191       0.06274191      -0.00175214
Na      16.21518974      24.67089995       8.27989826      -0.40275556      -0.23070149       0.55427182       0.00465582      -0.15003786       0.10399034
Na      18.41477317      26.67846347      10.26894220      -0.23867943      -0.49046473       0.00293856      -0.12842511      -0.05199527       0.17013270
Na      16.39918745      24.54484373      12.79431711       0.12114986      -0.05749044       0.32561514       0.01060491      -0.03202536      -0.14137333
Na      18.28277840      26.69737899      14.73041705      -0.30163204       0.64103404       0.40050199       0.12462844      -0.01661234       0.11598003
Na      16.24883974      24.66544296      16.74666221       0.01718625      -0.38249391      -0.25819201      -0.00922823      -0.08761823       0.09467309
Na      18.50215248      26.47812481      18.71264310      -0.41623030      -0.05738468      -0.29875729      -0.00921987       0.04662202       0.13260052
Na      16.23748137      24.76196971      21.34285238      -0.05748548      -0.07616667      -0.15327476      -0.02118381       0.03601181      -0.03360737
Na      18.31680245      26.82624502      22.81947247      -0.38243636       0.59466087       0.35645191      -0.02645173       0.09550844       0.07407345
Na      20.54394839       0.12198049       0.59947247       0.53684275       0.42321968      -0.23373380      -0.16079429      -0.10014546      -0.06114063
Na      22.61336114       2.04164785       2.26522253      -0.47407759       0.25130546       0.57278098      -0.59173172       0.86580671       0.49637042
Na      20.42509312       0.08415596       4.63389448      -0.32531669       0.11550438       0.27553897      -0.02686166       0.02130264      -0.00365486
Na      22.71470704       2.03330370       6.64228901      -0.09068632       0.00199153       0.87405272      -0.04203072      -0.05388420       0.00835785
Na      20.45016952      -0.17655018       8.31902315      -0.29935274      -0.87956258      -0.38775348      -0.02303044       0.17759870      -0.00305729
Na      22.65327409       1.85971623      10.50871552      -0.27984686       0.37878812      -0.98983104      -0.06115412       0.08542234       0.02778709
Na      20.38404737      -0.10217785      12.50079722       0.06226153       0.07564529       0.50912618       0.03527389       0.00980189       0.04264582
Na      22.42773123       2.03473284      14.68739897       0.15777265       1.49279155      -0.41818562       0.10441666      -0.08949367       0.09470078
Na      20.49799580      -0.01412386      16.92622711      -0.90841598       0.23516498       0.08250651       0.00771490       0.04865402      -0.02852761
Na      22.72780114       2.19567169      18.78154390      -0.51999584       0.33723944       0.78645985      -0.21129881      -0.00358572       0.00422223
Na      20.55306758      -0.05986109      21.08956619      -0.19640382      -0.24898749      -0.67455688       0.08716860      -0.01655482      -0.05620164
Na      22.62349952       2.09605818      23.04400629      -0.44049529       0.57276141      -0.00724329      -0.10036842       0.05022070      -0.08762905
Na      20.66708598       3.98569133       0.58802870      -0.16755071      -0.65861652       0.58171690      -0.18188349       0.00410110       0.00101134
Na      22.52980779       6.06822716       2.56588555       0.18727466      -0.15212825       0.10011694      -0.06980480      -0.07194548      -0.21759055
Na      20.57439848       3.92880038       4.68294702       0.11783284       0.12702971       0.11708301      -0.52418815      -0.52739787      -0.48301103
Na      22.42818470       6.05778019       6.63397670      22.64162817       3.60149292      27.28108792     667.02510369     436.62635905     721.26812077
Na      20.28610842       4.11671280       8.47441259      -0.50496271       0.59772465       0.11987568      -0.11775603      -0.29859005       0.20533391
Na      22.37751348       6.29784343      10.45173613      -0.17399043      -0.02068294      -0.24397600       0.10716898      -0.15131159       0.13603051
Na      20.52886675       3.96560448      12.58869344       0.07892702       0.38531740       0.14915234      -0.06749371       0.14760855      -0.01173335
Na      22.60082261       6.59312264      14.83352930       0.15499279      -0.37464573      -0.00785907      -0.00191662      -0.04704543       0.08235126
Na      20.47255989       4.32398557      16.63309312       0.32562858      -0.17506520       0.01056938       0.05765954      -0.01811099       0.07908688
Na      22.74505545       6.02072380      18.66155907      -0.41105481       0.49134967       0.15162771      -0.10486084       0.17110801      -0.04270258
Na      20.64089683       4.48043562      20.99866448       0.26208492      -0.82722395      -0.12908654       0.03346114      -0.32433569       0.00477068
Na      22.71815026       6.18132141      22.94694281       0.16667991      -0.14573785       1.02945273       0.06073486       0.07715502       0.09492675
Na      20.53786574       7.86530218       0.58265485      -0.11382462       0.27282984       0.26168374      -0.12370980       0.05333726      -0.04085207
Na      22.49533772      10.04142974       2.27364493       0.16230774      -0.03739869      -0.56922982      -0.11135723       0.13791975       0.11040200
Na      20.26311332       8.13823521       4.36835116     -45.37421807     -16.81234228     -20.00974371      -0.03669121      -0.00903373       0.00502898
Na      22.30676630      10.15726526       6.47743938      -0.15833876       0.71858489      -0.34556568      -0.03054208      -0.05113905      -0.08464963
Na      20.32998881       7.76339465       8.43315765      -0.31839356      -0.54144780       0.00799510      -0.19814853       0.38342352       0.05514898
Na      22.42157423      10.26015520      10.41272233       0.97666751       0.11883396       0.33251020      -0.04935261       0.04109460       0.00178434
Na      20.56389191       8.16764380      12.71340257      -0.46689975      -0.02971307      -0.14911673      -0.06753296       0.03825734      -0.02800655
Na      22.51458747      10.41875145      14.82401842       0.46677460      -0.03145647      -0.12999955      -0.09327483      -0.03164688      -0.04918667
Na      20.37544282       8.38210887      16.98541050      -0.24975700       0.28937813       0.25633770       0.07040792       0.01029565      -0.02235340
Na      22.21920117      10.62133229      18.93808075      -0.65897682       0.37126686      -0.16128144       0.14531497      -0.08293727      -0.04456329
Na      20.76090590       8.01156484      20.94840305       0.37615909       0.05407368      -0.01325714      -0.09000493       0.05477522      -0.01808504
Na      22.66215874       9.87854078      22.70889172      -0.67453666      -0.39302322      -0.47913485      -0.02063175       0.09528706       0.12120403
Na      20.11298512      12.02228266       0.42101370      -0.17491470      -0.14329814      -0.04734056       0.12919709      -0.09723091       0.13868422
Na      22.41340714      14.15788140       2.30145650      17.55967626       1.15926205      -1.70030506      -0.10384173      -0.07954645       0.01753720
Na      19.85649016      12.18397206       4.61235366     -27.95455611       8.98595641      33.29790562       0.40841496      -0.03408300      -0.29026365
Na      22.35310703      14.35224263       6.16956057       0.44400838      -0.97086510      -0.17520603      -0.01798589      -0.08724453       0.04509201
Na      20.17353456      12.38402530       8.51567604       0.35529371       0.09119657      -0.09830407       0.16958880      -0.08415261      -0.03073329
Na      22.48436613      14.32923648      10.39820704      -0.35381049       0.64300775      -0.03516086       0.04012433      -0.03126232       0.02818374
Na      20.27911206      12.35727216      12.54911149       0.48580846       0.94092404       1.32191630       0.00118022      -0.00671844       0.00186653
Na      22.14776069      14.32724147      14.59683995       0.27008117       0.39447246       0.66233929       0.14552728       0.00987002       0.04931463
Na      20.31546667      12.54614018      16.89022448      -0.65946417       0.21242303      -0.14840136      -0.06942938      -0.00268755      -0.03465157
Na      22.45659563      14.42408436      19.14078698      -0.20839032      -0.30938795       0.85192731      -0.10148200      -0.04739871      -0.04049755
Na      20.52593761      12.34774218      21.43987896      -0.00258472       0.22310187       1.24854547       0.10417277       0.25215378       0.04633279
Na      22.87900688      14.13937812      23.34078886       0.73587620       0.63565827      -0.32899184      -0.03994089      -0.00296222      -0.04808566
Na      20.02836499      15.68473456      -0.27990068      -9.01349592     -21.19120538     -48.26790096       0.11360079       0.09688306       0.31723817
Na      22.40449561      18.33164394       2.18520436       0.30802169      -0.19471280      -0.27251123      -0.13989355       0.02468986      -0.00463891
Na      20.40188523      16.31685637       4.20013744      -0.00467872       0.59990268       0.12225887      -0.12838359       0.00265864      -0.04333377
Na      22.18928203      18.50954440       6.21440139       0.04337434      -0.14359766       0.28454892       0.02553452      -0.04329807      -0.05356710
Na      20.47841300      16.33219805       8.45132157       0.22723949      -0.23687908      -0.05061429      -0.03636685       0.06137910      -0.15272170
Na      22.47270476      18.67380927      10.33370436       0.37783670       0.19658042      -0.18923250      -0.01028038      -0.08216073      -0.01662154
Na      20.42628906      16.31071325      12.55697933       0.75079071      -0.42422880       0.37276530      -0.04323638       0.10994806      -0.09525682
Na      22.31571479      18.57098266      14.52619212       0.21259464      -0.30241295       0.02819599      -0.01125179      -0.05563547       0.16825741
Na      20.37549082      16.48092715      16.89060606      -0.49398942       0.02548480      -0.41378548      -0.02552144      -0.02096871       0.03603603
Na      22.37422811      18.37513773      19.10258337      -1.27796009       0.13207137       0.13890366       0.02698266       0.02163323       0.02203013
Na      20.56219826      16.24388363      21.74663771       0.17095913      -0.17459724      -0.03272012       0.13077196       0.03931095      -0.00559989
Na      22.87326509      18.48743621      22.96242578       0.10415617       0.23170173      -0.32720580      -0.01985350       0.04825011       0.00645532
Na      20.69552352      21.21463894       1.75585091      17.87796096      19.85766505      42.39064894      -0.55293373      -0.63310816      -1.11828502
Na      22.56436886      22.73538761       2.27175285       0.14226694      -0.24137047      -0.33946260       0.80973353       0.65585403       0.21942671
Na      20.29216948      20.75038787       4.39005622      -0.09374080       1.09957843       0.21301072      -0.05959217      -0.24594005       0.54916250
Na      22.56067102      22.57020706       6.11853091      -0.04091040       0.66540530       0.15421300      -0.01804800       0.06092944       0.12130844
Na      20.25909715      20.47717604       8.14891964      -0.33458337       0.58121214       0.07278724       0.05767033       0.06568471       0.02228948
Na      22.54850668      22.50071351      10.53893085       0.13385079       0.37643706       0.23895001      -0.01909702      -0.08045965      -0.13351292
Na      20.34881100      20.44568454      12.46551053       0.07489107       0.56611984       0.08453384      -0.06381140      -0.01851450       0.00974571
Na      22.33051534      22.35847502      14.55289639       0.71842442      -0.58470472       0.35364478       0.10001847      -0.05674433       0.09906342
Na      20.10776656      20.43235632      17.09966503      -0.62063444       0.67674104       0.10266741       0.08905250      -0.01084093      -0.05867380
Na      22.40785274      22.31844911      18.99286546       0.30232033       0.55792938       0.09542061       0.07298212       0.15484329      -0.00996433
Na      20.60457306      20.65697093      21.31301060      -0.27370685       0.24898883       1.00956057      -0.03305001      -0.11421149       0.03468991
Na      22.67933969      22.38250601      23.10187962       0.77975937      -0.55549190      -0.52737805       0.09112888       0.03358588       0.01746586
Na      20.23769253      24.87339662       0.66068129       0.31807825      -0.39907863      -0.12941763       0.03953686       0.03508326      -0.07094342
Na      22.47967039      26.84668545       2.60758414      -0.12208307       0.04346837      -0.31797924      -0.52481838      -0.70610553       0.20608597
Na      20.52736035      24.63035930       4.41793568       0.13863229       0.16398498       0.14311917      -0.08131034       0.08597300       0.01204665
Na      22.79024575      26.83023242       6.33635102       0.23240175       0.39648641      -0.00831516      -0.01329482      -0.09994452       0.03629325
Na      20.31767090      24.88464043       8.16620938      -0.48223444      -0.34117818      -0.28672760       0.16378832      -0.17526371       0.00171909
Na      22.76752053      26.50218736      10.51985484      -0.39387711       0.34914401       0.13813160      -0.13492140       0.00234842      -0.06300803
Na      20.45818653      24.50108233      12.54959975       0.04388836      -0.05590408      -0.08345970      -0.02882331       0.12258453       0.06551403
Na      22.57810704      26.73890280      14.88093286      -0.01665452      -0.33087584      -0.09727096      -0.06925031      -0.12863581      -0.01007882
Na      20.47041796      24.34057019      16.72203672      -0.19936106       0.06505962       0.19655102      -0.02943527       0.03181730      -0.04289100
Na      22.50496654      26.53133312      18.66255658       0.25063072       0.20350985       0.45461473      -0.00658030      -0.07292058       0.16372398
Na      20.42620116      24.52315890      21.67141557       0.54267228       0.13921146       0.60005199       0.11964166       0.04517587      -0.06277212
Na      22.67021273      26.94827540      23.33624970       0.68704980       0.13517099       0.21403051       0.02369122      -0.04432715      -0.15110889
Na      24.07694724       0.07016825       1.81577206     -24.87292860      -0.83293950      62.97745064       0.91527486      -0.21278150      -1.21360777
Na      26.68030521       2.03584010       2.34870817       0.55902495       0.41952856       0.81378730       0.01855719       0.04685008      -0.07607507
Na      24.95000866       0.10545588       4.49016030      -0.22860845       0.28835722       0.50206364      -0.06956374      -0.08957784       0.47451468
Na      26.64384258       1.91974337       6.38054832       0.21807060      -0.37077781       0.02725708       0.11984675       0.24134342       0.17246605
Na      24.83116739       0.10335609       8.51368640      -0.07838510      -0.42863778       0.30214711      -0.02188063      -0.06876180       0.03805836
Na      26.46878668       2.08690861      10.93147564      -0.41604836      -0.47862752       0.10837683      -0.02950352       0.07759071      -0.13440374
Na      24.51526365      -0.33299250      12.70956851      -0.44707773       0.40280815       0.84052995       0.04087972       0.15870854      -0.00637880
Na      26.70024653       1.83212853      14.73246983      -0.11730628       0.20757278       0.07143526      -0.09290809       0.08384796       0.06964325
Na      24.62551868      -0.00622858      17.06085204      -0.49657281       0.51112972      -0.13131560      -0.00829551      -0.06038400      -0.17135681
Na      26.31407866       2.24523811      18.71459209      -0.10747317       0.21979187       0.47778295       0.17161323      -0.00601972       0.00560273
Na      24.48711642       0.00810467      21.04271333      -0.32530577       0.83426385       0.53182276       0.07034613      -0.08129372      -0.08990200
Na      26.51287374       2.08235944      22.75670398       0.21647715      -0.16751203       0.79056393       0.03127075       0.02825774       0.18681029
Na      24.61653282       4.09847698       0.56448601      -0.25150171      -0.62412432       0.01884476       0.00331329      -0.04483655      -0.05134500
Na      26.35007469       6.04067718       2.42165908       0.14427061       0.76357343      -0.36630429       0.16600937      -0.00376519      -0.07584483
Na      24.55479530       4.07927228       4.50684561      -0.56203113       0.05991427       0.20056115       0.13387883      -0.19841918      -0.01588416
Na      26.55548480       6.10498996       6.56799871      -0.21768395      -0.13082228       0.20159912       0.08427111       0.02256928       0.01868346
Na      24.61449049       4.20863978       8.61388458      -0.65020827       0.01588848      -0.46002410      -0.00772550      -0.08447002      -0.03240998
Na      26.55248748       6.24150680      10.61496344       0.64368644      -0.38686059       0.24471960       0.04038411       0.03681868      -0.04554970
Na      24.49851350       4.44057172      12.93682124      -0.12016523       0.37017463       0.24298721       0.01545448      -0.07338502      -0.10420577
Na      26.75250321       6.66495031      14.74872359       0.21387559      -0.07940163       0.05729983      -0.14127489      -0.08575166       0.01745820
Na      24.55335458       4.27284013      16.60892100      -0.27401090       0.11739871      -0.07808528       0.10872261      -0.04389646      -0.11136367
Na      26.51330799       6.20707598      18.80954939      -0.11765831      -0.55405130       0.18824385       0.07490504      -0.10514944      -0.15431959
Na      24.43236056       4.25738680      21.05886051       0.40756457       0.02877013      -0.23783189       0.19193444      -0.04875839       0.04630819
Na      26.75169589       6.30040142      23.01827853       0.30513919      -0.66376595      -0.66473925      -0.12360857      -0.09663732      -0.12191739
Na      24.41018618       8.01947578       0.59389731      -0.08782775      -0.31727366       0.14998578       0.09103002       0.05846687      -0.08697558
Na      26.32700233      10.14200142       2.47390483      -0.66952858       0.54133653       0.46687583       0.16752792      -0.04532328      -0.07990167
Na      24.56159308       7.80821390       4.55139610      -0.74583154       0.45716612       0.71865330      -0.05447733       0.35618140       0.09348919
Na      26.39236079      10.12895528       6.46771804       0.47281480       0.09424432      -0.04019955       0.06763556      -0.02457962      -0.14168520
Na      24.43538628       8.20434900       8.47311148      -0.15275008       0.57089932       0.07267068       0.06155574      -0.01414363      -0.02279423
Na      26.62185087      10.52569175      10.54599779      -0.61230027       0.13702590      -0.18194727      -0.10373876      -0.08830720      -0.15543223
Na      24.55800735       8.40987366      12.47221264      -0.49460370       0.44795791       0.08099094       0.01205216       0.02402545       0.09018064
Na      26.72067209      10.79168448      14.68550167       0.27868713      -0.95754552       0.66483173       0.04733594      -0.20814648       0.06200965
Na      24.71583494       8.68603416      16.94436052       0.16340097      -0.53928846       0.15316731      -0.06330506      -0.09843271      -0.04400874
Na      26.72599096      10.53801976      18.88141257      -0.55769137       0.14389391      -0.10573203      -0.12750992      -0.13274666       0.00074944
Na      24.68050419       8.13150377      20.77087536      -0.05650318      -0.20792257       0.66206327      -0.06787134       0.00031865       0.10961641
Na      26.56934119      10.12158710      22.75223045      -0.55305367      -0.60725856       0.36081206       0.02409132       0.02589604       0.05763985
Na      24.60582291      12.10727382       0.50081567      -0.18442631      -0.24064538       0.10040187      -0.05669952       0.00821448      -0.00349287
Na      26.74975577      14.13927846       2.13145709       0.00245709       0.85816186      -0.74314425      -0.13386151       0.01000280       0.11846824
Na      24.48272468      12.19846434       4.39210100       0.02282191       0.26982641       0.00663801      -0.04504404       0.05225899       0.00013140
Na      26.36034711      14.42841350       6.21611163       0.08302825       0.30802862      -0.19918786       0.03843939      -0.05484269      -0.03751426
Na      24.40152049      12.20178920       8.14920589      -0.38938284      -0.13441607       0.67197550      -0.01764301       0.07709208       0.09394327
Na      26.35690782      14.38921821      10.09866554      -0.41177125      -0.53504665       0.43740783      -0.00867894      -0.00267292       0.12010775
Na      24.64252662      12.37300544      12.63411200      -0.27232988       0.02113800       0.04842958      -0.15089900       0.09193860      -0.05516088
Na      26.74831023      14.46630848      14.58850259      -0.17485083       0.86600911       0.14882939      -0.02392626       0.01954360       0.12426613
Na      24.43537343      12.49003905      16.69459144      -0.77268584      -0.21016731      -0.08280345      -0.05899408       0.00264821       0.02692659
Na      26.27541663      14.23697062      18.72202207       0.20395446      -0.80142575       0.23707376       0.17826215       0.14497884       0.08108612
Na      24.50642808      12.26298819      21.08870383       0.12880780      -0.17036710      -0.24386697       0.03929861       0.03466126       0.03800715
Na      26.55107686      14.35421644      23.13249483       0.37685386      -0.75918985       0.53714586       0.11668627      -0.02631155       0.00063559
Na      24.42376759      16.21458652       0.59676685       0.18983843      -0.13163893      -0.05735789       0.17892548      -0.01757370      -0.05691333
Na      26.73574239      18.30923971       2.35943050      -0.15920930      -0.25254786       0.13160534      -0.11884047      -0.04197602      -0.05292034
Na      24.35944152      16.57895086       4.20994247       0.04619387       0.30114391      -0.06098361       0.05131735      -0.17205246       0.07235797
Na      26.70592874      18.17768796       6.25233815      -0.29185132       0.00514484       0.48501495       0.06489521       0.10402148      -0.02623941
Na      24.30204933      16.50373916       8.08141316      -0.25527828      -0.29828936       0.42543068       0.00691935       0.00429380       0.08361177
Na      26.50556048      18.44699451      10.31163524      -0.21277160      -0.80784063       0.44374588       0.04186911      -0.04766278      -0.08113308
Na      24.50362008      16.44244686      12.58354628       0.31204377      -0.61176471      -0.51523424      -0.01116426      -0.03505806      -0.00240643
Na      26.65986970      18.57987955      14.93897367       0.77728114       0.00391214       0.21180096       0.00050545      -0.14719672      -0.00131606
Na      24.08232551      16.27993396      16.83226824       0.02963544      -0.07407033      -0.02101959       0.16690580       0.10521597      -0.10633279
Na      26.58940613      18.34126741      18.90526403      -1.10698639      -0.22976067       0.18816010      -0.05519249       0.02396653      -0.03916159
Na      24.59662745      16.27825086      21.23239402      -0.13754853       0.04498655      -0.39561223       0.06625423       0.01543249      -0.02319612
Na      26.88166964      18.42112981      22.98417689      -0.36323064       0.11293347      -0.17004041      -0.11819788      -0.01454824      -0.01417886
Na      24.52085306      20.43835998       0.61213448      -0.81975607      -0.37278272       0.22181386       0.10296116      -0.07496592       0.06013561
Na      26.47331139      22.72071045       1.99985847      -0.30035128      -0.26499313      -0.17601045       0.04981819       0.04117310      -0.08633392
Na      24.62598701      20.43630815       4.31103689       0.21710803      -0.73936667      -0.39357294      -0.06425457      -0.01372656      -0.09307714
Na      26.69975323      22.38276047       6.38235060      -0.20357051       0.76577720      -0.24584436       0.00671884       0.12274649      -0.04507234
Na      24.54307599      20.45920960       7.88572789       1.06623491       0.41896924       0.36847351      -0.03175183      -0.06558279       0.22982186
Na      26.49079472      22.28686861      10.61331159      -0.47962352       0.16404927       0.50379078       0.06041706      -0.03702142      -0.12785376
Na      24.65632460      20.08273293      12.57869013       0.29195711       0.30462415      -0.14091293      -0.03865649       0.20793733       0.06895588
Na      26.64982155      22.30158050      14.86489541       0.22825849       0.40928252      -0.18309282      -0.03159963      -0.00917234      -0.00547465
Na      24.38437408      20.38110858      16.95131255       0.57311645      -0.36352464       0.32198786      -0.01454938       0.00222108      -0.04111467
Na      26.65653672      22.41878414      18.93217266       0.46731794      -0.16479048      -0.97411030       0.02796356       0.09616507      -0.05276498
Na      24.88421137      20.60474302      21.21348582       0.30061893       0.44243600      -0.10357335      -0.10044148      -0.07092102      -0.02993612
Na      26.97817853      22.47654936      23.12384783      -0.01383777       0.63782462      -0.00610396      -0.06262957      -0.02698382      -0.05395832
Na      24.43730285      25.07849962       0.36262317       0.20526881       0.44219233       1.04744611       0.01857299      -0.05498846       0.09461236
Na      26.74322135      26.68532516       2.22915719       0.38864900      -0.21794436       0.21538557       0.05633229       0.04319386      -0.07196760
Na      24.77228860      24.65634834       4.30218645       0.23584881       0.17999579      -0.66882399      -0.02437572      -0.00137809       0.13460964
Na      26.77615271      26.67875764       6.40826008       0.04879862       0.40627373       0.23767826       0.04833934      -0.11902993       0.03119282
Na      24.56493466      24.46936181       8.30215301       0.90288380       0.77310423       0.51314206       0.04597458      -0.01185795      -0.01415609
Na      26.58659845      26.58985815      10.50503079      -0.57811402      -0.89068535       0.14447894       0.00015873      -0.15013185       0.01285680
Na      24.65354403      24.28780611      12.59708729      -0.88817508       1.27673545      -0.01092357      -0.02436575       0.12680760       0.12491050
Na      26.56412100      26.62322485      14.83760180      -0.16673449       0.05017416      -0.91064993       0.02921070      -0.06620819       0.01241085
Na      24.55740788      24.38672283      16.85062176       0.04630890      -0.13634605       0.53891026      -0.04146237      -0.04025143      -0.04689359
Na      26.65037858      26.35887467      18.83612849       0.68192994      -0.40082524      -0.72935931      -0.03133446       0.04936466       0.03033448
Na      24.64741426      24.57575847      21.19936295      -0.40277788       0.28964512       0.16105570      -0.03332697      -0.00770617       0.04587171
Na      26.75622497      26.77037049      22.97685037      -0.24650400       0.83372712       0.32226803      -0.07686660       0.15284420       0.14846222
Na      13.83681663       3.43840161      28.01825587       0.28159614       0.11077945       0.38659821       0.05805480       0.05173244       0.00928035
Na       3.53995806      14.43857140      33.78120750      -0.53874790      -0.09133241      -0.70004848       0.08976631      -0.00610984      -0.00093034
Na       3.46426407       0.08906073      28.39307821      -0.71089148       0.13654178      -0.91120790       0.18870251      -0.14893764       0.04383180
Na      -0.07600705       3.40723844      31.80480154      -0.04868131       0.90860354      -0.54195295      -0.22552871       0.09058060      -0.18941004
Na      14.21177060      14.05838554      28.89687157       0.20983943      -0.06050368      -0.87273882       0.04632979       0.20433969      -0.04089865
Na       3.52010062       3.39105887      27.36631162       0.08928162      -0.11525227      -0.09220279       0.18589570       0.27863800       0.11271232
Na       0.09857174       3.49188415      35.12061104      -0.05524610      -0.04028725      -0.14620281       0.14446959       0.22314423       0.25237538
Na       3.57440069       0.04443952      41.42366948      -0.31368357      -0.01536480       0.33452666       0.08679124      -0.17880985       0.18098736
Na       3.57866897      -0.00294827      37.58914753      -0.08550872      -0.05873309      -0.08567355       0.13369769      -0.10982256       0.06522579
Na       0.17635758       3.47156968      39.00424248       0.31254867      -0.29042227      -0.07364765      -0.25956396       0.09521211      -0.02143158
Na       0.21569321      -0.08829940      38.24799545       0.38357598       0.26570734      -0.35579369      -0.11145572      -0.04962949       0.25969389
Na       3.98190483       3.77914724      34.76758679      -0.23164047       0.54583631       0.17582815      -0.15389684      -0.07137179      -0.01428905
Na      14.10584737      10.69471865      28.37079111      -0.57990300      -0.25772614       0.11709335       0.13238616       0.01200827      -0.07994193
Na       3.49635675       7.27543254      34.30368038      -0.13715029      -0.12053969       0.12582401       0.01706313       0.01757081      -0.01636891
Na       3.56254886       7.40025559      30.35695600      -0.00211988      -0.45508616      -0.38344311      -0.11993937       0.09121430      -0.03746078
Na      14.39085024      10.88767873      31.93935597       0.18310005      -0.34484870      -0.52253200      -0.08229230       0.00284184      -0.00731929
Na      14.02724428       7.32621584      31.11963408      -0.25505726       0.47176142      -0.29191503       0.07099658      -0.17178172      -0.08410525
Na       3.81684433      10.55694028      27.73407302      -0.42859778       0.32171026      -0.32755328      -0.23051766      -0.38481475       0.18191004
Na      14.40165620      10.76333121      35.55421842       0.72159324       0.64558063       1.09046400      -0.11306903       0.08556737      -0.11049311
Na       3.74221226       7.13643812      41.75877995      -0.80303219       0.53161963      -0.67153398      -0.23644933       0.02625613      -0.05884602
Na       3.69714636       7.04505040      38.04165729       0.20143798      -0.17300575       0.08912973      -0.18228903       0.04468039      -0.01259762
Na      14.27699833      10.78462228      39.01757861       0.54794725      -0.03389207       0.50038024       0.12859229      -0.14554705       0.06839833
Na      14.22115760       7.12768890      38.48282599      -0.18011354      -0.43810985       0.97693243       0.03791681      -0.00128132      -0.05798736
Na       3.66168549      11.00652200      34.79875750      -0.59647199       0.78448112       0.17216029      -0.00890113      -0.02703831       0.09271855
Na       7.16664349       3.54491820      28.27185818       0.35895161      -0.26733437       0.00092348       0.06370392      -0.01338647      -0.11631699
Na      10.70776048      14.31284263      33.84459097       0.58487734       0.14227353      -0.05204371       0.04125663      -0.08126673       0.05113566
Na      10.79234144      -0.17330588      28.67315051      -0.30552249       0.31454696      -1.21970034       0.00659611      -0.04022045      -0.05895256
Na       7.18515969       3.83961663      31.83653142       0.22071160       0.31381741      -0.49121852      -0.15439901      -0.12064638      -0.05978827
Na       7.62581308      14.35878902      31.27103261       0.67023017       0.20024373      -0.55829490      -0.04628907       0.09903218      -0.10841220
Na      10.84614990       3.67574172      42.10939438       0.14309864      -0.06297027       0.35432224       0.01129005      -0.02600009       0.00436702
Na       7.29911571       3.62468840      35.29389536      -0.15851516       0.74740929      -0.12484245       0.06778213      -0.10098224       0.13496680
Na      10.81996440       0.24591411      41.51645544       0.46157164      -0.15335974      -0.51279327      -0.05512141      -0.19443341       0.04110078
Na      10.99068676      14.38550891      37.88062459      -0.27625032      -0.55193150       0.45830214      -0.12493588      -0.15124157      -0.09047047
Na       7.18317929       3.52443452      38.96648967       0.30927739      -0.32635866       0.48969558       0.14945110      -0.01367184       0.00208350
Na       7.14548840      14.38068781      38.35666967      -0.23802487      -0.88940862       0.13756806       0.03881443      -0.05042951       0.26461085
Na      10.95984864       3.42483222      34.80103141      -0.00289123       0.15621497      -0.22274710      -0.07385443       0.08606407       0.03730461
Na       7.08445194      10.85152179      28.22743233       0.47448827      -0.22469825      -0.23183172       0.00716359      -0.04511569       0.08963683
Na      10.80040752       7.01424812      33.98410893       0.62884948      -0.41796603      -0.38265052      -0.06988333       0.10816713      -0.06488417
Na      10.67724840       7.08792032      29.69325288       0.38080557       0.23589558      -0.21933705      -0.21423156      -0.24681820      -0.04702164
Na       7.21093417      10.79642825      31.97553398       0.82524607       0.41645676      -0.61341115      -0.08573040      -0.07044878      -0.04179794
Na       7.09475410       7.34335650      31.07610059       0.57145463       0.16270273      -0.55192591       0.11107641       0.02271748      -0.00159369
Na      10.72839826      10.65547777      27.81247939       0.43796212      -0.07394102      -0.20623743       0.09078854       0.23234020      -0.23901339
Na       7.13362313      10.69794233      35.55751733       1.32177948      -0.06653194       0.25473689      -0.00757087       0.03812042       0.07528085
Na      10.80377532       7.14555545      41.49626771       0.29734731      -0.05798987       0.03340440      -0.03148145       0.15645031       0.06989737
Na      10.81944494       7.18538460      37.75074642       0.22531651       0.44929105      -0.61390706      -0.18920018      -0.08147960       0.06108256
Na       7.19025463      10.80526234      39.14414725      -0.57185481       0.13454881      -0.44528953      -0.17950160       0.02375498      -0.19680654
Na       7.17869860       6.99309473      38.44176634       0.10520504       0.07356912       0.16388842       0.05039392       0.12684558       0.13833742
Na      10.71792903      10.64613673      34.83820812       0.65887791      -0.08631382       0.50303576       0.12050331       0.05676863      -0.02506353
S        1.67630928       1.61307306      27.16413776      -0.19880123       0.16047833      -1.96992902      -0.05129356       0.19342285      -0.19540208
S        1.26038844       5.69367777      33.51357790      -1.24841433       0.55123912       1.41743547       0.02043876      -0.03643783      -0.27471494
S        5.56716057       5.39712135      26.84393767      -0.32245221      -0.60332501      -1.85965094      -0.08593764      -0.43014538       0.15089414
S        5.97406187       1.59595695      33.35968347      -0.45810098       0.16619029      -0.13684949       0.29293787      -0.42378271       0.57515568
S        5.02308733       2.37876777      29.68195879      -0.57102472      -0.15162062       0.31529904       0.03558428       0.08074154      -0.14143364
S        4.95833318       5.46669196      31.96195710      -0.37184903       0.06478681      -0.51031633      -0.40667145      -0.06613332      -0.15671464
S        1.88579084       5.09508690      29.48516849       0.49895247      -0.60695184       0.18794397       0.06703732      -0.07302461       0.29210868
S        2.38117975       2.65202690      32.53949056      -0.01716387       0.08082288      -0.35619430       0.39873214       0.11935510      -0.28493002
S        1.53934969       1.21447622      36.00033714      -0.08080670       0.30031654       0.10464747       0.15053680      -0.03100448      -0.07851330
S        1.41319482       5.62648201      40.78438242      -0.35028380      -0.46520485       0.57392583      -0.27006100       0.18922321       0.12676803
S        5.62287008       5.86902431      36.16617875       0.09174396       0.19864626       1.19979130       0.08285631      -0.09485162      -0.28905364
S        6.01746387       1.35341778      40.71837468      -0.84251436      -0.14550432       0.08486397       0.14131210       0.03787558      -0.00491202
S        5.26461641       2.28833284      37.16529535      -1.05511845      -0.52107254      -0.35870480      -0.43543455       0.16941464       0.10373266
S        4.81663219       4.96228388      39.80750599       0.32090985       0.11666606       1.05851550       0.33375976       0.22651422       0.09049315
S        2.05233100       4.72984609      37.13633142      -0.41915418      -0.51955514       0.33032045       0.63320040      -0.30292098       0.18908408
S        2.37139240       1.98550179      39.79470196      -0.29153800       0.73498510      -0.15884357       0.01243896      -0.18349590      -0.02375973
S        1.88382959       8.68992738      28.24169778       0.36255665       0.04282964       0.38757609       0.08968670       0.25148947       0.23601313
S        1.29764577      12.78099740      33.50458198      -0.20430090       0.18303838      -0.55387724      -0.13779602       0.09187167       0.12970937
S        5.26385124      12.54635943      27.05843286       0.44178547       0.21331099      -1.10658408       0.32279048       0.40060836      -0.15265201
S        5.85136562       8.77063177      33.72648457       0.66367514      -0.01122582      -0.31853520      -0.01240195       0.02515822      -0.36804480
S        5.39877644       9.55773479      29.96410169      -0.39745067      -0.19925083      -0.66606726      -0.61381914       0.30959876       0.08990466
S        4.97048068      12.37879154      32.42201323       0.55445559       0.07019092      -0.99981698      -0.05203738       0.01938945      -0.03639519
S        2.26130054      12.09135859      29.67286832       0.31440648       0.28785570      -1.18507924      -0.05076747      -0.08656912      -0.10827341
S        2.36035678       9.41514201      32.39368186       1.24110699       0.66046353      -1.07709158      -0.11118942      -0.28926257       0.17627966
S        1.37201307       8.37338128      36.16526424      -1.31319916       0.96024355      -0.37434610      -0.00941727       0.06358115       0.00364480
S        1.18728464      12.82588583      40.65607539      -0.44230204       0.77349421       0.11560928       0.07922016       0.21561264       0.26356040
S        5.64187875      13.08895696      36.12499414      -0.75715952      -0.29621611      -0.76071510       0.17217438      -0.00757071      -0.00985992
S        5.97826791       8.55025823      40.89910222      -0.01645298       0.12100806      -0.56617623      -0.05731856       0.09451063      -0.41611755
S        5.20781769       9.39308529      37.28273203      -0.33354344      -0.80693432       0.31957826       0.03271134       0.17070407      -0.00165606
S        4.74585949      12.23581325      39.84134494       0.11111645       0.53123080       0.64279366       0.30156240       0.03753091       0.09630417
S        2.13656301      11.78511635      37.14189988      -0.10697250       0.10622986       0.15464758      -0.03690118       0.16093152      -0.09844853
S        2.47800594       9.07149022      39.81562840      -0.17315537       0.15354960      -0.53639554      -0.31923032      -0.05894989       0.26616245
S        7.86903131       0.72480032      28.10728924      -1.01356380      -0.15247276       0.20604976      -0.00557902       0.05504037      -0.05477057
S        8.41040349       5.66095577      33.58168947      -0.38727628       0.71071709      -0.30366923      -0.17127643       0.06484794      -0.08039413
S       13.41268172       6.23899565      28.26037136      -0.19769360       0.21061631      -0.30220769       0.08207357      -0.17340824      -0.19697821
S       13.04807927       1.70050814      33.55957876      -0.57292593      -0.00284603      -0.59407436      -0.11486530       0.09724530      -0.09390504
S       11.97512211       2.24929293      29.66576861      -1.24756903      -0.42639875      -0.60230228       0.06299699       0.03745089      -0.01422413
S       12.04324224       5.05474536      32.20258604      -0.18483760      -0.56605290       0.50445205       0.31239280       0.30310169       0.03954139
S        8.99745624       4.96397994      29.80268039      -0.48094013       0.39774120      -0.44348688       0.18995178      -0.13324205      -0.02913857
S        9.39486433       2.34338717      32.46800454      -0.01608045      -0.36393202      -0.70655419      -0.32171439      -0.45329364       0.40015899
S        8.66044937       1.26611770      36.15115025      -0.30330458      -0.20285234       0.36184583      -0.02271153       0.03197085      -0.10626187
S        8.52675710       5.58463666      40.82220297      -0.68598272      -0.96022392       0.56613632      -0.29512966      -0.12514624      -0.21782632
S       12.68732231       6.00315168      35.92939133      -1.57081658       0.25227868       0.45966495       0.01950018      -0.39386754       0.14902564
S       13.15115616       1.57374996      40.83726697       0.18909451      -0.28501278      -0.36407644      -0.30919441       0.46977727      -0.60582166
S       12.46548198       2.51118942      37.10438986      -0.43339446      -0.22744301       0.38517388      -0.14117894      -0.12005468       0.24504167
S       12.04022982       5.15971313      39.79462791       0.19862245      -0.03767788       0.42783056       0.19843630       0.02148338       0.12569270
S        9.33839964       4.77300541      37.18424307      -0.58575463      -0.64378109      -0.58078514      -0.11203558       0.10623976      -0.19055054
S        9.57214839       1.99334368      39.71963866       0.03889028       0.82841704      -0.29845395       0.26892531       0.38477426      -0.15578477
S        7.98493376       8.17950227      28.09467404      -0.12593196      -0.39290167      -0.54953072      -0.13776036      -0.17531333      -0.20483772
S        8.42643026      12.86866035      33.57238444      -0.60780055       0.64023187       0.44993708       0.28407677      -0.56244575      -0.44863590
S       12.53539637      12.65583718      27.38595960       0.04882671      -0.50098158      -1.21021377      -0.08273308      -0.17923137      -0.05940974
S       12.96059466       8.86637201      33.52093562       0.29905747       0.29556357       0.22262674       0.13412832       0.24713361      -0.05021963
S       12.15421647       9.25567924      29.71262719      -0.58558019       0.83119967       0.63696473      -0.06554636       0.09308692      -0.06067299
S       11.90975764      11.99105720      32.33893009      -0.82014367      -1.49821772       1.18302198      -0.29937196      -0.10409491      -0.03156945
S        9.10420506      11.92409617      29.77420711      -0.25742270      -0.27859845      -0.20165219       0.14568050      -0.03999874       0.00961598
S        9.30381269       8.97860937      32.24133208      -0.21776455      -0.52911161      -0.90554229       0.23656182       0.07806603      -0.08285846
S        8.59224698       8.37397812      36.29018420      -0.72368869      -0.31104606       0.28853501       0.05016557      -0.09548497      -0.20558899
S        8.46722474      12.88172004      40.68492403      -0.10991535      -0.12001751       0.37231199      -0.28661650       0.31589168       0.46799030
S       12.72812861      13.00622153      36.00431994      -0.07683554       0.55941706      -0.63624526       0.41636330       0.33683909      -0.21538115
S       13.19408140       8.57418524      40.72717032      -0.10437132       0.47869525       0.24240769      -0.33744574       0.45062042      -0.32900633
S       12.28635964       9.47233673      37.19721369       0.85667848      -0.39549016      -0.19890900      -0.04625533       0.15661769       0.14992320
S       12.01473579      12.28710904      39.77454418       0.26888126       0.19585134       0.50333627       0.01741606       0.01863718      -0.05392055
S        9.27845328      11.96275662      37.06858863      -1.03043011      -0.62657680      -0.60432472       0.14705541       0.05230732       0.08149001
S        9.40864195       9.39772631      39.83866228      -0.28061875      -0.22098107       0.17425241       0.48424499      -0.28090070       0.11382100
Sb      -0.01571680      -0.12830239      42.09985408      -0.36670379       1.27978708      -0.46655891       0.47237377       0.07837856      -0.67078985
Sb       3.54752093       3.85385721      30.84655382      -0.35672593       0.12577835      -2.05351144       0.22930860      -0.17032770       0.47043724
Sb       0.02152427      14.33023044      34.75654195       0.56512404      -0.24334045      -0.28760288      -0.14712408       0.15089454       0.32663805
Sb       3.62146134       3.45109044      38.45449094      -1.12646168       0.82350509      -1.01662263      -0.14098653       0.29877818      -0.62974609
Sb       1.35221902       6.59682207      27.30718134       0.16575609      -1.81921391      -0.24279346       0.29187574      -0.22130553      -0.36124692
Sb       3.67609420      10.88896751      31.15711676       0.86864756       0.00947800      -2.70569317       0.61564819      -0.05261659      -0.54563571
Sb      -0.06725850       7.23399283      34.68915485      -0.01704657       0.68441204       0.33173338      -0.06241236      -0.65945030       0.23425364
Sb       3.63899159      10.62252417      38.53217529       0.70963239       0.54667402      -1.43260417       0.02065763      -0.02759231      -0.30427111
Sb       7.15636058      13.80132426      26.28998231       2.63037923      -0.57445357      -1.79072983      -0.13965851      -0.14039166      -0.14938916
Sb      10.60534335       3.66045468      31.01616336      -1.45015446      -2.48411236      -2.73101974       0.10447999      -0.07844690      -0.86347114
Sb       7.23548441       0.01373953      34.75959779       0.60523308       1.19801109      -0.99480342      -0.70891476       0.96552327      -0.50451942
Sb      10.87441943       3.58805997      38.49928413      -0.99466332      -1.41550957      -0.75406564      -0.30445362      -0.36130889      -0.16101511
Sb       6.62957936       7.38655071      26.27432506      -1.26946519       1.46878912       0.19152258       0.25357488       0.50306002      -0.03329778
Sb      10.61809433      10.52919613      31.02730773       1.06248069       0.40837074      -1.26061614       0.26035321       0.44163456       0.52537217
Sb       7.13893645       7.17008334      34.86562986      -0.05216352       0.17372010       1.59483396       0.03720009       0.09076075       0.39705303
Sb      10.76465182      10.77537631      38.46068668       0.89623431       0.31105927      -0.68553849      -0.31026486      -0.08930279       0.02015640
Na      14.48840428       3.54516933      42.60801102      -0.05450014      -0.08033092      -0.14944116      -0.10042391       0.04674306      -0.03889400
Na       3.57064265      14.12393477      48.55289309      -0.52410267      -0.06730498      -0.68613433      -0.04197895       0.13942217       0.18241624
Na       3.55068458      -0.07355602      45.35069357      -0.89397444       0.21048270       0.09930938      -0.02219947       0.06587530      -0.19276944
Na       0.02365906       3.50105480      46.07853874      -0.17435776      -0.40185178      -0.34868537       0.03778128      -0.03938097      -0.08956810
Na      14.60941047      14.17249314      45.73878926       0.27905065      -0.03486417       0.06772366      -0.18322256       0.12937481      -0.21706037
Na       3.64310438       3.70315527      41.98824905      -0.10907833       0.25268492       0.17480578      -0.15744972      -0.12980905       0.20635604
Na      -0.02919851       3.76478539      49.49652689      -0.03524107      -0.34917751      -0.12586839      -0.04159537      -0.29586507       0.19063439
Na       3.59471760       0.03416201      55.91090373      -0.11550517       0.51268434      -0.01650259       0.10612929       0.11928438       0.10490108
Na       3.61432154      -0.00425894      52.31407384       0.53833615       0.03649062       0.78780282       0.04449554       0.19928021      -0.00257308
Na       0.05382208       3.71911217      53.31487576       0.10307168       0.66058962       0.38799768      -0.04432247      -0.20715487      -0.02496680
Na       0.08716187       0.12877153      52.99070322       0.24058082       0.36017092      -0.51738436      -0.06806934       0.07656868      -0.21454886
Na       3.69909610       3.41939937      49.23286509       0.55377791       0.34916783       0.02804188      -0.01206861       0.01741740       0.11717540
Na      14.23460871      10.69260299      42.71340113       0.65435538       0.43988252       0.26440645       0.09129505      -0.02056168      -0.06405429
Na       3.56533806       7.06177782      48.97880718       0.05585201       0.30060393       0.23732041       0.03347295       0.01246573      -0.15000261
Na       3.61605663       7.12961079      45.22927877       0.27485050      -0.13977636      -0.59257674      -0.06216796       0.00012371       0.09919482
Na      14.36835519      10.70784238      46.25369361       0.38051717      -0.23679761      -0.06774922      -0.13318357      -0.09733337      -0.07873483
Na      14.10909707       7.04006201      45.70692348      -0.23051337      -0.26005820      -0.24140321       0.11274036       0.09829885       0.06738822
Na       3.51322968      10.80547774      42.04354197      -0.41322675      -0.98723515       0.25167974      -0.07824916      -0.01770118       0.09358392
Na      14.53665622      10.81686128      49.75767126      -0.44905488       0.33708934      -0.42310464      -0.02622776      -0.03160702       0.04998845
Na       3.53164612       7.02305216      55.94956533      -0.05267733      -0.66630276       0.46643871       0.18059263       0.10433348      -0.21711829
Na       3.67414210       7.09099925      52.36567568      -0.15500410      -0.21517995       0.21552271      -0.05505385       0.16108219       0.06903079
Na      14.43013192      10.97533839      53.29814433       0.47948074      -0.44829368      -0.26257266      -0.05670400       0.04224624       0.08925299
Na      14.12369667       7.56265564      52.87188371      -0.61361743       0.06158700      -0.15930143       0.04471003      -0.11200237       0.04185091
Na       3.71380782      10.70377597      49.40685925       0.47171591       0.21605307       0.19672992      -0.17433259       0.01176801      -0.28633954
Na       7.05098614       3.51632300      42.45643852       0.00566666      -0.30629570      -0.24060902       0.17934332      -0.12150342       0.07694223
Na      10.81058100      14.28886325      48.73734765      -0.25423607       0.25814468      -0.46336956       0.04678103      -0.01591298      -0.09929594
Na      10.70053506      -0.15400140      45.03556116      -1.03180442       0.18364501      -0.41307048       0.03796654       0.13607985       0.09720638
Na       7.02202796       3.57180716      46.02264633       0.01227928       0.25313411       0.57895483       0.23972007       0.02203376       0.01365569
Na       7.18722767      14.11288461      45.65343768      -0.36636574       0.82124039       0.32666689      -0.06631989      -0.03417083       0.00583556
Na      11.05169052       3.63625959      56.51411983       0.21483866       0.15572899       0.04305265      -0.00334997      -0.00686120      -0.11607233
Na       7.26318234       3.68168153      49.46334357       0.50453639       0.01777583      -0.38561140      -0.01596639      -0.03401846       0.18458365
Na      10.69068693       0.10007043      56.12781969       0.11275503      -0.24917898       0.61390816       0.31163937       0.21929729      -0.00856613
Na      10.69353621      14.46941516      52.29000565      -0.03587563       0.21150874       0.21389151       0.12386923       0.05117591       0.15630345
Na       7.12776082       3.69667772      53.36999859      -0.04509553       0.03332550      -0.63138096       0.22556011       0.09375593      -0.15185329
Na       7.13181528      14.49814007      52.90233790      -0.54707977       0.18922460      -0.45867511      -0.05094791       0.00229800      -0.09337062
Na      10.86867951       3.64772944      49.23326290      -0.38242981       0.36630252      -0.19947964       0.01832675       0.16164869       0.03623708
Na       7.16486829      10.61231536      42.55354482       0.49233283       0.11557449      -0.43502707       0.06530126       0.08024129       0.08267567
Na      10.75805507       7.27900260      48.90287832       0.43579716      -1.21597293      -0.68202134      -0.09950621      -0.07451760      -0.05718057
Na      10.78603132       7.15038028      45.10071475      -0.01454470      -0.64625446       0.02156711      -0.07870803      -0.05792654       0.10213291
Na       7.04294406      10.47842767      46.18593843      -0.25957186       0.39144202       0.74337552       0.20104292       0.13980381      -0.08421359
Na       7.23511711       7.10343618      45.70500311       0.04736095       0.56601792       0.82793893      -0.00571791      -0.02984202       0.03272086
Na      10.82104444      10.83176677      42.04004547       0.24487805      -0.14832242       0.20293184      -0.08323119       0.02702472       0.02048250
Na       7.16375333      10.87577580      49.52568366      -0.61870745       0.29268950       0.34066571       0.04883963      -0.14612563       0.14327486
Na      10.83961755       7.35655588      55.92382336       0.16687856       0.52817557      -0.45090555      -0.00217936       0.00547368       0.05369926
Na      10.79488384       7.32710939      52.49190195       0.37644959       0.05256928      -0.37408846      -0.14941947      -0.00188074      -0.09988283
Na       7.13942348      10.92929237      53.26452032      -0.01037633      -0.66489262       0.36127234      -0.01830036      -0.16738350      -0.16218611
Na       7.10589693       7.22513814      52.87170338       0.89243631      -0.23438623      -0.39799596       0.05986231       0.05506725      -0.14282185
Na      11.02800193      10.83109699      49.39590224       0.60354888       0.04492746       0.49815306      -0.09484453      -0.05718199      -0.15569622
S        1.35774790       1.11476786      43.54453370      -0.39713929      -0.19472351       0.16320277       0.13904712       0.05091501      -0.00009330
S        1.25307825       5.65669704      47.85869881       0.67680906      -0.23244558      -0.55039860       0.28524666      -0.04451812      -0.19913040
S        5.71089324       5.80709622      43.53361119      -0.60603801       0.11300284       0.33875057       0.06016145       0.01098206      -0.19669877
S        5.91821757       1.52763606      47.99766211       0.54568239       0.92410773       0.47353381      -0.05444777      -0.08509652       0.05815502
S        5.03172885       2.26932820      44.29945355       0.59473317      -0.44837384      -0.08883604       0.17582747      -0.02902954      -0.04393827
S        4.78170913       5.08810878      47.02483020      -0.98568850       0.39522599       0.25401643       0.14898939      -0.05030715      -0.02499131
S        2.10638242       4.73623040      44.22393914       0.80919432       0.03026727       0.21343261       0.13592633       0.04140270       0.29963850
S        2.39834283       2.04870956      47.00233953      -0.06316167      -0.46124315       0.47863865      -0.08275855       0.15288764      -0.00491673
S        1.55212491       1.35496410      50.60337303      -0.46606957      -0.07933818       0.59559355      -0.16566333      -0.29088755      -0.18327607
S        1.34127070       5.58125976      55.08445681       0.58152827      -0.30284750       0.17057587      -0.25472387      -0.11399996       0.35713292
S        5.71645066       5.88459082      50.61544703      -0.34429446       0.22585652      -0.23195653       0.22135592       0.15613387      -0.15134677
S        5.98402373       1.67405925      55.24066045       0.28037743      -0.43938908      -0.61314734      -0.05126934       0.02694806      -0.13855972
S        5.18864414       2.37155509      51.65347955       0.27220439      -0.43845383      -0.88233111      -0.07694194      -0.03222810      -0.15723786
S        4.89766725       5.11037776      54.24121432       0.22580929       0.12909441      -0.54218525      -0.31029874      -0.03057212       0.05098092
S        2.13900132       4.86026529      51.54096732       0.05613111       0.39943797       0.67788889       0.05418934      -0.09905928      -0.06778303
S        2.39168571       2.09532121      54.20911648       0.19091076      -0.75087385       0.24602970      -0.18771349      -0.12235497       0.10733343
S        1.53707075       8.37890888      43.41688646      -0.71866114      -0.41030161       0.33973277       0.02273149       0.25463524       0.15233339
S        1.17648215      12.77695261      47.88832128      -0.44208760       0.38372867      -0.73926387      -0.13879908       0.28384522       0.07884913
S        5.71319893      13.03151234      43.45878530      -0.27210543       0.50724175       0.13264102      -0.37016313      -0.38029195       0.05421318
S        5.79850766       8.57055316      47.89955209      -0.20284170       0.26847253       0.31066578      -0.03871601       0.13757024      -0.07054556
S        5.04315068       9.45182912      44.34795044      -0.21407222       0.47084898       0.65692577       0.05651861      -0.08956810      -0.33658265
S        4.89933826      12.16040640      47.00078336       0.21128205       0.00761827      -0.08621152      -0.20180047      -0.13834539      -0.13749376
S        2.00772996      12.00312877      44.44313149      -0.13165762      -0.49699264       0.36850490       0.06078315      -0.04814084      -0.38541084
S        2.28891603       9.22859946      47.04145581      -0.00073296      -1.71613231      -0.54546373       0.33590433       0.22979108      -0.26582604
S        1.54570435       8.36048240      50.61235003       0.08611072       0.15633636      -0.03999283      -0.13435547       0.01582312      -0.11332383
S        1.20055625      12.88156621      55.11840116      -0.82591379       0.18668544       0.01160623       0.09387723      -0.01980244       0.99472928
S        5.71070854      13.07227815      50.60082862       0.51315375      -0.02590703      -0.31645528       0.17064553       0.30331384       0.03049539
S        5.78235135       8.75635849      55.14004607       0.38696937      -0.31069383       0.55081570      -0.19845811       0.23399084      -0.13657397
S        5.04736377       9.50180138      51.51596121       0.15098657      -1.11972872      -0.79157254      -0.26965485       0.33557883       0.46876151
S        4.76308765      12.37089716      54.17600838       0.39504386      -0.00037794       0.26383605      -0.16648408      -0.48229710      -0.23908180
S        1.95119334      12.00884550      51.54090845       0.01955984      -0.18928321       0.07991153       0.41923994      -0.09271711       0.22943564
S        2.15794444       9.29259023      54.16432221      -0.30331942       0.49895715      -0.32391104       0.35362077      -0.01457181       0.13182945
S        8.75674726       1.19349341      43.37496863      -0.04331988      -0.26472768       1.26285599       0.13347837       0.34348251       0.26179694
S        8.45940584       5.78215498      47.96180126      -1.53529223      -0.68903207      -0.89559776       0.17382723      -0.22772783      -0.30995663
S       12.89206649       5.93662064      43.41965444       0.06127857      -0.07073408       0.58011622      -0.25546607      -0.34132569      -0.08648793
S       13.11135375       1.43718959      47.95492104       0.65859167      -0.47835109      -0.14425448      -0.01274855       0.03599351      -0.03637023
S       12.21621609       2.28876974      44.41291275       0.34030910       0.15949592       0.25127275       0.12602875      -0.22838534      -0.22174043
S       11.97523926       5.07545797      46.92268935      -0.24063333      -0.54943981       0.39199318       0.23146399       0.30818171       0.32309176
S        9.29709256       4.75146202      44.27792743       0.21840752      -0.19028513      -0.03565609      -0.44510860       0.21746629      -0.21200040
S        9.44130848       2.22642726      47.19237557       0.80991058      -0.90800649       0.49399276       0.01553709       0.16523180      -0.46561954
S        8.76077242       1.43895015      50.55004570      -0.11205586      -0.29817369       0.30090065      -0.27546235      -0.27826150       0.31001085
S        8.56643105       5.92034131      55.03032702       0.67035691       0.37720772      -0.57878039      -0.63190219       0.12190494       0.40048776
S       12.71183018       5.94667286      50.61829863      -0.30421310      -0.73069427       0.86938141       0.18519136       0.15085556       0.04791392
S       13.05598174       1.66278948      55.12372796       0.48419048      -0.03864426      -0.49133532       0.06994920      -0.11261600       0.18870172
S       12.21348789       2.49944908      51.49253980      -0.27232465       0.50028679      -0.25880672       0.28012044      -0.24438794       0.02822660
S       12.05512932       5.17299303      54.29603105      -0.48058962      -0.41398004      -0.09991084      -0.00477979       0.08451628      -0.08165598
S        9.36513469       5.00509299      51.47250315       0.50846839       0.36039471      -0.36351016      -0.14130319      -0.05324691       0.11033559
S        9.52949748       2.23032694      54.23580355       0.09285177       0.79675881       0.42465553       0.11785864       0.23343895      -0.17120596
S        8.69355410       8.23947282      43.49316177       0.95647926       0.32076024       0.47253024       0.16504476       0.42003911       0.15232039
S        8.32957509      12.88571593      47.88506278      -0.53725533      -0.37508980      -0.45034426       0.17030536       0.27938999       0.19228626
S       12.81909263      13.07781635      43.31289227       0.25545227      -0.50488834      -0.11891818      -0.28706192      -0.09088931       0.29254087
S       13.04590592       8.79792414      48.08631111      -0.30663418      -0.59926538       0.52740209      -0.18565978       0.24722510      -0.39931653
S       12.19250799       9.48327878      44.33783895       0.09657632      -0.27121038      -0.36327275      -0.29323171       0.37090708       0.07489630
S       12.02510503      12.16369504      47.02187553       0.50256705       0.47525488       0.71384196      -0.19835050       0.20308252      -0.14532478
S        9.13441409      12.00709691      44.30758875      -0.00562128       0.47387419      -1.30186468       0.13947441      -0.09275428       0.08165257
S        9.56292068       9.20076610      47.02597687      -0.04569956      -0.23799774       0.24838185      -0.25570172       0.28993538      -0.13459135
S        8.56567441       8.55491695      50.59116297       0.38819857       1.56121246      -0.69246058       0.13529116       0.09342783       0.19994414
S        8.25711021      12.82688586      55.06171146       0.00999757       1.05833823      -0.14195218       0.06519247       0.47885534       0.47232645
S       12.92875049      13.22454295      50.61325542       0.65849114      -0.29376462      -0.35841547       0.07811576      -0.17495790       0.06994061
S       13.23732348       8.83384355      55.26904401      -0.01194970      -0.23937446      -0.40346159      -0.40541647      -0.03397851      -0.09131753
S       12.41293581       9.61628825      51.61512817       0.89191670       0.70364532       0.28578088      -0.23754562       0.20554134       0.13948360
S       12.07703897      12.43593702      54.23903441       0.63716844       0.33963078       0.46505205      -0.04876428       0.04922747       0.06033183
S        9.36348365      12.08415697      51.50413172      -0.39605142      -0.31156414      -0.73949377       0.03314604      -0.01935219      -0.08985806
S        9.61799203       9.35542167      54.24023707      -0.19717223      -0.18921771      -1.08484057       0.17431805       0.53887159      -0.33416543
Sb       0.10948936       0.04467319      56.55795451      -0.34304285       1.63590967      -0.26663121      -0.10211792       0.25783723      -0.57878758
Sb       3.60580701       3.56890099      45.65326901       0.35518692       1.11981428       0.93299778      -0.34985364      -0.13469127      -0.14132900
Sb      -0.02584071      14.29328927      49.26277002      -0.03151394       0.61302396      -0.43523732      -0.13284759      -0.14127387      -0.52879293
Sb       3.60859164       3.61277451      52.90267382      -1.28680147       0.29857158      -1.90205380       0.40240752       0.11853375      -0.09039835
Sb       0.08642821       7.14790530      42.04524090       0.41665323       0.50459892       1.90395065      -0.25137550      -0.30542344      -0.31147521
Sb       3.55666970      10.71245380      45.65041671      -0.10745317      -0.60538933       1.41452132      -0.29194507       0.02428811       0.82793646
Sb       0.07144561       7.21528673      49.14959789      -0.59588725       0.65446052       0.83211834      -0.27662337       0.24171730       0.17862510
Sb       3.49828159      10.77282053      52.88440647      -0.17178715      -1.93425801      -1.16659650       0.15747952       0.08273689      -0.14939942
Sb       7.14273381      14.29593284      42.12536141       0.34194895      -1.65436187       0.72721723       0.82223863      -0.06265442      -0.23632633
Sb      10.71000144       3.55646144      45.67206019      -1.81124308       0.35172134      -1.66535770      -0.10155587      -0.35840486       0.45228888
Sb       7.21454858       0.07138987      49.36511280      -1.00247465       0.62677598      -0.17507237      -0.41217670       0.31311633      -0.32445476
Sb      10.78902262       3.76751418      52.86858213       1.40629525       0.70322670       1.36959508      -0.27808927      -0.24039603       0.25090054
Sb       7.22106229       7.02563155      42.15610019       0.13639869      -0.13025649       0.80958348       0.02925164      -0.15345403       0.13267532
Sb      10.65222766      10.79644169      45.64888047       0.30714269       1.21904776      -0.23333117       0.58751328      -0.60282119       0.17162769
Sb       7.16279447       7.22821868      49.25761255      -0.38254445       0.24325147       2.23650277      -0.33356767      -0.14257659       0.42380763
Sb      10.87207492      10.93526079      52.90287984      -1.14140791      -1.12806417       0.63904067      -0.24867418      -0.75177117       0.30603237
Na      14.50370614       3.65916634      57.08364421      -0.78445627       0.37451503      -0.63758302      -0.16075173       0.02137552       0.07455124
Na       4.52928944      15.54970957      63.65805392       5.38212808      30.95820146      18.12801710     -55.45048141      -6.06729971      40.53941960
Na       3.57983472       0.06444653      59.51523614      -1.10663418      -0.37076086      -0.24798767       0.10690541      -0.08574249       0.05179936
Na       0.05457595       3.46443026      60.87170098       0.53992668       0.91744361       0.23699847      -0.41959783      -0.84968028      -1.15022173
Na      14.48504051      14.24880740      59.96773847      -0.39557407       0.45406346       0.00339590       0.02528640       0.06107009       0.17944995
Na       3.43403930       3.56866059      56.54544120       0.16897699       0.10566397       0.21037918       0.10898914      -0.12232985      -0.17176240
Na      -0.39671890       4.39267487      64.24647934      -2.36840156       6.22853920     -13.37839642       0.08687461      -0.66258428       0.50221392
Na       3.72892664      -1.10790490      69.96214878       0.13460616      -0.62370491       1.03708964       0.35412280      -0.31979651      -0.22868769
Na       3.29289629       0.10937491      66.80062594       0.75555607      -0.50853817       0.85829269       0.36462018       0.06170529      -0.52952858
Na       7.80720904      -5.06110512      56.62375726      52.51950840    -116.11893933    -137.26149979     -11.26488942      62.14694196     -58.34296711
Na       0.58349208      -0.86679372      67.84796923      -1.05313793      -2.04913032       1.62191039      -0.40526289      -0.28271102      -0.09719986
Na       3.82029230       4.97938115      63.70567026       4.52824299      17.55421433      -6.56461497      -1.83646051      -0.66266629      -0.33482187
Na      14.42234506      10.65931109      57.09258964       0.06888823      -0.04909167       0.35649591      -0.07770928       0.24568895      -0.04454011
Na       6.64740297       6.15227761      61.41387362      25.67660252     -11.09486837     -21.23504134     -49.17457206     -36.81143526      47.55829085
Na       3.43704158       7.17488028      59.46770294      -0.67035218      -0.69501006       0.56130311       1.24443230      -1.65699825      -1.49364427
Na      14.32783980      10.66334739      60.77988978       0.62459820      -0.07841795       0.07603956      -0.02330664       0.04849914       0.04070206
Na      14.40476459       6.88483918      60.12256002       0.22312454      -0.40570118      -0.87470451       0.17388513       0.08698655       0.02803787
Na       3.63174503      10.62057743      56.58039741       0.10968417      -0.35050755      -0.12885713       0.44947203      -0.73271603      -1.83306929
Na      14.35790738      10.63469261      64.83234564      -0.06829689      -0.41962804      -0.92957381      -0.09948454       0.18857600      -0.10943103
Na       5.44786917       8.94536997      68.91906317      -4.49345419       0.38170582       2.41305882       0.51778888       0.21440848       0.11765547
Na       6.56573266       8.41976601      64.10874993      18.11260592      55.28480799     -17.26817696    -166.42249781     256.41313755      49.51917654
Na      14.27694298      10.73964955      68.92012538      -0.42920394      -0.25324529      -0.03148731      -0.01034323       0.00516245       0.00598423
Na      14.31685584       7.57919170      68.26983307      -0.18452156      -0.56686386      -0.01582221       0.00269414      -0.09792090       0.11932001
Na       2.73451336      12.72144386      66.06248419      -6.15543055      36.76635575      -4.89060032      28.80418323      -6.31557722      -2.13609366
Na       7.28550756       3.76621343      56.80028125       0.01243714      -0.15251234      -1.70332100      -0.01246795      -0.04967601      -0.15117541
Na      10.70421208      14.21799829      63.47578970      -0.64822416      -0.10020587       0.47222097      -0.00188916       0.23364895      -0.18795469
Na      10.77121822       0.14910847      59.62363858       0.06809450      -0.22990934       0.05834878       0.68644504      -1.19992793      -0.85169682
Na       7.15510879       3.59393819      60.43612374       0.23662846       0.03855850      -0.59879019       0.32444048      -0.43887591      -0.36897510
Na       7.15899064      14.04777075      60.15867899       0.26039568       0.10326231       0.32721389       0.68729048       0.46204109      -0.02241098
Na      11.64495423       4.37872732      70.76620323      -0.36365717       0.05492552      -0.30013641       0.57022151       0.14046431       0.35379780
Na       7.35007322       3.42479109      64.33714017      -2.89185445       5.49197285      -5.84594942     -24.79560361      36.99020362     -63.26805618
Na      11.18051815       0.21382491      70.33892048       0.32840207      -0.27226575       0.83076734       0.42084988      -0.36111627       0.29554971
Na      10.89446995      14.36510737      66.86021945       1.60803463       0.19558750       0.15060634      -0.05933729       0.04756892       0.13596707
Na       8.79815218       2.73771527      68.84938855     -10.16047017      -7.97563340       6.28830257    -189.83494733      25.15965139     -95.81274785
Na       6.83789844      15.91698387      67.61464205      32.12871646      21.53643194      19.76495010      21.05235438     -17.65580194      23.00254097
Na      10.91068898       3.74294429      63.73786793       3.15451427       0.14751817       0.97944424      57.84884842       6.47217203      28.44946841
Na       7.11112078      10.81717754      56.76702257       0.05590820       0.31156522       0.55399767       0.47185794      -0.11191775      -0.38169256
Na      10.96454948       7.07981923      62.89153088      -0.08423920      -0.46542386      -0.26508602       0.33111258      -0.09926258      -0.10914016
Na      10.76575024       7.27777045      59.58759053       0.11120793       0.08985425       0.51360379       0.23256087       0.00225916      -0.32354840
Na       7.19480223      10.74368882      60.36713294      -0.00745685      -0.85607060       0.27000118       1.38783567      -0.14097686      -0.08779285
Na       7.32669804       7.19774504      59.88180499       5.45218946       6.38908046     -10.74948554      27.32273234      42.04710565     -61.83032996
Na      10.74340171      10.86398321      56.60506304       0.07830564       0.60441698       0.08011019       0.09338495       0.00600356      -0.19545536
Na       5.00598408      10.37296503      63.03721695     -21.29995509       7.15571234     -33.01434632      24.11369862      50.15950570      45.64006095
Na      11.02507063       7.69854539      70.21509969      -0.25983049       0.51775060       0.21337245       0.28312226      -0.22806330      -0.23662535
Na      10.78039951       6.96140197      66.45515861       0.45634573      -0.44820553       0.95348734       1.15216526       0.17422986       1.10130586
Na       9.97322946      10.41083790      65.28427964      41.07918393      16.95464229      10.82880644     -49.57808027     -22.85482556     110.62909264
Na       6.32140655       6.78208841      67.21743963      -5.47596666       0.77021925       0.14179709       0.44083497      -0.77820651       0.63505660
Na      10.72045090      10.66932700      63.59862777      17.73165402       6.83579196     -28.96652679      51.01625442      17.83696963    -114.52934950
S        1.61059798       1.36379631      57.87699126       0.21027380       0.68474935      -0.06178574      -0.22558484      -0.18235472      -0.57632213
S        0.98052084       5.17183358      61.98554775     -15.95042214     -21.16272977      -1.11727512       1.14936010       1.22960205       3.56050981
S        5.72571021       5.94609908      57.68744643      -0.71535597       0.10770269       0.24241576      -0.31294339      -0.26754027       0.86471324
S        9.23603586       3.55540548      62.90712888      71.04064553      89.01066320      33.64833929     -56.95771396      -6.56549063     -28.50399187
S        5.17790255       2.37778369      58.70918172      -1.10025921       0.16394749       0.00041100      -0.20936026       0.20723592       0.40005152
S        4.76405277       4.68648834      61.11105593     -15.25034754     -21.90708602     -11.81990200      14.39238201      14.39503227      13.42634185
S        2.08517103       4.75109048      58.80682494       0.84301940      -0.20612960      -1.76731228      -0.29077928       0.31688577      -0.81322452
S        2.52473745       2.02764434      61.49065395       1.08033365      -1.72689749      -0.80377212       0.24933773      -0.36901914       0.28263989
S        1.39846532       0.60815162      64.92094049      -2.48546301     -13.81516878       4.44330716      11.05426471       5.60112005       8.43321862
S        3.31027344      12.15289898      59.54349570      42.10169022       9.56025774     -96.13149189     125.53139741     199.63379007      68.55447408
S        5.77876779       5.44902898      65.01426895      -0.92348709       0.18023400      -1.03954689      -0.14926990       0.75874979       0.69197818
S        7.11599858       1.20390063      70.48465308       0.11824282       1.78833678       0.65151862      -0.13230729      -0.43791857      -0.16998471
S        5.22219539       1.61185280      65.90731813     -26.77086243     -31.91038109     -19.15997381       0.53387234       1.09634610       0.06849637
S        6.12888407       5.10379912      69.76836378      18.31543078      -1.84233271      17.39156611      73.18248640     -48.92390106       6.74142954
S        1.44115789       4.76481280      66.35441492     -16.69286366      -6.50173366     -14.37864197       0.50868402       0.54183651       0.50246895
S        3.05030034       1.37422315      69.05212022      -1.07560935      -0.21283050      -0.76554598      -0.57760593       0.34570476       0.63557573
S        1.54263852       8.26914010      57.67729950       1.16688788       0.69276429       0.14075990      -0.52476461       0.15672459      -0.56285024
S        1.56208026      14.83241799      60.01809103      -8.03974134      49.60555727     -40.80027098      14.87855396      -2.56379086      -2.34544906
S        5.63308776      12.98898557      57.83721082       0.39830464      -0.71926130      -0.02256776      -0.33182835       0.36153259       0.08509008
S        6.18799255       8.78133240      62.13691634       3.15436470       2.53011619      -6.02180560      29.20884940      -2.30702303     -14.16442102
S        5.15016563       9.42636462      58.85353859       0.03206426       0.69722256      -0.05204579       0.28950302       0.16256468      -0.43645622
S        5.09382269      12.16729642      61.22324991      16.14386330      -1.05161358       4.00292053       7.61327915       0.13178337      10.82186946
S        2.00552806      11.82909284      58.47596308     -26.31196577      -7.87798674     -32.36730005    -163.52600489     -40.20310489    -133.65776713
S        2.14717292       9.18827215      60.19999896     -18.61530528       5.38928584     -50.80627825      -9.09114731      -5.33473986       3.66897444
S        2.05514239       7.23356773      61.51418023       1.77661051      -4.32036796     -36.06044980       1.15189727      -1.87585960       2.11445661
S      -10.02123192      23.27990098      67.70324737    -111.24078635      59.05544886     124.57057869      11.08301473     -35.46359470       8.79495359
S        6.48354910      11.38229494      66.13720442      37.99525884     -20.11405054       4.66677765      -0.64391461      -0.05218570       1.21967705
S        6.83455340       8.24546867      73.03391317      37.15836654     -24.67819430     -16.47467034      -5.36260908       3.04108203       2.22883738
S        4.16968486      10.90490831      67.80264723       6.96123627       8.65020587      21.72924404      13.40431305     -82.40726494     -13.80037067
S        7.05927246      12.66415089      68.18924596      30.53246739       3.55776203       4.44770981      -0.87440873      -0.16197996       0.34515704
S        5.51733419      15.59417055      66.02742241      38.35989150      15.30099088     -12.49364968     -31.10375376    -112.01054836     -44.60919954
S        7.89828439       2.53762304      65.85702011      75.25743134     -32.28826792     -62.35711920     -74.55402256     186.73060494      95.83774404
S        8.68303828       1.50282791      58.02488871       0.48593954       1.20263436       0.30582908       1.42043826       1.14258198      -2.56678387
S        8.37349914       5.81804231      62.37831436       4.11303915      -0.61807818       1.02387175      23.61241621      -6.78598983       7.54161466
S       12.94049168       5.97224724      57.92601145       0.21358247       0.32844498       0.12192824      -0.78793405      -0.43023702       0.07564910
S       13.12049178       1.50752142      62.73221899      -0.06368507       0.12924753       0.73308059      -0.00063442       0.06997507      -0.05078181
S       12.21056340       2.37583770      58.78982789      -0.35455913      -0.99432706       0.13789939       0.00070578       0.27296562      -0.16039847
S       12.10633903       5.03285865      61.32405285      -0.72039907      -0.17152431      -0.53464899      -0.05373778       0.64306071       0.53814338
S        9.19193776       4.90317630      58.75654234       0.08327976       0.53039356      -0.18760872      -0.46221640       0.39630261       0.67154402
S       10.02609000       1.97723353      61.11828968      50.03841687     -24.04435106     -46.18660696      -2.76331735      -5.67289992       3.72420869
S        8.55050334       1.01973096      65.64840723      13.13975697     -24.63394329      -4.78790001      98.09087024    -223.38319396     -29.60685440
S       10.03561442       5.68802164      72.39790844       3.75784331      -5.37853086       1.70622924       5.76441922      -5.49660130       0.61578890
S       12.66089750       5.87311895      64.87573981      -0.14411767      -0.30068361      -0.09339668      -0.42212795      -0.40647758       0.21031616
S       13.38950603       2.18508121      71.09006453       1.16752182       1.21512737       0.93284526       0.15758779      -0.14888219       0.04999202
S       12.45583210       2.27348439      66.60183032       1.18992511      -0.32774899       1.29062426       0.06403494      -0.06496081      -0.02877529
S       12.17373413       5.60070082      68.44142507       0.00067933       0.43036172       0.17949308      -0.14843783       0.14310314       0.13161539
S        9.38776306       4.61782804      66.11340181       0.24087983      -0.53591595      -0.03563920       0.04710259       0.57879428      -0.25195775
S       10.20686035       2.54359419      69.57013612      93.88219665     -15.92891072      52.77457233     186.97099992     -25.71160920      95.45043810
S        8.61311093       8.60496492      57.71474894       0.17363308       0.21942532      -0.20491384      -0.10744240      -0.25900763       0.35269924
S        8.22237570      12.57283800      62.60577788      -0.54419228      -1.53226001      -0.15520835      -0.06716064      -0.60813722      -0.53167563
S       12.91127625      13.08315534      57.83833216      -1.52886249      -0.25411778       0.06263937      -0.21337921      -0.06370077       0.11323191
S       13.02021328       8.88871887      62.69439631      -1.28522249      -0.93664631       0.22068002      -0.10759156       0.10692316       0.01632193
S       12.29631797       9.63896626      58.83761552      -0.18488761       0.03007745      -0.57611782      -0.18403204      -0.27380304       0.23827052
S       11.86583241      12.29322998      61.62455196      -0.09622754       0.08477378      -0.66951316       0.05012913      -0.22622869      -0.07845067
S        9.29300526      11.99718450      58.86745631       0.04864941       0.06851286       0.14341037      -0.28655628       0.06362219       0.01084701
S        9.43367453       9.13495891      61.48914972      -0.02454467       0.38156028       0.41812272       0.10242451      -0.17069377       0.13742766
S        8.91636775       7.36833192      64.97494877      15.04772501     -48.50098622     -10.80931517      23.96461181       7.07409820      17.61560595
S        7.50419956      13.55939500      70.92221343      -2.78975735      -0.23828088       3.23035710       0.84879495      -1.38291699      -1.64086232
S       12.85816218      13.02792458      65.18193930       0.30030642       0.65971152       0.18216292       0.05164308      -0.04470597      -0.01988961
S       13.18989438       9.04836194      71.06476698       0.82382585       0.85364492       0.06053363       0.00551411       0.50417481      -0.18748152
S       12.00712497       9.39296595      66.96911057       0.46407938       0.59360730       0.15188140       0.13130424       0.00570010      -0.22758478
S       11.96846723      12.55085956      69.14146319       0.50130550       1.05332812       0.60398160       0.23166452       0.02079656       0.23625054
S        9.55102141      12.12810335      66.45276151       1.61578872       1.36265342      -2.56875586      -1.54633184       4.89903513       2.84167921
S        9.14620086       9.32316084      69.51316656       1.84518442      -0.73615536      -0.75547281      -0.25664399       0.84450535      -0.74897175
Sb       0.58653837       0.96178154      71.72425033       2.49163237       2.41555039       0.20487597       1.22052687       0.37501214       0.41458101
Sb       3.64136887       3.58453968      60.13584635      -3.68907067      -2.98854915      -2.44834477     -14.45675151     -15.29459127     -13.00092642
Sb       0.12956689      14.48256110      63.92698063       4.83087173      10.87522260      -6.64035769       2.19700817      -1.24981064       0.67716014
Sb       3.48413388       3.47785339      68.02527905     -21.48490680     -33.36362393      12.38154433       0.29401704       0.56145603      -1.01324910
Sb       0.05042112       7.03614867      56.43035820       1.50810778      -0.60559510      -2.41693854       5.02761951       3.60222025      -5.55582283
Sb       3.56273366      10.70726171      60.02710909      19.13406433     -49.23645243      -3.51048732      38.88154873    -151.21986051      50.80352729
Sb       0.25844079       7.34717794      63.45682360       4.71390033      13.25214340      -7.13336158       1.06880186      -2.86812741       2.82932151
Sb      -1.24922145       9.15647719      68.17536170    -178.38472096      -1.03031648      35.33989581      -0.61983502       0.63438096      -0.97376435
Sb       7.10944691      14.34454049      56.52201880       0.50446097       0.36833076      -1.65290311       0.42205078      -0.29776650      -0.62852651
Sb      10.68446552       3.69407916      60.10518207       2.08119999       0.31080683      -1.11925926       3.46831401       4.90568133      -4.46240155
Sb       7.17418484      -0.24089943      64.17085385      -0.90120510      -0.13276500      -0.03574445      -1.72197561      -1.80143771      -2.23487551
Sb      10.93211587       3.74252403      67.60934551       2.14188262      -0.43236148       0.51767655       2.82574325       0.29438846       0.02855920
Sb       7.12006070       7.29386309      56.38161366       0.27237994      -0.82288852      -0.54450855       1.05500676       0.05171015      -0.45611896
Sb      10.75099940      10.74475602      60.22946016       1.14138936      -0.86577454       0.15608529       0.00673061       0.20098318      -0.25025882
Sb       7.44293834       7.07542136      63.94106743     108.04986749     -71.75239235      -0.20203532     145.88533026    -262.28158424     -43.83645120
Sb      10.53555831      10.89386587      68.15571598      -1.23429800       0.38840071       2.38801449       0.03902198      -0.89192916       1.05988351
Na      13.99186313      17.96501598      28.13718749       0.28514776       0.56279232       0.32780202      -0.16553207       0.02117335      -0.08874864
Na       3.42417556      28.84041370      33.76089350      -0.28459377      -0.01905259      -0.19063679       0.17870323       0.15398371      -0.10955801
Na       3.80964590      14.43249117      28.94477626      -0.24610393      -0.18472860       0.29380315      -0.01771219      -0.08158177      -0.08562221
Na       0.05878722      17.33461195      31.47729294       0.63765804      -0.57857178       0.03090629      -0.06032179       0.08965432      -0.06827345
Na      14.37101870      28.51533731      28.61464474      -0.14648577      -0.26543409      -0.47183108      -0.02381897      -0.03864785      -0.15909229
Na       3.45571564      17.73499239      27.64863868       0.64121529      -0.03763222      -0.18369330       0.09055394      -0.10171600      -0.08188716
Na       0.50591142      18.01349918      34.91758538      -0.67335116      -0.90606142       0.51131026      -0.00324336      -0.14377699       0.13107482
Na       3.62037955      14.41716613      41.42121057       0.06485942      -0.26161212       0.71862284      -0.13849656      -0.01367030       0.08811125
Na       3.60485692      14.16945347      37.88141991       0.47453240       0.31088580       0.32856185      -0.12160100       0.09854102      -0.05113384
Na       0.11426641      18.11198540      38.73868819      -0.40662175      -0.98651246      -0.47952661      -0.08137684      -0.12792716       0.02969439
Na      -0.06461856      14.53547615      38.46782721       0.07599946       0.38224883       0.47585725       0.00646373      -0.06221830      -0.01492652
Na       4.04530085      17.71132366      34.96310685      -0.53401654      -0.07533976      -0.33075995      -0.01626983       0.09181455       0.06509774
Na      14.22154130      24.91336608      28.38517413       0.67747017      -0.71382721      -0.09914616      -0.00778870       0.06092338      -0.15851007
Na       3.62453079      21.58076100      34.44263757       0.32263796      -0.12046777       0.17285253      -0.14458137      -0.15651413      -0.07182001
Na       3.34969775      21.88570553      30.76693137      -0.32587867       0.88825573       1.38615961       0.08188459      -0.12829094       0.01730419
Na      14.36051971      25.40968987      31.86996319      -0.50683593       0.33863254      -0.03577952      -0.06415037      -0.07841793       0.03821491
Na      14.46868724      21.31367276      30.93728377       0.85175882      -0.40328248      -0.15218025      -0.17872060       0.06993274       0.03206808
Na       3.58373029      24.61611872      27.64328151      -0.43948645       0.28549145      -0.67280563       0.15742799       0.14920806       0.08040082
Na      14.35352172      25.14213691      35.47561339       0.30244747       0.28092911      -0.05196771       0.06371759       0.06354351      -0.04739824
Na       3.60933840      21.65066113      41.71283246      -0.45195765      -0.02916911      -0.11791038      -0.00351003      -0.08775038      -0.00219812
Na       3.62209190      21.52332135      38.02335440      -0.73937679       0.01752810      -0.00064490      -0.00582244      -0.13824571      -0.01763952
Na      14.36949259      25.36392143      39.19368647       0.18406969      -0.73016817      -0.09428277      -0.27014600      -0.22385609      -0.21793340
Na      14.01629655      21.63954878      38.39894316       0.05288900      -0.07913213       0.30174470       0.13849895       0.00341517       0.01674984
Na       3.58071089      25.39466228      34.81431111       0.24852432       0.17476628       0.65818004      -0.00990110      -0.03708692       0.01266796
Na       7.13834530      17.84253173      27.99326819      -0.18912746      -0.27757435      -0.18489382       0.08173514       0.16767934       0.06111972
Na      10.76127446      28.77178347      33.50296898      -0.31958541      -0.43078155      -0.85886095       0.01082807      -0.07761834      -0.03103064
Na      10.76199321      14.27560676      28.64050675      -0.72461919      -0.40115933      -0.87380841      -0.18716342      -0.13365533       0.02408129
Na       7.15860738      18.14048883      31.76874314       0.57753294      -0.45618937       0.53029276      -0.03686189      -0.17740491      -0.04409665
Na       7.12718684      28.80559064      31.02424568      -0.18111551      -0.29026971       0.09404444      -0.06059731       0.01738373       0.02519628
Na      10.82514659      18.13801933      42.01105873      -0.03881649      -0.31609690       0.80360510      -0.05315740       0.01573782      -0.00785541
Na       7.39116949      17.89824797      35.40677970       0.70226637       1.03257928      -0.23873156      -0.02067890      -0.10538811      -0.07882710
Na      10.73593073      14.45619822      41.37098551      -0.30128442      -0.34728398       0.82798673       0.05536735      -0.00518388       0.07373556
Na      10.93503467      28.76657619      37.69711093       0.02179049      -0.13323897      -0.03552674      -0.19981248       0.04966178       0.00245140
Na       7.29040100      18.02772217      38.80387664       0.21341637       0.67075497       0.10174110      -0.09687633      -0.00046647       0.08843806
Na       7.34504659      28.70623093      38.49278433      -0.51628948       0.32248416       0.09937185      -0.00092372      -0.01520479      -0.07671820
Na      10.90055938      18.06732326      34.62431727      -0.59588879       0.49371745       0.35099536      -0.02198872       0.00516042       0.03847966
Na       6.97781866      25.09449952      28.16227054       0.37663337       0.26756518      -0.26317841       0.14172069       0.02176510       0.01258186
Na      10.64059073      21.60832046      33.87630869      -0.03481167      -0.16233743      -0.16493577       0.23921079       0.13086768       0.03514299
Na      10.78576132      21.28368907      29.92183194      -0.23283292      -0.65570891       0.10979957       0.31248240       0.44152562       0.06840066
Na       6.94860452      25.18173067      31.85157606      -0.65635883       0.35805640       0.45023133       0.14974820      -0.05962710       0.02936033
Na       7.44160325      21.46389884      30.94435613       0.57407441      -0.04090725       0.00913840      -0.14352544       0.03404618       0.05193902
Na      10.85638365      25.04030406      27.56926314       0.48196988       0.35848766       0.36328713      -0.15326433       0.28347889      -0.21944615
Na       7.24438573      25.10484097      35.34971465       0.22321185       0.42615054       0.19777690      -0.04157206      -0.07390512       0.05800037
Na      10.75603365      21.63780651      41.37135878       0.60225659      -0.36768742      -0.07847713      -0.04463945      -0.06986723      -0.02727647
Na      10.76515643      21.57972504      37.57091091      -0.86693322      -0.31949992       0.03688630      -0.00299309       0.07511146       0.08386114
Na       7.18189734      25.18625572      39.10071153      -0.16950921      -0.67692820      -0.27159962       0.00991732      -0.02790103      -0.11035367
Na       7.31084739      21.77422924      38.44512560       0.08239316       0.65362968       0.62255625      -0.03275365      -0.07664822      -0.03527742
Na      10.87073778      25.27901334      34.75825860       0.52530030       0.41872167      -0.60784080       0.09262659      -0.02522125      -0.09188074
S        1.74497203      15.73643804      27.82347536       0.30252428      -0.14939442      -0.65202531      -0.07567073       0.39845878      -0.04633295
S        1.30953327      20.16168655      33.27953414      -1.08788777       0.75650530      -0.36292105      -0.11205053       0.22059550      -0.03503843
S        5.49127352      19.22621912      26.18688994       0.26972305      -0.61436665      -0.27427152       0.10022355       0.06638759       0.02550453
S        6.01147784      15.89834517      33.57626035       0.64506125       0.16220656       0.61753452       0.18178788      -0.07022527       0.04547472
S        5.19436688      16.82200229      29.76315257       0.52282847       0.02658316      -0.10647300       0.19452581      -0.04749142      -0.05674030
S        4.98132510      19.84459639      32.04305520      -0.14586420      -0.50640397      -0.04851729      -0.17489474       0.13587636      -0.20574667
S        1.89468444      19.19737136      29.66576284      -0.87920586       0.55614015       0.37739101      -0.10841382       0.04613207       0.33482364
S        2.60302399      16.90491857      32.69012208       0.28530156       0.41155053       0.22892294      -0.24364910      -0.09110579      -0.09138789
S        1.50166934      15.50740625      36.20192613       0.92120276       0.29776152       0.03394125      -0.12068510      -0.04671889      -0.35425502
S        1.30888263      20.11177780      40.64421786       0.60813218      -0.15014330       0.94697785      -0.00377473       0.01432989       0.32769629
S        5.71198508      20.17931934      36.14986407       0.18300787       0.17343045      -0.60448723      -0.11334354      -0.10808597       0.06193278
S        5.97662169      15.75278833      40.74892099      -0.10468456      -0.00456940      -0.86780101      -0.21650629       0.36143772      -0.37238222
S        5.22136247      16.53749123      37.32597073      -0.23418544       0.06340850       0.45275485       0.11321294       0.16991377      -0.25469680
S        4.87833729      19.42950121      39.77943255      -0.02470499      -0.10132812       0.11624638       0.30261343       0.40280655       0.27485201
S        2.28797952      19.09309087      37.03010437      -0.08829261      -0.84957537      -0.52073530       0.01266687       0.14971841      -0.11445198
S        2.34582328      16.46491082      39.79881708       0.18142625      -0.66430597       0.44924601       0.04132157       0.22976762      -0.08187160
S        1.84102184      22.75085365      28.49614086       0.85990169       0.85554646       0.78394768      -0.07591431      -0.09475879      -0.03002908
S        1.26540011      27.05971517      33.40575399       0.00021433      -0.13378373       0.52699743       0.16824167      -0.06533405       0.07361150
S        5.35165351      26.86644871      26.74925680      -0.17608199      -0.06524994      -0.54431712      -0.03196198       0.07416836      -0.08024998
S        5.82010219      23.00287135      33.53896639      -0.26895287       0.13688603      -0.25969345       0.27792930      -0.26735688       0.16642734
S        5.19770052      23.97308642      29.83248832       0.43159668       0.01564539       0.09988804      -0.06278995      -0.13492886      -0.02745842
S        4.80730831      27.05100037      32.02549973       0.57525129       1.32191203      -0.14044909       0.20845327      -0.03872311       0.01585677
S        2.08968653      26.37290961      29.35143310       0.33428341      -0.53819136       0.19647248       0.00393027       0.01882089      -0.00276563
S        2.32723123      24.04299803      32.36201558      -0.15262665       0.34956136      -0.87079392      -0.02765761      -0.39817042       0.30409351
S        1.54217426      22.66603687      36.08899641       0.48115479      -0.01452353       0.65678018      -0.05961559       0.11182552       0.14816750
S        1.31247695      27.07905963      40.72833315      -0.32838164       0.59972364       0.28348886      -0.29523148       0.21445419       0.37220167
S        5.67551955      27.40591326      35.95998427       1.59160774      -0.21566895      -0.03557892      -0.18991066      -0.21892650       0.22553252
S        5.93081551      22.99083620      40.71537161       0.50053991      -0.06753632      -0.01919866       0.44883627      -0.50469046       0.22348530
S        5.16439316      23.86468836      37.23622597      -1.06212949      -0.13037722       0.81300221       0.10846665      -0.11656776      -0.38990456
S        4.80386160      26.41589811      40.01986390      -0.49341633      -0.52209668      -0.04706868      -0.08175649      -0.04616937      -0.24016890
S        2.03060341      26.21189856      37.27842866       0.45101648      -0.82494943       0.23911794       0.12189279       0.11484868      -0.27024017
S        2.37231196      23.42006263      39.81362664      -0.48514159      -0.26788584       0.68182458      -0.19527923      -0.05542544      -0.05898228
S        7.69754930      15.14509176      28.14397740      -0.33181449       0.30159704      -0.75897480       0.26759091       0.00981989       0.33830377
S        8.47669871      19.98992783      33.44179207       0.63147150      -0.00300027      -0.05457885      -0.36064085       0.03232068       0.08116067
S       13.59046079      20.72841579      28.00015615       0.85692567      -0.22880833      -0.25587754      -0.08162394      -0.25064162      -0.05343482
S       12.91579629      15.77638118      33.42745264      -1.80493062       1.00765258       0.68649345       0.30795775       0.37163079      -0.23712540
S       12.12398357      16.58930692      29.52993927      -0.68726921      -0.35254471      -1.20742151      -0.26396324       0.30888414       0.33363389
S       11.99678115      19.59354427      32.03471230       0.86014347      -1.16422854      -1.14612219      -0.13038342      -0.57704656      -0.30575288
S        9.16795770      19.29512575      29.50820677       0.41277284       0.47747039      -0.52799253      -0.25995563      -0.45278329       0.09046295
S        9.37237022      16.55265706      32.32036357       0.34572291      -0.02320522       0.83332593       0.42881374       0.44480495      -0.33050047
S        8.77114258      15.52914470      36.21654235      -0.24094543      -0.40109441       1.20463679       0.07366588       0.15697562       0.02844056
S        8.44911959      19.86006813      40.74904256      -0.84060352       0.42873208       1.10411499      -0.07313519       0.58215583       0.13142330
S       12.67739926      20.38907904      35.92272984       0.49050753      -0.73487377      -0.01039893      -0.11463048      -0.26272184      -0.00506564
S       13.19878851      15.76477386      40.55886101       0.00321594       0.42400625       0.02145932      -0.13019426      -0.08818572      -0.07027012
S       12.33036381      16.68895514      37.04019457       0.66622921       0.12723513      -0.25344251      -0.23216063       0.28246613       0.13739438
S       12.17205231      19.53209784      39.67487580       0.02258406       0.15185369       0.01539070      -0.50890080      -0.48267588      -0.46978969
S        9.33142437      19.21369365      36.94329173       0.44514433      -0.34700561      -0.54429836       0.34264968      -0.32172374       0.45806144
S        9.57737007      16.65014969      39.84314385      -0.87567675       0.50032072      -0.26560834      -0.06460462      -0.23220628      -0.07580266
S        7.42123314      22.18410675      28.06004841       0.66956505      -1.67465871      -1.40905615      -0.13099610      -0.14128701      -0.40386806
S        8.42622025      27.24286717      33.36242504       0.43418061      -0.09812144      -0.14813275       0.15806964      -0.39733136      -0.20831215
S       12.64143120      26.91038716      27.28360916       0.34212076      -1.42035771      -1.64316998       0.11078489       0.18258319      -0.05941713
S       12.98123831      23.31153122      33.43948611       0.34195297       0.31655413       0.26733925       0.22894507      -0.17048121       0.22855870
S       11.97922110      23.76333139      29.52601500       0.58064026       0.22482168      -0.10769413       0.24279210      -0.57027923       0.21920842
S       11.84879396      26.49785215      32.20672020      -0.00884421      -0.08010577      -0.03307625       0.01622488      -0.04098950       0.03289079
S        9.12369327      26.36498431      29.53756269       0.01453019      -1.26436400      -0.95713248      -0.32559144       0.04565050      -0.17555494
S        9.27368398      23.44212303      32.07162464       0.18628514       0.11363173      -1.09019258      -0.01535521       0.24461972      -0.07197634
S        8.71041987      22.77718675      35.99533809      -0.69599958      -0.15536910      -0.61586119      -0.25599283      -0.14050170      -0.09816015
S        8.63936756      27.13388065      40.75637461       0.01162348       0.62957993      -0.69477890      -0.52035110       0.10193250       0.04698902
S       12.76552629      27.47055332      36.00383139       0.29270436       0.87897409      -0.92105863       0.12418762       0.08328736      -0.19656744
S       13.07193083      23.16347313      40.78885891      -0.53099782       0.04494813       0.88688616      -0.16305225       0.20721937      -0.11070638
S       12.43976209      23.99749035      37.19818190      -1.04773325       0.21628146      -0.44724681      -0.18789028       0.01742155      -0.07918398
S       11.87251197      26.77622889      39.70146463       0.40491938       0.68797967       0.23348488       0.20091449      -0.06600139       0.02516911
S        9.29272819      26.46227910      36.96346241       0.04422133      -0.77304295      -0.32035418       0.00658977      -0.18179489       0.03900448
S        9.54268098      23.56970536      39.47244497       0.38990578       1.53644016      -0.37332260      -0.22034651      -0.02914829       0.47683601
Sb       0.03888613      14.35136177      42.07739173       2.36005703       0.30341752       0.68407423      -0.46260629       0.21514052      -0.70213985
Sb       3.67451305      18.15061374      31.01837467       0.97296267       0.17924528      -0.11041381       0.21108038       0.09561340       0.11826796
Sb       0.05236969      28.58186040      34.69253672      -1.08656170       2.21414273       1.15642922      -0.64913734       0.06561305       0.23125147
Sb       3.70040745      17.91569189      38.49367110       0.31572396       0.68212256       2.66087990      -0.39569775      -0.77614415      -0.12839352
Sb       1.57706811      20.58908752      27.48171922       2.35661866       0.53707093       1.97337615       0.42488283       0.40312324      -0.11468367
Sb       3.59644018      25.37038866      30.93905603       0.18513176      -0.77940995      -0.18322491       0.05836824       0.50182370      -0.39257393
Sb       0.00638892      21.51202943      34.71633130       0.48452487      -0.88131338      -1.15538633       0.11471949      -0.43845666      -0.12307082
Sb       3.59101353      24.98531763      38.54569880       0.82595993       2.40903974      -0.92732103       0.21974664       0.45154915       0.57787649
Sb       6.77051303      28.72067584      26.11040752      -0.56071769      -1.58436872      -0.73567053       0.03130402      -0.16853925       0.21927307
Sb      10.66755262      17.98276542      30.85455045      -1.74907270      -0.24359733      -0.83231725       0.00638984      -0.39261705      -0.05287482
Sb       7.24517934      14.34252723      34.90760989      -2.13532313       1.63979695      -1.62148589      -0.87842178       0.35390045       0.10075205
Sb      10.83335715      17.98099726      38.36845381       1.77849705       0.24308959       0.62647970       0.39905719       0.70722618      -0.08110183
Sb       6.72377569      21.28672576      25.93114607      -0.59997380      -0.95111478      -1.90187603       0.07312795       0.02521820       0.41984974
Sb      10.55092991      25.06029854      30.89640159      -0.34901793      -1.69929892      -1.94564176       0.16211042      -0.27375704       0.17072452
Sb       7.14470976      21.43393087      34.79751638      -0.42813472       0.51642307      -0.98112077       0.33334709       0.77130692      -0.55831633
Sb      10.76460719      25.22002890      38.32030909      -0.29569665      -0.00184927      -1.30367118       0.23722405      -0.10643493      -0.06954717
Na      14.29140498      17.97876743      42.20099573      -0.14450158       0.10654107       0.08732542       0.03193246      -0.04553558       0.11372961
Na       3.57053475      28.63999321      48.75184952       0.10276480       0.29216067       0.43535830       0.18659004       0.04922405       0.04402294
Na       3.54103377      14.33198452      45.05314160      -0.48740907       0.81504168      -0.21312882       0.02478169      -0.06364140       0.01371068
Na      -0.15631958      18.19124151      46.00807484       0.56690865       0.38107319      -0.14053019       0.32647908      -0.11178954       0.03486560
Na      14.21215594      28.44247091      45.67265630      -0.10602461       0.27498079       0.34545445       0.03956019       0.08223555       0.02328324
Na       3.56334950      18.15930299      41.97629558      -0.15473921       0.24822490      -0.23261497      -0.05773606      -0.15584275       0.12485754
Na       0.17761415      17.86476043      49.64997938      -0.84113681       0.33393396       0.20102684      -0.09038798       0.08780509      -0.04299320
Na       3.53055942      14.52817610      55.95396465       0.71791455       0.22894793       0.19012797       0.24409415       0.30028448      -0.73276387
Na       3.47727918      14.31383295      52.41538619      -0.64592429      -0.27218559       0.07988196       0.00156488       0.00355864      -0.15561492
Na       0.03575947      17.97540930      53.27142218      -0.44069473      -0.35606990      -0.56332537      -0.02207095       0.14706480      -0.02122638
Na      -0.11355626      14.54726586      52.98747971      -0.09662010      -0.54424461      -0.49686927       0.01710466      -0.07298566      -0.26182073
Na       3.67399828      17.89648396      49.15090999      -0.30761206      -0.25236223      -0.59552036      -0.09371592      -0.03103026       0.19970503
Na      14.38034684      25.08124960      42.70517145       0.17341623       0.52488365      -0.22772693      -0.11778747       0.00281350      -0.10777947
Na       3.58974897      21.53914494      48.91884185      -0.79028424       0.41664579      -0.21212510      -0.10656468      -0.12616571       0.11687342
Na       3.48946584      21.39906554      45.44530700      -0.10394784      -0.37056353       0.32016127      -0.03980868       0.07765401      -0.07902542
Na      14.43581189      24.98311013      46.15362177      -0.57585306       0.94840165      -0.31272532      -0.14326107      -0.02064962       0.04946834
Na      14.17073209      21.35898044      45.54304301       0.24401599      -0.08325431       0.19117079      -0.06558643      -0.01899642       0.01500408
Na       3.24227904      24.91104608      42.17463715      -0.35339536      -0.19773001      -0.96820604      -0.00501948       0.23890280      -0.12250372
Na      14.28231286      25.01713629      49.77205741       0.07951206      -0.41509508      -0.35012644      -0.00091280       0.07209411      -0.12014508
Na       3.58968849      21.62284732      56.15551557      -0.14452540      -0.17295324      -0.32951958      -0.17987854       0.01336471      -0.00347723
Na       3.24174849      21.54754333      52.66963053      -0.00878971       0.16919582       0.25958898       0.14827101      -0.12563453      -0.13015998
Na      14.30223444      25.31793363      53.32153497      -0.17212495      -0.13886537      -0.37191036       0.14335760      -0.04782035      -0.06162241
Na      13.86500144      21.71186548      52.88933935       0.03492116      -0.05776206       0.46182932       0.09486533      -0.06640462      -0.27927267
Na       3.39451037      25.17920296      49.33422293      -0.54445202       0.34555393      -0.08246653       0.06589682       0.00305877      -0.05512389
Na       7.04813662      17.98190282      42.43573494       0.27059995       0.16938352      -0.96057912       0.15336228      -0.36638854      -0.02138710
Na      10.57039919      28.90383830      48.84531666       0.13544864       0.02028695       0.19560996       0.43679090      -0.26051424      -0.21288041
Na      10.76181893      14.34302469      44.93790861      -0.21809804      -0.07458203      -0.10645240       0.00671304       0.04679030       0.16307304
Na       7.17246898      17.48244985      46.07017291      -0.18605008       0.13412839      -0.16995398       0.19536458       0.08800387      -0.02225751
Na       7.16985133      28.70680164      45.64818446       0.06055273      -0.18208288      -0.08776103      -0.00041737      -0.01466848       0.10400116
Na      10.63456590      18.13812613      56.49575834       0.73431725      -0.25307917      -0.27363266       0.14051903       0.02610096      -0.09049958
Na       6.99941168      17.87571307      49.69344269      -0.26407226       0.03158881      -0.09586785       0.11409761       0.16597553       0.06520932
Na      10.81161091      14.51277505      56.14145887       0.35767130       0.20168317       0.20440415      -0.09366155      -0.06181858      -0.13266749
Na      10.79628226      28.84467005      52.43341894       0.07912080       0.41538327      -0.63410276       0.09121020      -0.02959620      -0.00715109
Na       7.28929580      18.11989807      53.32550655      -0.08321464      -0.56471307      -0.31336700      -0.20723301      -0.17114123      -0.07880976
Na       7.44011653      29.02017198      52.93847445      -0.58987139       0.55305470      -0.64644951      -0.12573723      -0.02652514       0.04624726
Na      10.89397719      17.91918940      49.22064406       0.62585477      -0.58787715       0.41977941      -0.05975084       0.12794403      -0.00636834
Na       6.84415572      24.99196742      42.46332684      -0.02791618       0.54313054       0.29159170       0.08281110       0.10927425       0.06926257
Na      10.78225263      21.58355846      48.58543691      -0.77630372      -0.41589762      -0.58963383       0.13523028      -0.24014625       0.10350939
Na      10.67695953      21.55855648      45.00222018       0.02245005      -0.17333006      -0.46402919      -0.00604021      -0.22563937       0.08594679
Na       7.07322975      24.72392521      45.83553086      -0.60633541       0.05292955       0.33920065       0.21635639       0.00279774       0.06249690
Na       7.04711869      20.91575528      45.63143422      -0.03661119       0.45181590       0.27809734       0.10502210       0.08811319       0.13319927
Na      10.50117456      25.26291675      41.89072142       0.64661059      -0.14485601      -0.30813349       0.19414082      -0.09596700       0.15770695
Na       6.96660604      25.07143465      49.40183690       0.03727258      -0.55849673       0.62105057      -0.02579717       0.05684914      -0.01889741
Na      10.60564488      21.84626894      55.96735270       0.23158568      -0.05054706      -0.39735620       0.42750088      -0.35872094      -0.10499192
Na      10.48535040      21.72337213      52.26495812      -0.11214995       0.84357098       0.21041219       0.00882602      -0.28168200      -0.10807634
Na       7.04494692      25.29725403      53.16895312      -0.34113699       0.58719723      -0.48076326       0.26142043       0.00702920      -0.57256988
Na       7.00651820      21.64932271      52.91351729       0.85421479      -0.07764627      -0.25247242      -0.02461420      -0.15883284      -0.29521001
Na      10.56581904      25.21951165      49.27393174      -0.47261632       0.36190529      -0.39139649       0.01680169       0.05213051       0.01481050
S        1.54137048      15.62748605      43.35840292      -0.01012445       0.33863446       0.18147741       0.03612214      -0.08241326       0.05909888
S        1.26210532      20.01112039      47.89977551      -0.14914698      -0.05287251       0.00617192      -0.17984304       0.42929951       0.17084592
S        5.61487250      20.18312899      43.23443657       0.33258912      -0.58517628      -0.54623294      -0.56479347      -0.25895258       0.70345373
S        5.80815516      15.86288579      47.96614667       0.31027078       0.51255388      -0.57292735       0.20850111      -0.08844390      -0.02112362
S        5.06648566      16.63329764      44.25212435       0.04393753       0.26991475       1.55510916      -0.21138284      -0.01159655       0.11907122
S        4.89672659      19.29514760      46.94525527      -0.06584236       0.36623719       0.60978484       0.15207231       0.19872047       0.28422505
S        2.14948214      19.17332358      44.32402851       0.71058755       0.10592012       0.04869830      -0.01701656      -0.15096171       0.05955258
S        2.26260012      16.42997048      47.01726153      -0.04731287       0.33267076       0.11280911      -0.03365332      -0.10184828       0.03796682
S        1.40598446      15.58094222      50.58601855       0.86507509       0.70393150       0.10372085       0.29914774       0.00512647       0.31738042
S        1.22746082      20.14196079      55.05201812      -0.55667142      -0.18235565      -0.49535866       0.05958682      -0.01344612       0.26122600
S        5.61048169      20.30344605      50.74196337       0.18359560       0.45446869      -0.10862335       0.12971637       0.02101018      -0.14743450
S        5.91878705      15.92986537      55.24345589      -0.74139393      -0.48565366      -0.18379989      -0.10663939      -0.05882683      -0.00565199
S        5.03801899      16.61172065      51.52609678       0.06676626      -1.38432498       0.31480432       0.06898413      -0.03598579       0.10139622
S        4.76213961      19.46278715      54.20229855       0.34470512       0.86500994      -0.79316437       0.31861478       0.05945602       0.24031679
S        2.14014931      19.20348061      51.52401119       0.69807756      -0.23382835      -0.43021645      -0.07067507      -0.18155983      -0.18709266
S        2.25708369      16.56659635      54.24497879       0.26172407       0.35086680       0.11884178      -0.00272559      -0.38222642       0.30632974
S        1.34486128      22.82726319      43.56761772      -0.12547131      -0.33195715      -0.93719307       0.10252899      -0.40497472      -0.19653670
S        1.29701527      27.15017028      47.94348848       0.28200492       0.46181453       0.41624674       0.09759348      -0.18087541       0.01481781
S        5.75692377      27.44968207      43.52048911      -0.10486386       0.83313487       0.30474507       0.11252654      -0.14151254      -0.21208276
S        5.83392855      22.76178495      47.84192651      -0.60168786       0.19092613       0.64464617       0.20928109       0.12849281      -0.10576261
S        4.90201243      23.72986763      44.23022955      -0.55735359      -0.60457674       0.40331693       0.04167447      -0.19186208      -0.07491968
S        4.98614038      26.42423303      46.90547285      -1.11797604       0.06548150       0.68502586      -0.04956629       0.15498635       0.33377711
S        2.02294632      26.30766096      44.45438578       0.27695616       0.37483030      -0.51474777      -0.11829641       0.04604992      -0.12849933
S        2.36710230      23.57411055      47.08765870       0.28430671      -0.19375699      -0.08387765      -0.18176560      -0.14003813       0.22329968
S        1.48581260      22.71303973      50.70379579      -0.27364720       0.18305865       0.41892037      -0.11938930       0.07903623      -0.14226796
S        1.30849965      27.30944380      55.02925757       0.09011986      -0.66164139      -0.95207925      -0.20586976       0.01401007       0.46410713
S        5.72439142      27.41972388      50.64227294       0.18803219       0.48112211       0.26144001       0.02680594       0.02636822       0.22069216
S        5.95364321      22.95843306      55.13653206       0.76165790       0.95747343      -0.49002077      -0.89318917       0.53913967      -0.86857000
S        4.93146733      23.93251356      51.49262654       0.71835496      -0.84913780       0.48113779       0.23389599      -0.16290050       0.16244624
S        4.89196428      26.52778862      54.35062248       0.11116132       0.32409624       0.14986300       0.20589812       0.31829318       0.19535786
S        2.01715359      26.40103807      51.72898694       0.30177206       0.14772019       0.12746103       0.24142319       0.05279204      -0.18398317
S        2.26853123      23.66348642      54.29385904      -0.88493250      -0.79816774       0.60068846       0.36885343       0.03210711       0.18332702
S        8.49365805      15.65275534      43.54072621      -0.27349350      -0.92624474      -0.38293359       0.13527788      -0.21976338      -0.20703812
S        8.42765289      19.86082164      48.11846941      -0.80309112      -0.02857322      -0.12579210      -0.12059126       0.34740922      -0.09169084
S       12.70889722      20.23708155      43.20253423      -0.18616223       0.18119161      -0.66896582       0.06180697       0.04315801       0.14986205
S       13.22694269      15.70952655      47.81976337      -0.85697402       0.14890177      -0.15953866       0.11151824       0.17916406       0.18460521
S       12.35542788      16.61400348      44.34110749       0.27626329       0.03980124      -0.32789083       0.04908823       0.13420927      -0.48794632
S       12.15234196      19.50657313      46.78756156       0.52415559      -0.07097661       0.80514861      -0.28844275      -0.10189688       0.05418237
S        9.19344073      19.03267514      44.34015950      -1.23787922      -0.27238581      -0.10952596      -0.03788541       0.26075684      -0.11924595
S        9.77397738      16.43254553      47.02889903      -0.29635344       0.62662927       0.07310657      -0.34878224      -0.04106700       0.11982451
S        8.66076900      15.68985212      50.56521154      -0.47859978      -1.17032881      -0.47983362       0.13945106       0.09785352       0.19242600
S        8.37688864      19.96154081      55.23202959       0.29639923      -0.80179020       0.71072887       0.32645231       0.38464313      -0.15722917
S       12.70469162      20.26232391      50.40944372       0.30420652       0.32973047       0.39050313       0.51647723       0.17670523      -0.18200513
S       13.08130811      15.85351902      55.15679418       0.33273610      -0.50550239      -0.68058864       0.14428030      -0.04385123       0.02914957
S       12.26823716      16.79039461      51.61059463       0.37099257       0.10639552      -0.82418256       0.26026978      -0.17083340      -0.32929728
S       11.96445823      19.69137082      54.07730823      -0.04771435       0.15874662       0.62841654       0.20345519       0.48374924       0.43918806
S        9.18955550      19.16060045      51.41639924       0.02704081      -0.64753384       0.05067528       0.24553359       0.15153139       0.27459375
S        9.65556238      16.60929192      54.27095878       0.56442520       0.03525122      -0.65072524      -0.22185147       0.20444238      -0.05735640
S        8.60015021      22.70566708      43.44853425       0.07754257       0.54715997       0.37195670      -0.21345251      -0.04870155      -0.17176529
S        8.29593142      27.26232926      47.90324226      -0.14027704       0.06276102      -0.24419973       0.41777313      -0.25766170      -0.00301728
S       12.78192432      27.36162491      43.35901039      -0.07278934       0.27580503      -0.14068179      -0.21802406      -0.16310801       0.03473839
S       13.19883647      22.88811697      47.72879283      -0.13707001       0.14640377       0.16320022       0.17450232       0.02727485       0.30411347
S       12.23436453      23.77004630      44.45567520      -0.20030924      -0.74079310       0.02725232       0.03072114       0.27548265      -0.10314941
S       12.02092979      26.67246068      46.98798016       0.46304517      -0.22766076      -0.71086701      -0.29733435      -0.20069508       0.04631217
S        9.22841840      26.18880582      44.27445359      -0.10880162      -0.39131036       0.71357832       0.10121519      -0.14504797       0.50659207
S        9.56031693      23.56802045      47.13961042       0.80117758       0.98724254      -0.56956179      -0.32159224       0.33530813      -0.13312656
S        8.43265939      22.94780613      50.65334240       0.97309973       0.70758284      -0.63775544       0.02014128      -0.16281194      -0.04915673
S        8.46149323      27.41487911      55.27361173      -0.13599550      -0.26476121       0.57886200       0.01601806       0.11923629      -0.13577741
S       13.02370359      27.51534295      50.75560823       0.34148458      -0.56234340      -0.44220091      -0.45008271      -0.29758452       0.17541162
S       12.98266007      23.17420910      55.15089454      -0.00828568      -0.47784983      -0.20882313       0.03696808      -0.21753446      -0.06321240
S       12.08744148      23.89068337      51.45987018       1.32666702      -0.59154073      -0.47607586      -0.15631384       0.17206310       0.42130065
S       12.01554915      26.64538628      54.30895441       0.44737208      -0.97892664       0.88382820      -0.09335879      -0.00364383      -0.19780240
S        9.23191802      26.45822006      51.58505177      -0.22016379      -1.26783127      -0.63948922       0.09565354      -0.05966919       0.23632539
S        9.43064527      23.77449621      54.32649966       0.07896228       1.05349383      -0.02586383      -0.49877510      -0.03935782       0.20132860
Sb       0.03081462      14.36078782      56.56525061       1.34994935      -0.27165484      -3.36868793      -0.70010294       0.12141306      -2.67342845
Sb       3.59183029      17.81791108      45.67396765      -0.65003925      -1.04442463       0.35827731      -0.20377410       0.20235705      -0.73003310
Sb       0.08446336      28.67377165      49.28064289      -0.04438320      -0.21073655       0.60255033      -0.15769024       0.11976092       0.59186914
Sb       3.60141630      17.92089428      52.84465862       0.25483022      -0.37224122       1.27759942      -0.13425512       0.20890074       0.03339785
Sb       0.03248713      21.50094930      42.08284634      -0.11854950       0.01406944       1.52864000      -0.17727757       0.03263562       0.25614262
Sb       3.56168454      25.02424169      45.67071725       0.35479562       0.69642790       0.08444891      -0.01705443       0.03531256       0.02452539
Sb      -0.00597624      21.45688055      49.35127018      -1.85420310      -0.44431968      -0.32232133       0.17222772      -0.19968266      -0.49270124
Sb       3.57952644      25.13173236      52.98399312      -0.34331096       1.66175299       0.41638799      -0.68471960      -0.31014839      -0.31489822
Sb       7.28904221      28.56297662      42.10271908       0.74826484      -1.03261691       1.91873263      -0.40072234      -0.16281730      -0.15005396
Sb      10.86270486      17.92827000      45.56943326      -0.61964505       0.21633394      -0.56630016       0.11352703       0.00301360       0.47249632
Sb       7.17010653      14.43494450      49.28460901       0.03893797       0.83550595      -0.92655864      -0.41177729      -0.83490163      -0.28375440
Sb      10.78766918      18.13693649      52.83047185       0.30258667      -0.05323204      -0.27912742      -0.53712486      -0.58783702      -0.18786277
Sb       7.17437656      21.40992852      42.06211519      -1.13139684      -1.27906609      -0.38117094       0.50054226       0.70885889      -0.84258323
Sb      10.74879766      25.07652411      45.75279222       0.42626692      -1.42629466       1.08324929       0.17196289       0.02382229      -0.37956973
Sb       7.12735864      21.45627987      49.32828892       0.36416944       0.34280805      -1.34918977       0.09063973      -0.22686816       0.00132945
Sb      10.73929419      25.21644693      52.93037064      -0.65067578       0.85165537      -0.63813776       0.15836630       0.19817035      -0.55895081
Na      14.34580440      18.02355443      57.05825627      -0.78158999       0.28302614      -0.57981523      -0.05264100      -0.13914857      -0.02531238
Na       3.31541203      28.15229177      63.30065471      -2.00694223      -5.18451891       1.81514115       0.25137343       0.07001629      -0.10121961
Na       3.60406288      14.29859034      59.51798961       8.09317344       1.23446724      -4.30635814       4.06045005       3.73027602      -0.26644223
Na      -0.06754480      17.78073097      60.70712348       0.23135408      -0.36037366       0.40809074      -0.05290057       0.43937016       0.06322690
Na      14.36792491      28.58170383      60.33796457       1.34766903       0.06167188      -0.46260316      -0.00466800      -0.02435562      -0.14628185
Na       3.54380223      18.11205773      56.51414845      -0.29349005       0.41455485       0.08456206       0.14812989      -0.01910825      -0.20320702
Na       0.68489068      18.68596149      64.42220686       1.02480329       5.48249854      -1.83964317       1.08963607       2.66630774      -1.28194186
Na       2.48018632      14.67183813      70.30761344      -5.62311408       4.99851583       7.85276590       5.33942434       1.54424725      -1.85964764
Na       3.88042415      12.68332804      68.09312278      10.07164047       6.72335815      18.42533042     -11.38884324      82.41267325      15.63081955
Na      -0.33981187      19.06435607      66.94613826       0.36193619       7.00022565      -0.19782499       2.75115423       0.29790772       1.12239911
Na       0.64383276      13.16357268      66.05816487       1.35270919       2.20497701       1.21771115     -30.15833162       5.69545830       1.16738427
Na       4.54775995      18.72131363      63.89723611       2.04751873       1.94088177      -1.34527128       0.28526371      -0.65465060      -1.77854822
Na      14.09171869      25.13032843      56.84216824       0.44385725       0.12098396      -0.05002749       0.22678133       0.22058753       0.02636755
Na       3.55253343      21.92905191      63.27899314      -2.12449334       2.35375633      -3.46364377      -0.65275550      -0.18176595      -0.27564752
Na       3.54464762      21.46895526      59.66142028       0.24354263      -0.01040869       0.24852746      -0.07779593       0.12854818      -0.00013757
Na      14.40895553      24.92241675      60.27494564      -0.35855265       0.18466359      -1.02889907      -0.11496523      -0.01641649      -0.00961913
Na      14.28768644      21.43837744      60.02705574       0.48255661      -1.15317312       0.08819408      -0.04486586      -0.21413724      -0.07650117
Na       3.61709508      25.20407979      56.55188672      -0.17561132       0.81588524       0.19194732      -0.36919999       0.01617442      -0.07854075
Na      14.16605943      24.98942748      63.51220835       0.38140196       0.12455241       0.25636098       0.01261986       0.10221016       0.10636293
Na       5.11956341      22.51870057      69.94451190      -4.49419930      -2.68151626       3.33751868       1.27649158       0.16698054      -2.49438182
Na       2.41458161      21.41462245      67.54400391      -1.53223525      -0.12424024       6.63054733      -1.03734412      -2.88079808      -1.49486901
Na      13.86230654      25.52003896      67.24343545      -0.16609546      -0.57126860      -0.36242049       0.01518754       0.22217957      -0.33006759
Na      14.62940943      21.35127755      67.70490772       0.09915866       1.88873671       1.19640049      -0.08019360      -0.16665665       0.16382062
Na       3.49263063      24.81452820      63.66053469      -3.35813110      -0.68143750       2.17921483      -0.14236265       1.01124436      -0.52059482
Na       7.08359185      17.97002280      56.89178720      -0.12327686       0.25225140      -0.30095727       0.02859246      -0.21197194       0.04296076
Na      10.86927946      28.54804274      63.04021990       1.17493649      -0.37733943       0.27416909       0.13451762      -0.31286398       0.14782329
Na      10.84955970      14.34978311      59.73246408      -0.38630955       0.00276655       0.59314726       0.03560022       0.04160686      -0.01053973
Na       7.09498037      17.49608513      60.50607145      -0.23044039      -0.40383059      -0.17675959       0.16756239       0.10263067       0.08915582
Na       7.67443252      29.18822786      59.71982274      18.15908396      16.85025996     -19.69748291      -1.66048098      -1.99586816       2.59265150
Na      10.95716234      18.12349915      70.87723704      -0.32594522       0.62608553      -0.37300667       0.31012507       0.12857063      -0.34346386
Na       7.28164703      17.72792548      64.50963778       0.93807940      -1.22261727      -1.85893296       1.05210955      -0.63238573      -0.68944966
Na      11.09589641      14.70495929      70.47065464       0.45516086      -0.32528203      -1.02322805      -0.30811936      -0.21394231      -0.10053009
Na      10.79391747      28.66318586      66.72078943      -0.16046398      -0.72055859      -0.02661220       0.56477397      -0.62202555      -0.01604152
Na       7.33710774      18.28294043      68.12565610       2.91052961       0.37569610      -0.62786142       1.72030445       1.97185814       2.17772011
Na       6.77666296      28.02904531      67.52809454      -1.16968089      -1.75176503       0.17092082      -0.25156025       0.09757152       0.07638669
Na      10.79463155      18.11035152      63.57084678      -0.36584131      -0.45731411       0.16728895       0.16695587      -0.15289274       0.11167091
Na       6.86705178      25.53497796      56.25500247     -22.54666716      44.41445896     -51.86846207      -9.12218933      18.10468424      -2.92502743
Na      10.70722277      21.43727496      62.76731377      -0.28305328       0.76557821       0.58711140       0.28661423      -0.09235734       0.30401285
Na      10.66045480      21.44210129      59.30794927       1.13847886      -0.26707327      -0.00780132       0.52943429       0.01438243       0.12899483
Na       7.97137438      22.48700638      61.41308133      36.61845499    -113.45285752      48.87707869      43.15891979      -5.65597167     -11.67114985
Na       7.31344368      20.97232120      60.03248814       0.18636034      -1.10950282      -1.54475010      -8.41682595     -19.28119929     -17.32737095
Na      10.61306537      25.44705214      56.38041665      -0.45989332      -0.23313033      -0.08754181       0.24892820       0.16156328       0.43771335
Na       7.00630940      24.82493896      63.99318995      -1.61259565      -0.02502893       1.22860480      -0.31382045       0.23500407       0.05065582
Na      10.68901058      22.41658602      69.90717534      -1.14811522       0.47400226       0.32916973      -0.02216184      -0.56782400       0.00816178
Na      10.66562291      21.21869122      66.40172468      -0.47220332       0.52599149      -0.20632074       0.43467903       0.09650747       0.12116850
Na       7.41182611      24.93761075      67.56143614       3.23869454       0.76780868      -0.18765161      -0.27372141       0.11505026      -0.05689804
Na       6.69673034      22.14237717      67.10983450       0.89765835       1.12051929       0.63587024       0.49964350      -0.04064334       0.70891370
Na      10.51062022      25.08860949      63.89906739      -0.30967560       0.27562905       0.23688661       0.07120175       0.05992220      -0.20632236
S        1.52330610      15.66682017      57.82006530      -0.18353575       0.38867184      -1.29600418       0.52150598       0.76284419      -1.19631064
S        1.40024125      20.13998308      62.12361097       1.76636669       0.11119650       0.01497450       1.63389285      -1.67181628      -1.54170195
S        5.69789956      20.26250481      57.87342538       0.25314372      -0.21643825      -0.25979451      -0.31658620      -0.01743205      -0.23136831
S        6.00867143      15.71308509      62.53287378      26.76286812       7.37353829     -17.00242760      54.12413078       6.02135643     -41.89343966
S        4.99347267      16.65902535      58.80288052       0.96628688      -0.72364887       0.01343565      -0.18514403      -0.28155058      -0.17814797
S        4.89628355      19.34613395      61.38803016      -0.71802947       1.16356122      -1.94203301      -0.30505128      -0.04244577      -0.29432323
S        2.05998804      19.11228667      58.69566447       0.56749685      -0.26938928      -0.39061444       0.17451284      -0.38414871       0.52870471
S        2.26397114      16.40616524      61.47236021      -0.75302807       0.58438411       1.75793327       1.76868182       5.19386425       7.38089640
S        1.69630619      16.69641779      64.81463545       1.60306936       7.80954228       0.32570104       1.10439583      -3.40264737       0.20145788
S        1.39866303      21.87170204      70.13190508      54.76498642     -28.78982281     -13.22651440     135.33598211     -39.62227099     -31.89355764
S        5.21985022      20.98842614      65.43416708      -3.37391990       2.30343647      -0.27751144      -0.76252429       1.28874591      -1.44970218
S        6.05897679      15.16320424      71.74885710      -0.91281222      -1.15755464       4.41864603      -1.01326758       1.39929684       0.46283087
S        5.87801063      17.36562237      66.59060960       1.34006160      88.36904565      -7.53259126      17.59742882     121.68192656      17.20151662
S        5.10408984      19.93880720      68.27771733       0.38142352       1.42579125      -1.79424691       6.39530555       1.31605851       1.30872406
S        3.13156007      19.32963600      65.65578000       3.15987728       6.06864710      -2.87427992       0.20184918      -0.60120896      -1.05764485
S        2.26472796      16.74839537      68.30109058      -3.43832751      -4.59308423      -0.76554493       1.59661528      -1.57905383      -0.45204278
S        1.42420629      22.84965649      57.81906233       0.10382058      -0.85005263      -0.49394765      -0.32159653      -0.54584317       0.13685175
S        1.02169331      27.16827325      62.32415517       0.48451348       0.11207890      -1.60094419       0.13038002      -0.68797223      -0.73464229
S        5.78928885      27.57437271      57.96104330       0.17697597       0.23573512      -0.92845880       0.05668826      -0.09498520      -0.08776250
S        6.23248346      22.48942844      62.04166810     -11.64622753      -3.45781805       5.94280831     -70.24472987       0.42630696      25.59503251
S        4.98611834      23.87700542      58.56207486       0.07097395      -0.73764040      -0.64046817       0.17423721      -0.09023132      -0.42184955
S        4.46078713      26.35231324      61.41134088     -16.86629320      -8.50534178       3.94705688       2.61489352       2.94933093       2.81569751
S        2.05414342      26.46212903      58.68911392       0.06903586      -0.85622912      -0.48773069      -0.05816221      -0.19343162      -0.70520856
S        2.42997701      23.57224768      61.31653536      -0.12624766      -0.48496392       0.66723136      -0.34833561      -0.20423460      -0.21987218
S        1.42908993      23.38395313      64.06906762       2.15628885       1.52422106       2.70093886      -0.50977094      -1.24036332      -2.61825856
S        1.29074338      27.71794131      70.51698964       3.23144164       4.47285781      -0.25368606      -1.58544970      -3.63171834       0.55954944
S        5.04930261      27.13931736      65.09841584      -5.64409207      -2.68409422      -1.05656421       0.46459542      -0.16367414      -0.91089711
S        5.02937415      22.87041272      72.42326303       4.02316836      -2.10875152       2.84654708       1.29240901       2.32317387       1.49831335
S        4.66074850      23.27446904      65.23737871       0.08328681      -1.65677235      -1.72850115       1.04571338       0.04779438       2.01069636
S        4.92169415      25.46143507      68.77864525      -0.62358837      -6.27036215      -3.28497413       1.59856157       0.83544004       1.42638080
S        2.82919341      26.36251923      65.71745374      -1.46743106      -1.67403514      -4.87576193      -1.48606345      -0.64204134       2.23866541
S        1.83185480      23.46552589      68.72892521      -7.78011869       5.77363475      13.04733470      -3.96413889      -2.03189653       4.26632086
S        8.64196476      15.50702728      57.86575726      -0.22287813      -0.02540525      -0.27295602      -0.16267506       0.00859244       0.16192375
S        8.36927373      19.48595059      62.72292540      -1.09001490      -0.69234067       0.21072917       0.31095434      -0.01633769      -0.75917895
S       12.64422124      20.33682797      57.71556117       0.55936659       0.27868065      -0.67978464       0.23517699      -0.07879375      -0.28407833
S       13.15640726      15.72476669      62.46194327       0.69408620      -0.43396306      -0.04108216       0.18489094      -0.44183716       0.11189213
S       12.15804046      16.79723066      58.66164300       0.13901041       0.05559263      -0.52190968       0.03447545      -0.39469159      -0.21677005
S       11.97390519      19.48183160      61.25038703      -0.97153007       0.16473869       0.60845156      -0.18972594      -0.01328034      -0.11290827
S        9.02090738      19.10403231      58.80903179       0.40512656      -0.27896108       0.26414554      -0.08800915       0.26501703      -0.10359514
S        9.57349643      16.46240620      61.54159596       0.22193277       0.29330401      -0.08449066      -0.10597654      -0.09664405      -0.11564934
S        8.66050298      15.30137084      65.16063064       0.81786907       0.01967927       0.05836087       0.98818440      -0.00133103       0.02931280
S        9.17961473      19.39010462      72.61027150       0.84914947      -0.49853995       1.14269203      -0.09169654      -0.63019725       0.16317925
S       12.91458971      19.93935724      64.96348562      -0.08907536       0.43778908       0.59129731      -0.49932252       0.20432716       0.36703696
S       13.15703617      16.09039531      71.26249729      -0.28939118       0.73908476       1.13866403      -0.15143955       0.06705371       0.08021207
S       12.26247135      16.59921658      66.27660714       0.34859118       0.36378338       2.10322460       0.05059948      -0.05930850       0.10941274
S       12.03163853      19.51862903      68.64319020      -0.33005487      -0.61312319       0.91992540      -0.30696112      -0.02782243       0.29230384
S        9.14463098      18.98563587      66.13669160       0.08409038      -0.48772617      -1.28273470      -0.26525895       0.06714442       0.00761947
S        9.50774248      16.51150829      69.08191065       1.24166139      -0.05863969      -1.23434994      -0.45323120       0.01205128      -0.32202314
S        8.51105728      22.67752194      58.03642083       4.53224876      -8.09763404       4.43330443      33.02911141     -41.26315318      64.75716770
S        8.55315819      27.05242758      62.72688575       0.16604961       0.51137675      -0.32318339       0.00625800       0.05791835       0.11321082
S       12.84036450      27.58634016      57.87321305       0.34013019      -0.67276236      -0.64043823      -0.10419016      -0.18168854      -0.17260572
S       13.13234534      22.72207517      62.21723302      -0.06532833      -0.15518966       0.24173594       0.08130804       0.06802983       0.34094244
S       12.21722185      23.92686278      58.75153426      -0.11703078       0.03191801      -0.49810705      -0.32079505      -0.23635538      -0.04100615
S       12.17105727      26.57210059      61.45394846      -0.38631700       0.92131113       0.48855092      -0.20658984      -0.33617982      -0.14980520
S        9.23333219      26.42377864      58.90469435       0.40114024       0.25372522      -0.05245243       0.31509063      -0.24558968      -0.09998895
S        9.54182846      23.61466638      61.53024254      14.44653545       3.87960195       2.47952297      35.15877347      25.06446496       2.69382001
S        8.90986124      22.61151145      64.88763485       0.60801030      -0.65663968       1.08136427      -0.24616117       0.47625687       0.06339598
S        8.50076474      27.96073462      70.52963537      -0.31982387      -0.29643208       0.96441758      -0.44678017      -0.01782203      -0.21444892
S       12.67142805      27.13938937      65.01825736      -0.52439524       0.90616687      -0.26037519       0.06653928       0.13741705       0.09039900
S       12.15129708      23.03228377      72.27559576       0.12929610       0.16878438      -0.31810018      -0.00436398       0.35535682      -0.38131847
S       12.20348423      23.37408358      67.22437199       0.31048167       0.86772533       1.80154391      -0.81633312       0.33190058       0.39212875
S       11.96933423      26.46208570      69.17632425       0.18532772      -0.08994090      -1.30274402      -0.38015586      -0.25186322      -0.31617183
S        9.49684716      26.19193927      66.15729842       0.16037823      -0.38191641      -0.11351898      -0.36870075       0.20705498       0.21000460
S        7.85654833      22.49775666      69.75687903       2.74681789      -3.58010379       3.47582178       1.72289802       0.96545512      -1.32557841
Sb       0.26719682      14.35630079      71.21133834      24.08370622      35.76165352     -40.06669750      13.43973512      21.71582060      68.26724289
Sb       3.48788062      17.82774727      60.16091094       0.67118971       1.21971376      -3.35656418       1.34698957       1.81557785      -1.71551916
Sb      -0.02101367      28.74187587      63.77826761      -5.64814304      -1.31736893     -13.25052598     -11.98243066      -3.86319275      -7.71064742
Sb       4.17770715      18.09999142      67.39373908       1.71759018       7.22785837      -6.90126130     -14.30855440       3.96373240       6.11490549
Sb      -0.05141734      21.56055997      56.44616350      -1.15631280      -1.14286207      -1.19593232       0.94090210       0.49421906      -0.65202733
Sb       3.54917773      25.14636831      59.92452199       1.67919840       0.92888645      -2.83620444      -1.50796670      -2.62623683      -1.92930247
Sb      -0.07982349      21.42096742      63.20614125      -7.21762719      -3.42853822      -1.92673415       2.56035696      -0.90881000      -0.02160213
Sb       3.43718104      24.47659423      67.42369322      -0.68478195      -7.55543446      -6.51955351       5.65317539       2.05722273      -6.83517661
Sb       7.19852522      28.92831690      56.65377902       0.22218330       0.21543530      -0.68190043      -0.20829559      -0.44438740      -0.50275890
Sb      10.65244973      17.92791504      60.02379252      -0.49052563       0.28139582      -1.87216737       0.32925043      -0.09540827       0.74362552
Sb       7.02511291      14.07769155      63.99054501       0.27294548      -1.20527026       4.81800315       0.35815141      -0.71724848      -0.13641137
Sb      10.73036852      17.90708615      67.46770677       0.93447967       0.38230241       0.74451807       0.73101948      -0.00830588       0.33785301
Sb       7.16278411      21.50341244      56.51059971       1.25174384      -1.51723854      -2.35068540     -12.25601312     -39.51814707      -1.93073918
Sb      10.76339620      25.11586675      60.18244051       1.02486088      -0.92078617      -1.77449284       0.08681566       0.82134074      -0.41010461
Sb       7.22273599      21.25357171      63.81324958      -2.71965813      -1.07178031       1.71284379      -0.16167643      -0.18372162       0.79795440
Sb      10.34765680      24.90018666      68.02878111      -0.93867499      -0.05228020       2.55519555       1.21316656      -0.00048917       0.01609253
Na      28.62348954       3.53317248      28.03646229       0.31618017      -0.35634433       0.51030223      -0.01454255       0.02439553      -0.19050369
Na      17.68745777      14.65147568      33.47790177       0.36760037       0.92362819       0.06041419       0.02634015      -0.00959374       0.08091417
Na      17.90004358       0.18874719      28.27867096      -0.53747077       0.14164848      -1.45047341      -0.07588883      -0.07730153       0.02063615
Na      14.14954886       3.12017240      31.55511381      -1.12823410       0.06897519       0.01511870       0.06580049       0.17689396      -0.18196084
Na      28.78460132      14.08120588      28.90271347       0.32755756       0.08669040      -1.61662353      -0.24808297      -0.17839068      -0.08141138
Na      17.66840752       3.63799012      27.62498408       0.40103156      -0.79567368      -0.51827697      -0.00973921      -0.08028539       0.00188380
Na      14.47730119       3.79763942      35.04903598      -0.00943539       0.79498302       0.87917786       0.08945797      -0.08492618       0.12807730
Na      17.86363018       0.24289454      41.47154967       0.37417953       0.03783263       0.27226505       0.12560654      -0.22983348       0.03210006
Na      17.97045257       0.00075096      37.65316307      -0.67972012      -0.62645963       0.18029221       0.04246049       0.06087693       0.13435390
Na      14.39404922       3.65081656      38.90889492      -0.03520765      -0.25672980       0.71201001       0.12645936      -0.07395619       0.09051265
Na      14.25786279       0.01574667      38.26060542       0.20941809      -0.16822257       0.64630036       0.14721821       0.04986841       0.15909386
Na      18.16624047       3.67741671      35.04466259      -0.66024045      -1.15003280      -0.15137260       0.04065178      -0.04732796      -0.11737806
Na      28.63842654      10.70276764      28.13735435       0.39244817       0.01210354       0.62983703      -0.00807382       0.02794500      -0.00817971
Na      17.83675964       7.44752375      34.39320670       0.49338647      -0.09773148      -0.11672460       0.14575564      -0.03284327      -0.09005031
Na      17.95646471       7.58040838      30.27542189       0.14411158       0.46980741       0.61718736       0.13173528      -0.19154634       0.27660217
Na      28.72170769      10.86147549      31.75941213       0.52403375       0.12555314      -0.82320378      -0.11343952       0.08821674      -0.04668600
Na      28.31525382       7.24650822      30.79130615      -0.41521868       0.61069862      -0.23976613      -0.00028443      -0.10859633       0.08056758
Na      18.00202968      10.44428437      27.89019012      -0.40286194      -0.09503674       0.35409387      -0.14309657       0.08052925      -0.20055159
Na      28.60380430      10.73322332      35.19473698      -0.57302359       0.97446659      -0.27496351       0.02993572       0.09313319       0.18912773
Na      17.89753137       7.28154453      41.62760062       0.03558951       0.27077190      -1.25134639       0.12166371       0.01927607       0.16928682
Na      17.84885078       7.14993118      38.13334408       0.62460073      -0.07746058      -0.17226136       0.06205447       0.12852892      -0.12436219
Na      28.63180152      10.73977460      38.88484473       0.51179229       0.56142774      -0.09497991       0.17989987      -0.02385194       0.02179948
Na      28.59732295       7.01598390      38.19906697       0.43604389      -0.03883897       0.38341251      -0.01805289      -0.09018124       0.26880091
Na      17.99365726      11.12554331      34.89886221       0.50360437       0.22148517      -0.45031764       0.06095811       0.02490733      -0.06409140
Na      21.61312756       3.30905425      28.25750216      -0.05830388       0.38712410      -0.67077477       0.03870548       0.25660738      -0.07228616
Na      25.26885737      14.35336411      33.44388590       0.48106550      -0.48149570      -0.87558255      -0.24947523      -0.01894012      -0.00064953
Na      25.17674854      -0.00486866      28.61862354       0.13291136      -0.32647012      -1.16356712       0.03065264      -0.13834600      -0.04846439
Na      21.50501937       3.85347998      31.82599335       0.60225392       0.29944531       0.65215817       0.02283607      -0.14642944       0.00044559
Na      21.80906219      14.37245830      31.18223759      -0.19607275      -0.18542219      -0.51246739      -0.02292972       0.03931820       0.08479766
Na      25.19179132       4.02518914      42.12235873      -0.31832114      -0.17931187       0.09210786      -0.06301836      -0.08840780      -0.03171375
Na      21.77262087       3.47062756      35.41355454       0.03054129       0.14998705       0.02494587      -0.20137128       0.41641867      -0.01509363
Na      25.06774515       0.06576410      41.48102399      -0.45449516       0.78201669       0.25375601       0.11082256       0.11533147       0.10668625
Na      25.17277096      14.39657571      37.61676753      -0.27766060      -0.10371334       0.02204269      -0.15866454       0.01739702       0.04609254
Na      21.65459044       3.67240891      38.98025371       0.16748443       0.20539069      -0.49008526      -0.06170820      -0.00454238       0.07324338
Na      21.64024734      14.33348753      38.41506101      -0.14698027      -0.34820433      -0.52133692      -0.03886798      -0.05435491       0.03317419
Na      25.44874978       3.70730750      34.60243261       0.41277173      -0.66718606      -0.17459903      -0.14490737      -0.09830495       0.00575213
Na      21.45830815      10.84493295      28.18288598      -0.13277577       0.30133700      -0.46856293       0.02651435       0.17996712       0.17654449
Na      25.05461457       7.24145651      34.19055812       0.30368187      -0.71390027      -0.57560259      -0.03699224       0.07679936      -0.19867054
Na      25.01848541       7.27954140      29.49446822      -0.94911771       0.29910114      -0.55062685      -0.08684910      -0.10374621       0.00530555
Na      21.41524055      10.92754635      31.81605254       0.75009206       0.31183987      -0.05696222       0.21871910      -0.03456490       0.00372386
Na      21.72798734       7.20708904      30.95949157      -0.41376798      -0.40590237      -0.22656333       0.01452591       0.14044944       0.04678252
Na      25.21169416      10.82100295      27.60618789      -0.36938993       0.30254790      -1.26734704       0.03081139       0.01902636       0.21415669
Na      21.64679340      10.80509576      35.21367216      -0.27681376       0.04263286       0.34529670      -0.06168978      -0.18315907       0.14032921
Na      25.13385822       7.53693430      41.61657498       0.29916930      -0.10756826       0.11806756       0.08145219      -0.14242167       0.07197129
Na      25.07523494       7.26706528      37.86421568       0.30322766      -0.36527928      -0.36791739       0.07372021      -0.09817104       0.06507530
Na      21.43258043      10.75411742      38.94666168      -0.49665913       0.48162671       0.73662144       0.26081970      -0.08508920      -0.12814903
Na      21.59105945       7.08916078      38.48256246      -0.09126992      -0.51602017      -0.22944449      -0.08576424       0.03928458      -0.06405525
Na      25.05464677      10.86862975      35.17207381      -0.88066722       0.38143284      -0.82608552       0.05758881       0.06776858      -0.34849605
S       15.81922600       1.68972962      27.31323449       0.32768695       0.30751026      -1.02020805       0.10565479       0.18503516       0.04898737
S       15.51231041       5.96370582      33.33013413       0.08930707       0.78793228       0.29970868      -0.09515637       0.18234077       0.29724254
S       19.94257820       5.42258181      27.35516243       0.51437026      -0.33183417       0.24774622       0.15987301       0.07278223      -0.09058224
S       20.23802904       1.50324676      33.47869892       0.31572785       0.51400394       0.60155410      -0.00266869       0.54874599      -0.14404967
S       19.41631308       2.56271937      29.77720234      -0.65811672       0.36415602      -0.26763306       0.09821705      -0.49418463      -0.23787347
S       19.29947439       5.59691686      31.94893086       0.51510596      -0.01259545      -1.20498575       0.14625620       0.45907432       0.19144861
S       16.09204484       5.03871100      29.73396564       0.43550863      -0.20994318      -0.23562831       0.08611932      -0.08235808       0.03977473
S       16.73786815       2.82428807      32.62689206       0.04784924      -0.09005740      -1.08081153      -0.00818360      -0.28093584       0.22169827
S       15.88916701       1.26671853      36.08154256       0.43975846       0.08373736      -0.30057698      -0.40794057       0.10324535      -0.28514851
S       15.71840636       5.63875215      40.84859072      -0.57988241       0.02267936       0.09980118      -0.15799207       0.11284695      -0.07642406
S       19.91263480       6.00802503      36.07863879       0.88328040       0.03824345       1.12371555       0.09573017      -0.05123653      -0.03830016
S       20.35176201       1.44520787      40.54401988       0.49756970       0.18153177       0.27857882      -0.17754962       0.50889730      -0.02654935
S       19.57880527       2.36499158      37.33413642       0.26829554      -0.34843138      -0.15351725      -0.06005970       0.12202344      -0.37540096
S       19.19467461       5.20097951      39.79446745      -0.78025124       0.03464169      -0.02894005       0.23577908       0.19555228       0.14787603
S       16.48483027       4.81972406      37.11890191      -0.39031245      -0.60309702       0.34732127       0.02948859       0.10254128      -0.08974889
S       16.74148561       2.21467687      39.88382685       0.95222314      -0.31598507      -0.45665747      -0.21595536       0.09224488      -0.06432193
S       16.15625123       8.55850891      28.55469036       1.49248795      -0.19302321      -0.08089234      -0.27329418       0.08488535      -0.28874364
S       15.61971862      12.73977040      33.55886862      -0.30780473       0.58651052       0.39562622       0.09087931      -0.15910278      -0.16345130
S       19.59826821      12.54919003      27.07573985       0.02365911      -0.45388032      -0.17022549       0.00641337       0.15001323      -0.06744619
S       20.43423765       8.77304738      33.40159213      -0.40210540      -0.16149118      -0.68597568      -0.26517102      -0.38206650       0.35537423
S       19.62537789       9.84103335      29.98471354       0.36930578       0.37757120       0.30957638      -0.25014841      -0.08086251      -0.22939253
S       19.24361456      12.77052749      32.16692345       0.73459997       1.06216355       0.35424517      -0.23783558      -0.07595992      -0.07041689
S       16.37005469      12.19697486      29.58374144      -0.35900819       0.53493575       1.15655081       0.08414895      -0.26205337       0.06463528
S       16.82676310       9.55799698      32.39763171       0.25361976       0.70430250      -0.41821237      -0.36850720      -0.31974872       0.46233277
S       15.70933082       8.42523633      36.33273549      -0.77385878      -0.11675241       0.36733059      -0.26505286      -0.29990664      -0.53597834
S       15.60480078      12.72067429      40.81534729      -0.75599294      -0.51283594       0.08648425      -0.06021412       0.23619775       0.08094867
S       20.10871598      12.92011587      36.10811704       0.36119888       0.27461645      -0.98779892      -0.07801995       0.15758968       0.14496063
S       20.24346024       8.60515610      40.66148727      -0.70382160       0.01010136       0.96274035       0.08574420       0.28661929      -0.21744063
S       19.41130286       9.54635027      37.10689017      -0.37133231      -0.35689059      -0.28159958      -0.30706616      -0.09059817       0.12925468
S       19.27683857      12.19924169      39.78872127      -0.37819960       0.12224276      -1.65860635      -0.14864651       0.22621855       0.19765678
S       16.45825409      11.97556534      37.18984090      -0.12930730      -0.49950289      -0.57727389      -0.40814758       0.02064666      -0.06975188
S       16.67151775       9.30925404      39.95553924       0.15659938       0.12574915      -0.83329453       0.09735071       0.07585916      -0.43594455
S       22.22648981       0.60498102      28.10695457      -0.63497716       0.33183310      -0.93937908       0.35126785       0.14805073       0.71834390
S       22.77449634       5.66079350      33.59202872       0.86008492      -0.14836030       0.45518260       0.06262051      -0.07666163      -0.07086233
S       27.79189132       6.24250370      27.93543917      -0.32569966      -0.17189062       0.32066146      -0.28219215      -0.00592629       0.17148907
S       27.38121570       1.51989703      33.53207446      -1.04852120       0.63489628       0.67813992       0.24272112       0.02211253      -0.02177376
S       26.73701050       2.33696465      29.50523599      -0.26037913       0.57658455       0.12110740      -0.27433274      -0.14851954       0.13936378
S       26.32237312       5.17280844      32.02925339      -0.32648431      -0.36568926      -0.30233846       0.32029046       0.15071973       0.13531002
S       23.67434777       4.90134347      29.43966496      -0.61550225       0.42857291      -0.15461592      -0.56590485       0.06339445      -0.30939926
S       23.85859409       2.24134169      32.08127935      -1.04433926      -0.50906343      -0.40250719      -0.40486206      -0.25865559       0.27398537
S       23.11331446       1.26549612      36.01712816       0.27317845       0.90999375       0.44007795       0.06081720      -0.24986571      -0.10953616
S       22.89043348       5.73789757      40.79385392       0.15377054      -0.00989547      -0.08553390      -0.09564262       0.09494415       0.00471631
S       26.97482808       5.86192999      35.80770240      -0.25797077       0.09763941      -0.23055804       0.27484923       0.37347789       0.15631411
S       27.47303935       1.38571075      40.74549994      -0.17259274      -0.52959481       1.19319287       0.05376256       0.23662454      -0.22343115
S       26.75972502       2.46388885      37.10715852       0.02244276      -0.18624344       0.46299270      -0.17870324      -0.25578507       0.02366492
S       26.58397679       5.16135563      39.74079790       0.43365963       0.03223912      -0.24602123      -0.55728143      -0.28445457      -0.22733704
S       23.70470445       4.88201820      37.15528891       0.65386863       0.41702126      -0.24573192      -0.13041420      -0.05342571      -0.03739118
S       23.94585380       2.17105770      39.83297062      -0.15858072       0.29596871      -0.13975124       0.11836776       0.14428778      -0.20474531
S       22.37663432       8.27869250      28.21536303       0.14532090       0.04359048       0.03438172      -0.09081627      -0.46137442      -0.42512433
S       22.75618922      12.78152998      33.49716079       0.37606315       0.64479750      -0.36577408       0.23722518       0.22918944       0.05336053
S       27.03987739      12.66450021      27.34816140       0.20990820      -0.30751906      -0.99853134      -0.02942044       0.19159874       0.00550076
S       27.38205870       8.79872217      33.45706963       0.27354605      -0.07575931      -0.00284653      -0.05314363       0.18544395      -0.20772801
S       26.64612945       9.43148002      29.72323889      -0.74558967      -0.23603180      -0.66895469      -0.24385237       0.23306470       0.05127842
S       26.27261476      11.93467300      32.66869336      -0.45757646      -0.04626600      -0.83899678      -0.05366541      -0.21408173      -0.36260283
S       23.65307876      12.10507990      29.71516460       0.19056564       0.40678107      -0.02678494      -0.07154082      -0.15640755      -0.03143912
S       23.66949413       9.11719621      32.19330245      -0.56241169      -0.14373597       0.15952031       0.31416709       0.34556904      -0.46674339
S       22.99578909       8.49508817      36.21482055       0.44185585      -0.10759532      -0.80119798      -0.11286620      -0.23533704      -0.11296390
S       22.85683231      12.86671040      40.77178075      -0.06780310      -1.50352750      -0.97227925      -0.18855059      -0.05728012       0.15464059
S       27.05018668      13.13922508      36.02909829      -0.14744747       0.56861366      -1.05335582       0.46400816      -0.04294613      -0.29904235
S       27.53774031       8.64133251      40.63456408      -0.23762623      -0.63380304      -0.61663201       0.14095060      -0.18632254       0.16408546
S       26.52825419       9.60104684      37.24182930       0.79469753      -0.53170295       0.43618365      -0.04410062       0.10124903       0.11778916
S       26.40919264      12.42307239      39.86012457       0.12887787      -0.30209339       0.27020134      -0.06737514      -0.11052369      -0.09466485
S       23.53705991      12.06849988      37.22769203      -0.31851487       0.65238989       0.72812676       0.24163469      -0.14325296       0.31435115
S       23.82816302       9.42936233      40.00189580       0.26073745      -0.26231787      -0.22561861       0.12423287       0.14056650      -0.28648168
Sb      14.27108038      -0.02238340      42.07768621       0.44353620       0.10999613       0.93229612       0.41902882      -0.07132062       0.40509839
Sb      17.94360249       3.96201387      30.98573765       1.10689449       1.31727144       0.38636447      -0.26986042       0.06686971      -0.10971954
Sb      14.25537546      14.29343177      34.65855517       1.61250804      -0.03536844       0.58184132      -0.20372735      -0.19374307       0.76705036
Sb      17.99691013       3.65503805      38.51355242      -1.11486234       0.30514821       1.89050407      -0.02023134      -0.34700960       0.14383281
Sb      15.67179252       6.43153308      27.55416775      -0.39789144       0.44544083       0.94060527      -0.16133941       0.21517408       0.30065113
Sb      17.90824541      11.14115542      31.10594758      -0.45375784       0.04305964      -1.18957917       0.66726484       0.34517739      -0.43426058
Sb      14.22941364       7.32221152      34.76214791      -0.32870479      -0.72146624      -0.29519730       0.57089045       0.20544790       0.26593377
Sb      17.94574198      10.73990085      38.52509168      -0.41783508       0.41256860       0.29671594       0.12138285      -0.39190084       0.13312369
Sb      21.00431148      14.34134059      26.41243120      -2.51579471      -0.40084343      -1.59741036      -0.02179970       0.03455497       0.20095315
Sb      25.14034929       3.62682280      30.72902510      -0.05830107      -1.86832493      -2.09914584       0.51168862      -0.12621575      -0.26704052
Sb      21.52559996       0.02098080      34.76914977       0.76645189       0.27047857       0.45689387       0.55652580      -0.36459306      -0.31354698
Sb      25.22499167       3.63041317      38.45719849      -1.10857560      -0.83128795       2.92133356       0.43365817       0.31622262       0.36690873
Sb      21.50822486       6.90639127      26.39907233      -1.09611038       0.08720853      -3.44870440      -0.01967830       0.26998090       0.38968355
Sb      25.05970557      10.69671544      31.05459137       0.89348620      -0.47498737      -1.22967005       0.06310588      -0.32366538       0.52146214
Sb      21.51571632       7.22458551      34.83729083      -0.17960862       1.13072268      -0.25369707      -0.08729059       0.21259700      -0.18766124
Sb      25.09958692      10.91592542      38.63488270       0.47282547       0.77508449       0.04819621      -0.34769179      -0.27875909      -0.26968322
Na      28.61915654       3.51558883      42.58957121      -0.17907924       0.71630929      -0.02059196       0.05163235      -0.03238265      -0.07929638
Na      18.12168432      14.14159187      48.71246170       0.75589579       0.23530596       0.73224055      -0.17971731       0.08821450      -0.00279898
Na      17.90396975      -0.02752159      45.07783049       0.55614041      -0.30811611       0.02504908      -0.10026605      -0.00904399       0.06673705
Na      14.29492194       3.52193473      46.12884105      -0.30458988      -0.01828461       0.13598481      -0.00998851      -0.08231845       0.04161152
Na      28.54325201      14.59489990      45.64065845      -0.10941329       0.68541369      -0.19162033       0.12886054      -0.15195907       0.00881048
Na      18.03177429       3.84678258      42.20221074       0.37729367       0.22122847       0.49233038      -0.05117693       0.00140272      -0.09267276
Na      14.54007451       3.61546480      49.67302161      -0.11996503      -0.42105965       0.29656266      -0.17123865      -0.10027461       0.02645232
Na      17.85002439      -0.05053386      55.95777494      -0.09653636      -0.10030857       0.19264650       0.01163994       0.07293620       0.03067524
Na      17.79460842      -0.02707659      52.16369129      -0.55428633       0.14716610      -0.22643553       0.23585813      -0.10084235       0.22431773
Na      14.37949911       3.77196119      53.36701129      -0.24175588      -0.01844478       0.05259100       0.01723244       0.00210567       0.01021595
Na      14.37918728       0.31132901      52.76255260      -0.16871396      -0.45040388      -0.48902155       0.05214094       0.03303241       0.22337799
Na      18.08872188       3.35657480      49.28527049      -0.76998849      -1.18252046       0.04091948      -0.00079498       0.01577864       0.08864734
Na      28.48271301      10.74928993      42.47647682       0.22141350      -0.31959456       0.53829212       0.07114878       0.00090644      -0.01063009
Na      17.91007290       7.01194342      49.04036110       0.28989426      -0.07023791       0.44432601      -0.06660065       0.02196804      -0.06722206
Na      17.85987947       7.08641975      45.35965623      -0.31256251      -0.47126503       0.17103139      -0.04380190       0.02449712      -0.03775168
Na      28.57859016      10.58128770      45.95516913      -0.00515031       0.08109163      -0.33655355       0.09415984       0.18110576       0.11502196
Na      28.80278128       7.14901538      45.62743801       0.16553066       0.43461421       0.06930215      -0.04521175      -0.06431621      -0.04340156
Na      17.71504888      10.79767722      42.09721743       0.85357199      -0.65981512       0.09982619       0.08495345       0.05037226       0.09443084
Na      28.76909909      10.67866958      49.82647789      -0.19016371       1.03618273       0.43111168      -0.00115653       0.03728995      -0.22009699
Na      17.95514921       7.39772992      55.97773178      -0.14265977       0.31932866      -0.28229239      -0.20312726      -0.14245314       0.02904514
Na      17.47751294       7.07602238      52.47237096      -0.27418384      -0.67191565       0.43051512       0.32857478       0.04363307       0.15540666
Na      28.55004229      10.73806103      53.20911456      -0.01617954       0.30972168       0.17687080       0.05733869       0.01739649       0.00158966
Na      28.60394264       7.15855596      52.84644935      -0.44307886       0.37909523      -0.55806938       0.04465529       0.01519575      -0.17090308
Na      18.17221204      10.79026322      49.39249097       0.02988174       0.25375773      -0.53013770      -0.04400455      -0.12754967      -0.12101222
Na      21.48018955       3.63264209      42.57822190       0.03330687       0.61907385      -0.46752512       0.08546567       0.06319350      -0.00299121
Na      25.13403194      14.36687277      48.71176001      -0.31827989       0.01176361       0.40807508      -0.05406719      -0.12741160       0.00186482
Na      25.01350679       0.01130370      45.23532769       0.01068116      -0.75813254       0.04248195      -0.03776153       0.05969877      -0.03680597
Na      21.40981272       3.63022862      46.09914213       0.57175806       0.27319430      -1.13333852       0.09000587      -0.26583335      -0.00954736
Na      21.35956654      14.17332295      45.79228297      -0.96513191      -0.08342666       0.77070098       0.13702635      -0.08005368      -0.23585018
Na      25.00148247       3.61449844      56.53812837      -0.19155254      -0.43065694       0.04674262      -0.57617930      -0.12192938      -0.56961884
Na      21.50822292       3.55194643      49.60439194      -0.81803043       0.09505572       0.05983770      -0.06256423      -0.10971937       0.18708419
Na      25.19336208       0.17105470      55.96434867       0.20579747      -0.39009860       0.21891453      -0.20768174      -0.30838758      -0.07367852
Na      25.01953045      14.36415594      52.53971607      -0.19874255      -0.55393373       0.67363882       0.09193531      -0.13333539      -0.14317993
Na      21.53158648       3.58729837      53.30495076      -0.16169963      -0.34007238       0.05350584      -0.15683772      -0.07463350      -0.00672204
Na      21.65635541      14.36060692      52.79913099      -0.16214896      -0.02411837       0.72208204      -0.18777414      -0.03355994       0.21083949
Na      24.89178086       3.64670641      49.14355492       0.35868232      -0.46127298       0.34495184       0.12250315       0.03628751       0.33243755
Na      21.33168714      10.77442310      42.47296503       0.61149913       0.20565707      -0.15523063       0.01887246      -0.10600860       0.06133859
Na      25.18045540       7.15856830      48.75315532      -0.62963837      -0.48458586       0.04187787      -0.13815853       0.08250663       0.08276806
Na      25.17037225       7.20360997      45.19079618      -0.11964283      -0.17302427      -0.25718925      -0.09537106      -0.12749287       0.06160582
Na      21.35507107      10.47855506      46.12358504       0.05810407       0.06239055       0.11498452       0.16708740      -0.05746029      -0.09783141
Na      21.40683584       6.85993480      45.71336069       0.23777849       0.18264302       0.17168480       0.02712785       0.20115250      -0.07616243
Na      24.86668327      11.02998907      42.16227188       0.47513441      -0.28704695       0.14213259       0.06902034       0.01701446      -0.02851451
Na      21.65786754      10.72394376      49.72644313      -0.42086042       0.07911274      -0.22982830      -0.03193715      -0.14559761      -0.03994534
Na      25.05951006       7.08135189      56.13014234       0.44852307       0.07622552       0.16948349      -0.39808388       0.29525597      -0.70939594
Na      24.90198180       6.96386206      52.55109756      -0.17190438       0.74436890       0.05605915       0.01365188       0.30831024      -0.16329309
Na      21.46654576      10.73739991      53.29981283       0.10295986       0.41538118      -0.26025144       0.00463590      -0.08289678       0.06056544
Na      21.36473323       7.10159784      52.86000419      -1.02387821       0.05797072       0.31370843      -0.03552353       0.14315862       0.07725013
Na      25.33220717      10.92608065      49.31254710       0.29191345       1.20002620      -0.48185630      -0.09882532      -0.06139822      -0.08902697
S       15.71190700       1.17303359      43.50439192      -0.73518845       0.16332530      -0.17970956       0.20564729       0.04802860       0.16530707
S       15.43056038       5.73230622      47.95944893      -1.01277380      -0.17276581      -0.46373734       0.18448428      -0.00685021      -0.16685091
S       19.97049678       6.01143373      43.37129032      -0.76564098       0.41843628       0.35204128       0.23159434      -0.16209881      -0.18228406
S       20.17962243       1.45132088      47.89632796      -0.30844317      -0.38233942       0.63490112       0.12527729       0.25584343      -0.02817842
S       19.35519673       2.33035117      44.37039713       1.24628064       1.14451870       0.70773309      -0.00153944       0.10179188       0.02337989
S       19.10019753       5.04682285      47.09085071      -0.16804089      -0.09486295       0.56370644      -0.01268743      -0.10758754      -0.03398201
S       16.38618817       4.76411770      44.45369716       0.72650313      -0.34313113       0.45465843      -0.07988657       0.03315273       0.01759370
S       16.69786390       1.98294405      47.16771630       0.72844738      -0.17453420      -1.03647493      -0.12256120       0.17506223      -0.21471983
S       15.98057771       1.23287156      50.52614758      -0.14593235       0.61725035       0.50523140      -0.18975167       0.08098807      -0.11347241
S       15.64505050       5.77418152      55.22913357       0.74375312       0.58739797       0.05748462       0.01847679      -0.16858373      -0.16973489
S       20.04557115       5.80432206      50.73132462      -0.24405924       1.19715044       0.73763750       0.06200961       0.07271785      -0.26096612
S       20.13608617       1.42210168      55.16314294       0.18043110      -1.27430952      -0.16931508       0.15884488       0.12308125       0.01871822
S       19.43907483       2.32763974      51.63604580       0.39873186      -0.27940132       0.58829617       0.44888830      -0.27673430      -0.23329857
S       19.00165193       5.10587761      54.29362492       0.77498957      -0.29667631      -0.12450494       0.14793716      -0.09421066      -0.02403955
S       16.54764490       4.71565778      51.36614220      -0.24744346      -0.56944066       0.49839376      -0.34375391       0.24936308       0.00830115
S       16.66441981       2.00231797      54.12693016       0.38451531      -1.01694734      -0.14614743      -0.26789966       0.12165394       0.18597192
S       15.76526979       8.35698514      43.65812436      -0.21742553      -0.28111742       0.65282800      -0.17145150      -0.06693909      -0.51584356
S       15.71998503      12.81477745      47.93126212      -0.10999110      -0.34966769       0.72014728      -0.01764454      -0.01589274       0.29138167
S       19.98011168      13.11097022      43.39910890       0.07747598       0.55083656       0.81089189      -0.07963054      -0.13737639      -0.08434172
S       20.18595852       8.54475457      48.01589515      -0.08264414       0.54951454       0.85850678       0.07584107      -0.13462864      -0.06324482
S       19.20029986       9.35387288      44.25183056       0.08164087      -0.54687764       0.20500836      -0.05898643       0.53815531       0.22995953
S       19.21894787      12.18199088      46.83372533      -1.07669048      -1.31230649      -0.01718867       0.12318705       0.22172514       0.44296941
S       16.31199540      11.97144461      44.33372385       0.71602982       0.42998747       0.10690480       0.07319367       0.12014425       0.20639319
S       16.67925289       9.19031192      47.02685258      -0.32718109       0.19403445      -0.13910435      -0.17194399       0.05601559       0.42413699
S       15.82548204       8.39344108      50.65245363      -0.03944044      -0.23285225      -0.12729812      -0.28479573      -0.09357420      -0.14035052
S       15.69939366      12.86602599      55.16978564      -0.01613483       1.06695886       0.24400843      -0.11118555       0.04899822      -0.05199400
S       20.12077480      13.05235306      50.63057838       0.17921095       0.10141343       0.29453519      -0.12727057       0.07161910      -0.02901043
S       20.24830728       8.60950207      55.20468190      -0.20084935      -0.23447511      -0.80829357       0.33934855      -0.11977292       0.08996472
S       19.45172033       9.36197975      51.61106170       0.49386811      -0.65518428      -0.89394454      -0.24803639       0.16042299       0.08881783
S       19.17379239      12.18383824      54.21834656       0.95126728      -0.17050894       0.67073968       0.17020338       0.15159497       0.29534185
S       16.53878276      11.96076293      51.56990093       1.08844757      -0.13281005      -0.23160779      -0.02244877       0.08722060      -0.22189543
S       16.57066495       9.28198111      54.24497776      -0.02720807      -0.24544223       0.04288360       0.05951447      -0.03875099       0.13576944
S       22.91875135       1.31714710      43.49220728       0.12274462       0.12422026      -0.14239570       0.14184504       0.23163336       0.17839313
S       22.66339816       5.57234940      47.93144090       0.67428516      -0.83190644       0.41109248       0.39180557      -0.14172655      -0.21069003
S       27.18272015       5.93393060      43.40730029       0.44941171      -0.17153777       0.68908153       0.24328741       0.18519512      -0.15183848
S       27.54897092       1.47340046      47.88070701       0.44976862      -0.10472222      -0.55982450      -0.24703546      -0.09462468       0.00435772
S       26.47840555       2.35622357      44.27918593       0.13671272       0.83103403      -0.16353692      -0.00937089      -0.05822877       0.15650028
S       26.41489145       5.01051954      47.05573417      -0.00512473      -0.90779267       0.31042268      -0.13320042      -0.01421747       0.02350183
S       23.55795698       4.84931201      44.47053077      -0.41533930      -0.61196133       0.31545623       0.14733143      -0.06688650       0.13125249
S       23.87103853       2.04238452      47.10129137      -0.38815207       0.45088484      -0.12181423      -0.22538967      -0.18483287       0.10377760
S       22.93184209       1.17688884      50.65129039       0.24204632       0.45100394      -0.34428489       0.16032911       0.41899960       0.10770507
S       22.70475689       5.62561063      55.13956120      -0.37977513      -0.46326272      -0.19839898       0.45226935      -0.30522537      -0.16136371
S       27.21263613       6.01556362      50.48391587      -0.24114222      -0.21103390       0.06591019      -0.12154316      -0.16263814       0.29771294
S       27.43522119       1.50194821      55.17002219       0.12853256      -0.70441149       0.17019393       0.38923476      -0.09270240       0.36544163
S       26.51978243       2.34027419      51.41500366      -0.16553622       0.68968988       0.77550745       0.01702370       0.11979152       0.08176420
S       26.30927902       5.00979472      54.18435563      -0.45727636      -0.46893794      -0.32988095       0.28285149       0.47422936       0.38724733
S       23.46364160       4.73547168      51.52461222      -0.29517647       0.15420989       0.26463501       0.50059311      -0.08447390       0.33695076
S       23.87483357       2.05527597      54.24557488      -0.71738448      -0.23761104       0.01340116       0.03422943       0.19151384      -0.07792011
S       22.93109012       8.42001914      43.55241977       0.25914580       0.13360154      -0.54543714      -0.12311111       0.09303357      -0.18572056
S       22.76162183      12.79928304      47.97929256      -0.70519567      -0.26231730      -0.55876342       0.20121730       0.01002836      -0.20331799
S       27.16955610      13.16180862      43.42899400      -0.52482635       0.66353667       0.59579482       0.10509921      -0.08036481       0.02249129
S       27.43316921       8.65373057      47.76823761      -0.50046108      -0.33663004       0.35835411       0.15590272      -0.08727567       0.24901975
S       26.42192044       9.49341156      44.24130650      -0.12660301       0.57335772       0.76140322      -0.19940824       0.39278086       0.10151828
S       26.37330604      12.30915120      46.81900821       0.31405583       0.41465901      -0.41881136      -0.03348820       0.11227132       0.24416901
S       23.37095775      11.97170096      44.34531328      -0.18593417       1.79216514      -0.19846473       0.29409575      -0.05444989       0.40752331
S       23.90409709       9.33391539      47.15405424      -0.44356092       0.36495506       1.29905973      -0.16232683       0.01041616       0.02324931
S       23.00349715       8.36490353      50.59402905       0.60349729      -0.03559771      -0.33214609      -0.08851047      -0.32171389      -0.09936266
S       22.69164989      12.85205421      55.09409332      -0.00046549      -0.49998200       0.03227936       0.11941565       0.29019892       0.43096754
S       27.19624327      12.96177078      50.58671987      -0.62762318       0.71696321       0.88764715      -0.26132951       0.23749227       0.16575968
S       27.48893289       8.53244569      55.08810299       0.20750543      -0.81259764      -1.05324874      -0.18835955       0.28838813       0.22241963
S       26.43399549       9.38606759      51.51132535      -0.00219350      -0.86931585      -0.50317496       0.11751115       0.08418202       0.09257302
S       26.30735777      12.16920140      54.19359118      -0.61512074       0.21077006       0.07740079      -0.01503999       0.17368967       0.23702336
S       23.45256347      11.89638809      51.59341918      -0.12140120      -0.62821065      -0.44513306       0.35783076       0.19691148       0.11330809
S       23.75550237       9.15515643      54.25338342       0.53032735      -1.49474391      -1.02440450       0.25961238       0.28493333      -0.00002864
Sb      14.30730667       0.17893375      56.49941177       0.36522376       1.34507185       0.19578005      -0.15693201      -0.49226874      -0.34868749
Sb      17.85097068       3.49644171      45.79171684       0.01981405      -0.91114039       0.66028116       0.21211935       0.10063630      -0.22527187
Sb      14.51229993      14.36509445      49.28050083       0.63621698       0.15637038       0.29480690      -0.50033640      -0.32752836      -0.37153060
Sb      17.91369088       3.56409985      52.88922519      -1.45856172      -1.54976144      -0.93709087       0.05625413      -0.02990724       0.11467869
Sb      14.41188348       7.16209931      42.10941184      -1.31412097       1.62971608      -0.14885896       0.36856675      -0.26312368       0.62450626
Sb      17.81771509      10.71029823      45.67861813      -1.26164479       1.23307239       0.59100062       0.29367562      -0.39515634      -0.84613921
Sb      14.21590241       7.21958985      49.32002893       0.19595615       2.48578663       0.53289456       0.56398632      -0.21033177       0.45805951
Sb      17.96091307      10.66112196      52.93557721      -0.10381291       0.95249659      -1.29513915       0.04281024      -0.18924047      -0.35769263
Sb      21.56830806      14.30757039      42.13174405       0.53647571       2.09172232       0.62012262      -0.02557936       0.29958154      -0.36652896
Sb      25.07856352       3.54134648      45.77892118       0.03372074       1.91843709      -0.40126592       0.00087461       0.36353873      -0.71978354
Sb      21.45934490       0.02304486      49.25662261       0.96943565       0.43373542      -1.26331937      -0.06292504      -0.30662912       0.42665403
Sb      25.09142755       3.55548224      52.84707915      -0.45475252      -0.50099804       1.25889513      -0.60767048      -0.45535188      -0.48937932
Sb      21.55149930       7.25404378      42.04196671       0.50206560      -0.39001597      -0.46571802      -0.11924943      -0.65648622       0.65668191
Sb      24.98366441      10.81037168      45.67582991       0.73604096      -1.23535059       0.13752137       0.01823786      -0.28571853      -0.56952773
Sb      21.49714430       7.04640193      49.32282974      -2.20924520      -1.34971797      -0.04979646      -0.20695782       0.62330526       0.42862533
Sb      25.00971165      10.66887385      52.89701167       0.99904533      -2.09673901       0.72265476      -0.23261178      -0.28629336       0.01398064
Na      28.66089144       3.62057381      57.00077797       6.52016476      -1.22408183      -4.09546934      90.06713623     -18.98715429     -57.83531738
Na      18.08068770      14.28124557      63.25551540       0.03504578       0.74685623       0.48976134      -0.24340951      -0.01297127      -0.11877412
Na      17.89207881      -0.21589037      59.71021418      -0.43953641       0.16945911       0.38676104      -0.06141221       0.44768624      -0.25257780
Na      14.46813537       3.41709932      60.81169103      -0.20262319       0.19525352      -0.52221833      -0.13734600       0.00278405      -0.07464378
Na      28.20488321      14.65134296      59.95795068     -24.55182636       4.40424275      -6.99050877     -21.37296924      -1.47548916      -0.17901772
Na      17.69637404       3.54405180      56.54619355      -0.92280713      -0.29022161       0.61128051       0.11374094       0.05626670       0.06217825
Na      14.30561518       3.39319627      64.61424003       0.42539551      -0.84678411       0.48361602       0.05581865       0.22438366       0.02013653
Na      17.32887958      -0.80599608      70.27810301      -0.49072604      -0.67077102       0.05253005       0.06750434       0.19865812      -0.11137183
Na      17.74068346       0.00540999      66.84418306      -0.52700587      -0.42055465      -0.07491792      -0.02801240       0.13824678       0.12227189
Na      14.54487253       4.09176939      68.71344291       0.15590775      -0.43019601      -0.68911555       0.37556018       0.07651042      -0.08904112
Na      14.09857116       0.72998817      68.41374166      -0.68308873       0.06538599      -0.75665251       0.25675232      -0.00606626      -0.01358454
Na      18.00140206       3.76651563      63.96493686       1.52348026       0.80284915      -0.21476014       0.17578330      -0.12625174       0.01520151
Na      28.64852728      10.75778507      56.79907464       0.74913599      -0.25613524       0.38590644      -0.74832022      -0.48955553      -0.74321245
Na      17.85310330       7.12169697      63.26796478      -0.47580188      -0.51523061      -0.16727621      -0.02452821      -0.20986516      -0.23507386
Na      17.95863709       7.23561946      59.30598588       0.36350762      -0.37357023       0.05588328      -0.02990923      -0.31154888       0.31018396
Na      28.70769625      10.51236830      60.38967195       0.02206692       1.24822767       0.65941272      -1.75002911       0.10157402       0.11261008
Na      28.81161635       6.42693018      60.09074546       3.33999516      -5.73700682      -2.34635295      -1.05449579      -0.18224279      -2.52559703
Na      17.73509956      11.01956524      56.54994695       0.21246534       0.12121872      -0.50273860       0.08725810      -0.03987761      -0.18434544
Na      25.87132169      11.04407493      61.71359284      10.54470181      26.41280423      18.46175110      20.98136700     -30.06691459      85.55006154
Na      18.23527384       6.72136446      69.99380036      -0.65165686      -2.78453031      -0.70357546      -1.18178906      -0.92806847      -0.21634791
Na      17.83965432       6.94320377      66.58424149       0.72783024      -0.30257009      -0.54722165      -0.23860103      -0.05395820       0.17518744
Na      32.91590972       9.00024793      61.78487433      60.30896580     -10.49925191     -30.53307658     -56.93959937     -45.46061541     -46.30234209
Na      30.35273834       8.29449796      65.63916653       3.28541927     -13.90759582     -11.29031092       0.02900764      -0.02306785       1.29439540
Na      18.13994215      10.45356268      63.51921393       0.55073949      -0.74129224       0.30022690      -0.26075866       0.08559474      -0.10563738
Na      21.36646271       3.55887602      56.85025899      -0.44599252      -0.06140683      -0.16672243      -0.01301686      -0.13726473      -0.05669167
Na      25.49047875      13.35286538      63.55261273       3.99709256      -6.01065319       3.37245332      -0.25468424       0.84792989       0.10526597
Na      25.05587565      -0.02168224      59.38690111      -0.45720685       0.23321943      -0.35832786      -0.06633596      -0.20381313      -0.08228902
Na      21.44453883       3.35681935      60.14290954      -0.51555389      -0.13861530       0.30700180      -0.01066610       0.04909157       0.06265238
Na      21.48180863      14.03257430      60.19542825       1.17400505       0.78695937       0.26417263      -0.17499368       0.19405939      -0.09576919
Na      25.74538910       4.72846119      69.98160677      28.46146250      -1.88672230      17.34032118      36.87061475      -7.94851008      24.86135718
Na      22.15453761       3.44921746      63.49936867       0.61103484       1.69584438       0.63101071      -0.43107446       0.42707636      -0.46529697
Na      25.35328343       1.38304823      69.55154031       2.84420175       3.46086511      -0.45987498       0.27428513      -0.16949322       0.45177135
Na      27.78607211      16.94562788      64.77561971      14.78011972      37.09531175     -34.12258530      -0.53436327       0.12980390       1.35199064
Na      22.10334876       4.87493754      67.83175512      -8.85798288       8.65019472       8.98981765     -15.76564242      -1.96866249      -9.49299571
Na      21.56747106      14.41465508      67.59776457       0.53883539      -0.40279529       0.35335505      -0.00412303       0.37019566       0.15554286
Na      24.93982187       1.25358525      64.24661318      12.49269648     -21.47562285      -6.53629210       6.72711057      12.48813944      15.65663366
Na      21.38138144      10.71948902      56.93422124      -0.09399700      -0.45218942      -0.62293797      -0.02092671       0.01697099      -0.25905318
Na      24.47599165       7.33273664      62.60299678     -33.18208235      -9.67849447      12.57244511     -42.48196276      10.70950061      80.59405329
Na      25.28457630       7.52179628      59.10036360      -7.74252274      23.01211678     -58.52749055      -1.82489048       5.03012433     -31.67110062
Na      21.44030102      10.43150199      60.24455169      -0.88419745       1.62671477      -0.33715040      -0.42170389       0.14732648      -0.10453964
Na      21.53669464       6.95328560      60.08818501      -0.64666653       0.04851043      -0.76704776      -0.61675297       0.25926601      -0.78728287
Na      24.88177022      10.89749012      56.50916250      -0.43275967      -1.48259517      -0.74413918      -0.01978724      -0.09778669      -0.65218528
Na      21.25672576      10.81756446      63.48651857      -7.37159724       6.74162666      -7.16848269      -0.75019978       0.92642664      -1.17427762
Na      27.87352155       6.64842897      68.41925376      27.06768196     -71.33800492       4.46008095       1.92431439       0.90575996       0.29639972
Na      24.77536481       7.07082988      67.07193710      -7.35360017       5.24517489      12.92367438      -1.77428491       2.89079185      -0.29606021
Na      23.99134297       5.10791588      68.92512811      -7.43279619     -14.65716386       9.43475657     -22.62174783     170.76667490      10.55844636
Na      21.15404602       6.93360017      66.91001138      -3.11099496      -5.84512179      -6.44619768      -0.41408961       1.08499241       0.60839701
Na      27.14616401       6.52360434      65.89125605       1.38438433     -35.72234655       2.64101035       5.83345368       8.42647940      -8.35216094
S       15.76930055       1.26406986      57.95484117      -0.41236523      -0.03545957       0.35050146       0.28828221       0.18132149      -0.01352783
S       15.50752176       5.77872600      62.51235874       0.07303276      -0.29110489       0.02363065      -0.02130986      -0.11142744       0.03530912
S       20.05601104       5.79259864      57.87027731       0.48286007      -0.07739903      -0.31667933      -0.05054154       0.22898672      -0.07412231
S       20.32746983       1.33409546      62.36119585       0.29114764       1.89852514       1.89009396       0.41145847       0.06295081       0.37517241
S       19.20342047       2.29132685      58.70989299       0.31798921      -0.15837268      -0.31367558       0.09181947      -0.10066061       0.06576022
S       19.32442858       4.79584680      61.60109619      -0.39641405      -0.10629591      -1.21916925       0.02268425       0.28792274       0.27054412
S       16.33559042       4.81774634      59.09609250       0.12740958       0.03424992      -0.33874167       0.45111126      -0.34335708       0.21360222
S       16.69448413       1.82974441      61.51968807       0.14803474      -0.69964220      -0.73605970      -0.01302680      -0.00761586       0.38406248
S       15.53902404       1.11116030      65.61231542       0.25283187      -0.64408642       0.27743659       0.06764981       0.00907339       0.03265581
S       15.73523107       5.91044456      70.56079628      -0.15479710      -0.15197193      -0.21781708      -0.26016736      -0.71494836      -0.02392176
S       19.91662304       5.87941666      65.01370704      -1.81400591       0.72773245      -2.95563632      -0.04271929      -0.14968039      -0.35224456
S       20.81368150       0.43639528      70.61096187       1.13996880      -0.47389516      -0.53927948      -0.03000532       0.51008472      -0.82653002
S       19.41922883       2.04955547      66.37146680       0.76415544      -0.66459318       0.77976780       0.57853901      -0.13916245      -0.08416958
S       20.04718532       4.97144153      68.89915438       1.65003745       1.15078576       0.25533396      -2.18539797      -0.44748211       0.83774577
S       16.68096259       4.56305774      66.43243333      -0.77482337      -0.25856399       1.09879559      -0.09651801       0.06554503       0.25457704
S       16.85704257       1.85755507      69.08227586       0.10744671      -1.05903228       0.08435918       0.09413644       0.22559836       0.23155017
S       15.76905064       8.36579652      57.99124131       0.04499375       0.35516498      -0.38905497       0.32094214       0.31641208       0.11713077
S       15.70177423      12.53043626      62.57321277      -0.05557206       0.03550523      -0.84804790      -0.13244066       0.17417920       0.04298161
S       19.94185474      13.07934426      57.76072506      -0.52453945       0.45267853      -0.57036691      -0.03495807      -0.04458823       0.29131332
S       20.10541322       8.35684630      62.53203432      -1.11373506      -0.66466844      -0.68663483      -0.08002225       0.97253678      -0.75710307
S       19.26714457       9.55157503      58.56866529      -0.29616419       0.26439167       0.00579823      -0.03399580       0.27326960       0.19001780
S       19.21405847      12.19208416      61.35632603      -0.35552399       0.10091214      -0.22219917       0.26272281       0.00307398       0.19266960
S       16.30271709      12.04099574      58.86784534       0.54659414       0.00897928      -0.12279092      -0.17136112       0.28679253      -0.18076944
S       16.70655086       9.12861371      61.33326560       0.45774738      -0.06242515      -0.58109238       0.06610781       0.13555251       0.15615428
S       15.66909657       8.31309709      65.27219577      -0.13183861      -0.14146420       0.84126096       0.82583280       0.41986194       0.78748581
S       15.46810195      12.96420291      71.11186263       0.02880332      -0.80713846       0.57325100      -0.08771979       0.01471427      -0.22126506
S       19.92680787      13.07691023      65.08731464      -1.87823635       0.69604617      -0.94573047       0.22713693      -0.41395194      -0.05026677
S       19.89680479       8.21601151      70.60541042      -2.85937124      -1.44352343       3.29799931       1.41012947       1.78771982       0.47291127
S       18.87103711       9.42446741      66.12926503      -2.22377156      -1.24426510      -0.40766296     -36.74054411     -22.64805485     -14.43477411
S       19.02797527      12.12107702      69.01224044      -1.20408787      -1.01141017       2.48563434       1.08130236       0.87917049       0.59444397
S       16.00587974      11.86511250      66.77629768      -0.31563205       0.84116745       1.27103982       0.07092188       0.23128289      -0.12276962
S       16.64798040       8.98006262      68.95760468       0.03817083      -1.23305510       1.20822252      -0.09815797      -0.30015891       0.18096296
S       22.87665002       1.18548447      57.82539932      -0.24091327       0.46170125      -0.52019105       0.27855110       0.32440598       0.45332722
S       22.54976324       5.89095515      62.03166850      -2.44284289       1.19298972      -1.17714521       0.09259952      -1.33222922       0.77750011
S       27.17835302       6.05001946      57.42791723       3.02107645      34.81890958     -26.38840901      -5.81775606      17.24326608      -0.74760662
S       28.00638679       1.23950630      60.43323954       6.48785004      25.22768963     -52.27143640      -6.81054208       8.55712764       3.92550866
S       26.57484135       2.21342297      58.85939006      -2.33815763     -13.83937641       3.16497579     -18.57359227     -53.20648723      26.06842826
S       27.18581007       3.92354504      57.94964653      22.60451487     -62.08365452     -94.06441267     -69.27259809      49.97534404      35.29397185
S       23.68854791       4.89875502      58.82701784       0.32845962      -1.08389243      -0.76836689      -0.25834489      -0.34043551      -0.62880949
S       23.77342330       2.13170088      61.46662901      -1.48326244      -1.00036761       0.07390180      -1.37579909      -0.97600985       0.70211321
S       22.45647703       1.29860067      65.31950795     -24.15451119      -6.81166733       9.47771970       2.90480605       3.40976431       2.71591895
S       20.01567966       2.07065027      76.44294308     -57.34544713     -83.42922407     116.94421932       0.10588547       1.20319771      -0.60401077
S       25.80725294      -4.31185926      64.00783049     -11.06594589    -176.79325849       6.80052192    -201.00692220     233.53881052    -168.21793507
S       27.00383912       1.44008191      71.80236885       0.17768575      -2.67161793       4.91551535      -1.20068424       0.42153209      -0.43071310
S       26.14035862       2.36104422      66.74063509      -7.25271306       2.67874206      -1.64723484       2.11200919       2.26089320       0.04888579
S       25.86067546      -7.79309622      72.51644127     -76.70816316    -195.67878323     116.80861035       0.18749318       1.35645595       0.43834385
S       23.08656071       3.71184695      65.95377733     -10.61240729      -1.66108187       6.39992369       0.61026113       0.17405660      -0.38764567
S       23.99540442       3.45000845      68.69781441       2.80091709     -16.05199928      -3.82504529      -1.00697562    -162.47180603     -21.50247820
S       22.93689725       8.30670276      57.87634312       0.42999738       1.01417432      -0.35270846       0.21760870       0.45197012       0.17041078
S       22.89132461      12.79897816      62.37495768       1.73234557       0.49293827       1.13028379       0.31940477      -0.23943241       0.35552805
S       27.23323068      13.23231554      57.94841244       0.91181421       0.00460033      -1.12496991       0.16803124      -0.88683072      -0.12189488
S       28.06168507       8.19754127      61.62149236       2.56008694       0.59870444       7.40492432      -3.64311035       3.43414669      -2.72660096
S       26.39973855       9.47048375      58.47980187      -0.28675154       0.14145432      -1.23291356       2.02193183       1.14058630      -1.18567067
S       26.08076520      12.57080979      60.59406676       3.73601037      15.98823618      -7.76537740       8.06098558      42.75488506     -28.60461499
S       23.54799406      11.89887670      58.64671646      -1.01533832      -0.60449341      -1.27533364      -1.17866327       0.42238406      -0.63863042
S       23.64022907       9.00425296      61.04876237       0.65552587      -0.86525044       1.28262256      -0.76086358       0.80786781       0.44930601
S       22.14779714       9.46237768      65.15700762      -8.13604372       4.59908990       6.16756056       1.10846136      -0.68928998       2.73223026
S       22.63570644      14.09263014      72.29400791      -1.05684438       1.35547832       0.67029914      -0.88183273      -0.28627415      -0.83264453
S       24.88356021      15.46932285      65.63043855      -1.74894473      13.00276385       9.42518251      -1.86612315       0.88343464      -2.99206081
S       23.66508885       4.75795332      71.57079818       0.69648768     -17.09125046     -18.01258161      -0.33041159       0.77273072       0.07296665
S       25.34138819       7.10713647      61.03128195     -22.72456806      41.08150554     -11.91671639      45.86164840     -18.96505454     -46.77349175
S       28.47321269      13.84192046      69.67482138      20.28820643      86.87777578       8.42016847     -18.98091216     -22.98428298     -66.90814486
S       20.56774958      10.44569173      66.74798663     -58.74615559     -10.78651955      -9.50703688      38.08019870      21.88271360      13.67849414
S       24.20658069      10.85333694      74.22344643     -19.24048376     -19.52215004     102.96926556       0.40800761       0.27345030       0.19863478
Sb      14.15618282       0.19929607      72.34164813       0.56490706       0.50562089       2.62673997      -0.00874272       0.08772975       0.09654216
Sb      17.93356899       3.45182116      60.34701424      -0.28284511       0.26548005      -1.08002360      -0.61378058       0.15325467      -1.15836301
Sb      14.41297437      14.12320247      63.73771082       1.37127485      -1.98893993       1.66674535      -0.09546985       0.29032744       0.08583509
Sb      18.24234222       3.41212087      67.82343414       3.46069798       1.08962127       0.80810242       0.27657201       0.02771103      -0.17547753
Sb      14.34421333       7.21319014      56.56603066       2.96900061      -1.36220977       0.48942017       0.27574195       0.01866737      -0.44006619
Sb      17.83904178      10.77099046      60.06533474       0.06227723      -0.05505570      -1.46499209       0.42618143      -0.78390266      -0.05883976
Sb      14.24388264       7.23675166      63.85935801      -2.00809513       0.82921145       1.27708066      -0.10773826      -0.52898101      -0.73957889
Sb      17.80368419      10.65255588      67.77365405      -3.16561151      -0.34292963       0.67038572      -1.53629420      -0.28020855       0.42237442
Sb      21.46572020      14.35966981      56.50473204      -0.66493797      -1.42100482      -1.00959307       0.03188978      -0.28365211      -0.80032646
Sb      25.05472472       3.58115705      60.21194250      -8.50056693      -7.52837048      -2.79624560       0.67732758       2.56351635       1.81706532
Sb      21.58834000       0.02122436      63.85130929      -2.85634318      -0.97414253      -3.05980028      -3.69396034      -3.80066346      -3.97000950
Sb      26.17778686       4.96617974      67.36328614      13.82315012      14.28709903     -19.73092852      -2.39078932     -10.91803525       4.41131711
Sb      21.51983736       7.08012137      56.50997341       1.17893591      -0.49566029       0.50391740      -1.00624576       0.17894331      -0.19679959
Sb      24.94085851      10.56458343      59.87351159     -27.25023749      -7.83729356     -60.12954752     -27.61075488     -13.05131596     -54.31564728
Sb      21.69795791       7.23896364      63.91817372       5.57784207       6.95702193       3.60842766      -0.78170170      -0.97569532      -0.85230773
Sb      25.90143004      14.42363589      67.22193415      14.66246572     209.86539652     -61.56091396       2.12540594      -1.86903730       2.36118146
Na      28.37809816      17.64312950      27.99764643       0.57867054       0.91701063      -0.52900432       0.06861979      -0.35949743       0.07394403
Na      17.73025754      28.96881609      33.57304827       0.86398164      -0.77161461       0.19376776       0.02302032       0.13358598      -0.02100925
Na      17.92585998      14.48753639      28.92831180       0.18883571      -0.50743279      -0.63043067      -0.04231457       0.08545525      -0.01554299
Na      14.31068692      17.15708785      31.33462979       0.21804892      -0.64181810       0.52115656      -0.01189087      -0.04762152       0.04071723
Na      28.70158257      28.79043770      28.50752300      -0.10064554       0.32426052      -2.25137178      -0.24848458      -0.33326474      -0.06909092
Na      17.68320021      17.90780758      27.64835516       0.23148314      -0.86713668      -0.25245499       0.14474430      -0.08940027       0.00235952
Na      14.31763813      17.90122888      35.16336250       0.28455633       0.01881901       0.10369724       0.11431993       0.15128579      -0.01407552
Na      18.00441608      14.26072374      41.34423984      -0.10722960      -0.04096595      -0.45409302       0.01831411       0.08427893      -0.03906919
Na      17.91211370      14.19351637      37.51223081       1.03842058       0.03998838      -0.10167819       0.33500906       0.42546897      -0.00346082
Na      14.37935040      17.88919551      38.75432143      -0.19450126      -0.23365459       0.17345937       0.06300448       0.02303403      -0.00390776
Na      14.61268481      14.13759689      38.39977652       0.11191389      -0.58966775      -0.15634803      -0.09741800       0.11129508      -0.01455313
Na      18.13956039      18.14586982      35.00760374      -0.27258204       0.18116528      -0.39807349       0.00206249      -0.02680513      -0.21568351
Na      28.64621975      24.95340656      28.05484731       0.03948529      -0.31522604       0.38200181      -0.10784408       0.07199361      -0.02742616
Na      17.69786067      21.63911821      33.94643844      -0.73718121       0.23257921       0.39676385       0.26030494       0.14067204       0.09697770
Na      18.01948973      21.67611917      29.93463561       0.06294172       0.65844906      -0.35552471      -0.04554196       0.35188624      -0.00689743
Na      28.68761317      25.38120548      31.55843395       0.51841658      -0.35273398      -0.20633686      -0.04594581      -0.02024690      -0.02332440
Na      28.40422691      21.42651044      30.67664743      -0.01151829      -0.48001598       0.57488089      -0.03027905      -0.01589757       0.00303413
Na      18.04657458      24.85331025      27.65403154       0.57556242       0.17466814      -0.22328042       0.04266215       0.06529050      -0.12648689
Na      28.69880234      24.96984442      35.29059804      -0.43657643      -0.26375048      -0.97812941       0.00219329       0.09137331       0.06109614
Na      17.91968543      21.46811683      41.74951528      -0.32944620      -0.46769981       0.19768217      -0.20619829       0.07206937      -0.20696701
Na      18.04780989      21.50045217      37.99783001       0.35896061      -0.45777504       0.07261924      -0.22056292       0.14805689      -0.05343684
Na      28.65431410      24.95971609      39.03486034       0.08106949      -0.94610061       0.42559129       0.05489995       0.15514491      -0.01559772
Na      28.55504117      21.58221609      38.50066996      -0.03124292      -0.40158030       0.01537863      -0.03317791       0.01551051      -0.15124185
Na      17.85045075      25.61674545      34.80883604       0.73283132       0.92078875       0.29104687       0.13896287      -0.11129986       0.03928991
Na      21.60931226      17.72472854      28.18575468       0.88473388      -0.46286000       0.38237534       0.00835318      -0.04523364      -0.02792656
Na      25.17109593      28.71860818      33.26934273       0.12756630      -0.78712388      -0.29390469      -0.24667060      -0.23823696       0.00059466
Na      25.14029773      14.24531627      28.59534968       0.34313581      -0.01675182      -0.13262664      -0.02455102      -0.24761651      -0.10669742
Na      21.39598079      18.05867866      31.85613726      -0.00659584       1.16201002      -0.23475727      -0.03723869      -0.03712450      -0.05006176
Na      21.26608706      28.89703518      31.04618628       0.18546861       0.28965291      -0.55460628       0.03887324      -0.01597089       0.05953569
Na      25.10827515      18.21471744      42.07153136       0.75626544      -0.05805235      -0.22340547       0.10385627       0.04946627       0.01418070
Na      21.64178078      17.95029353      35.49347311      -0.37803442       0.14539684      -0.04567384      -0.08791194       0.16017858      -0.24769001
Na      25.06243347      14.51460246      41.51872222      -1.27363218      -0.31072166       0.12293746       0.10041673       0.06270904      -0.00251805
Na      25.32726085      28.69115859      37.79623754       0.14817554      -0.11251537      -0.13325296       0.01875739       0.04222409      -0.12321862
Na      21.56859074      18.07360968      38.84388600       0.11359948      -0.35756925       0.26928552      -0.01084616      -0.18413785       0.17341033
Na      21.87031234      28.82348659      38.36435444       0.46832562      -0.08675352      -0.16655160      -0.12471304      -0.12290892       0.12132901
Na      25.63225402      17.81445761      34.78604695       0.71179731       0.58889434       0.44010469      -0.15296577       0.02374642       0.00814400
Na      21.34468694      25.32701043      28.16708618       0.58158387      -0.81545182      -0.39588081       0.13319958      -0.01084877       0.02300916
Na      25.17289948      21.31611844      33.54882986      -0.24488640      -0.39077419       0.05857426      -0.11000894       0.05191430      -0.03177792
Na      24.93550708      21.36225775      29.20708537       0.11163157       0.65178787      -0.18988074      -0.01006867       0.08127432       0.08000318
Na      21.70225217      25.13332505      31.65538833      -0.44948543      -0.57811002      -0.45219489      -0.27713917      -0.08018441       0.19139664
Na      21.62667767      21.46283235      30.62776098      -0.25007099       0.24103290      -0.34589740       0.03096406       0.03748046       0.15546311
Na      25.06621816      25.16130972      27.46932657       0.26949702      -0.42961812      -0.69593565       0.18136923       0.08619223       0.19518424
Na      21.52005932      25.07797148      35.50006794      -0.47970691      -0.21087593      -0.25957633      -0.17067018       0.12238874      -0.10211455
Na      25.06525341      21.75424222      41.35225577       0.24613402       0.00515565       0.26584767       0.04780397      -0.24278424       0.14279814
Na      25.03270048      21.53044500      37.54655576       0.55549692       0.46412647       0.45979491       0.10925654      -0.12074142       0.04230328
Na      21.53434567      25.13024722      39.04363999      -0.03768527      -0.02643390      -0.03732425      -0.16367949       0.15305902       0.00026467
Na      21.56747142      21.59013249      38.40557783      -0.54607750      -0.77244458      -0.07529087       0.00844719       0.05770707       0.02166328
Na      25.05909801      25.09655038      34.92391993      -0.71812256      -0.02044721      -0.35877160       0.05524308      -0.06135916       0.03676056
S       15.79564030      16.06961372      28.13382960      -0.08226630       0.90509114      -1.07557853       0.20484664      -0.22623374       0.06794797
S       15.35995380      20.18302830      33.39432067      -0.03113814       0.57061810      -0.22327239       0.19791097      -0.22438768      -0.15673800
S       19.98799107      19.54433694      26.82807022       1.20280989      -0.90496731      -1.44466887       0.14340653       0.39722534      -0.16106295
S       20.29840351      15.74990137      33.49409060       0.19014679      -0.08111446       0.56703938      -0.32108957       0.61643364      -0.54039505
S       19.46579493      16.97308491      29.81606277       0.72637002      -0.38534273      -0.62634164      -0.25130509      -0.14229289       0.11791127
S       19.24121308      20.04963770      31.89038380       0.05588591       0.00425051      -0.12926518       0.12871819       0.23880790       0.23938849
S       16.22533197      19.48462164      29.61549194      -0.17471580       1.20745867      -0.29438340       0.01136769      -0.08549814       0.26070880
S       16.77766256      17.16026193      32.69251145      -0.37963103       1.47285656       0.17410864      -0.18220594      -0.18232238       0.21806149
S       15.81345768      15.54703483      35.94894247       0.20261263       0.32739718       0.66472574      -0.19281810       0.00861185      -0.05915519
S       15.51080446      20.18922585      40.60404390      -0.00944405      -0.98564518       1.42075527       0.23879733      -0.10101318      -0.08366785
S       19.83130342      20.44209293      36.04159490      -0.42390836      -0.05550886       0.49313979       0.38684571      -0.19244160      -0.05178300
S       20.49774596      15.78757553      40.60545627      -0.66728814      -0.16552290      -0.07148223      -0.34417534      -0.05842638       0.26090690
S       19.50000337      16.73390025      36.99501476      -1.24912965      -0.16195795      -0.67421492      -0.19559425      -0.11892457       0.42312905
S       19.24596129      19.37896213      39.69179331       0.62980222      -0.69738562      -0.23559288       0.01885572       0.34346344       0.46103036
S       16.51373123      19.11877092      37.01461823      -1.01126064       0.43505362       0.41376090      -0.23413422       0.22001703       0.16133473
S       16.70756477      16.40166799      39.70881362      -0.85847866      -0.46627788      -0.07164399       0.03346778      -0.01063196       0.00129457
S       16.28479361      22.93452455      27.84570750      -0.06687700      -0.37509633      -0.07944212       0.22454738      -0.08526331       0.13829012
S       15.63778915      27.25628294      33.47886029      -0.48342015      -0.19630184      -0.24207764      -0.39390766       0.04287937       0.11043116
S       19.56356564      26.91203741      26.73800669      -0.48485998       0.33649113      -1.02032618       0.06816358       0.21742980       0.04847062
S       20.22906268      23.17103012      33.49615087       0.08705623       1.11545065       0.12198210      -0.03167439       0.21727598      -0.08780600
S       19.56030820      24.08539931      29.81979606      -0.31918976       0.48732000      -1.03537696       0.06562078      -0.06099970      -0.02120470
S       19.17952106      26.93528249      32.26862483       0.52058206      -0.41001296      -0.06599286      -0.13940662      -0.42305257      -0.35959335
S       16.44701346      26.45824593      29.38300098       0.16843923       0.60211683       0.14383261       0.23612385      -0.19808627       0.40997499
S       16.62163676      23.77929901      32.25749390      -0.04389625       0.84825592       0.35153629       0.14440956       0.39913465      -0.35049062
S       15.73875153      22.73534573      36.15030306      -0.24635972      -1.16063057       0.37437594       0.32184704       0.28838808       0.24914203
S       15.58175733      27.21176106      40.78092983      -0.18007898      -0.05470203      -0.39728813       0.12000966       0.04056301      -0.08058484
S       20.10514027      27.48487644      36.17947268      -1.07248310       0.40691703      -0.32947318       0.08386277      -0.25216433      -0.00620601
S       20.16115272      23.15503902      40.77830052      -0.34610822       0.35826084      -0.18519241      -0.01101909      -0.14447772      -0.17405500
S       19.28571873      24.00777819      37.17440543      -0.18596168       1.46073998      -0.63832458       0.01097171      -0.31925249      -0.01299885
S       19.18700014      26.74554801      39.72092651       0.19387038       1.23993424      -0.07324808      -0.18376050       0.02733321       0.12728202
S       16.35405149      26.39311753      37.12527485       0.82654141       0.17066273      -0.54343114      -0.05707779       0.05429457       0.21690392
S       16.53228855      23.84157014      40.01384455      -0.27677078       0.64266526      -0.10278548       0.34786498      -0.14910567      -0.25997725
S       22.22358857      14.91547721      28.40582592      -0.15853299       0.13197281      -0.69608314      -0.02280553       0.11854334      -0.32074494
S       22.59398386      20.06712768      33.39893854      -0.10515411       0.59524294      -0.72393292       0.20143568      -0.15817881       0.07262954
S       27.94958783      20.32126513      27.78857138       0.22074017       0.92722607      -0.41304127      -0.55684908      -0.13210911       0.02479331
S       27.47780211      15.99790907      33.53324584      -0.07473518      -0.96936447       0.66560866       0.27230816      -0.16235440       0.08329055
S       26.42249738      16.37258400      29.65697184      -0.73940468      -0.54148703      -0.11260282       0.12010112       0.13500759      -0.11646403
S       26.49465456      19.32946937      31.82052731       0.18720933      -0.70220219      -0.93309796       0.28602641       0.28120030       0.43182382
S       23.40026485      19.12703710      29.68095163       0.28307392      -0.85211855       0.62204386       0.08871555      -0.08739391      -0.17814443
S       23.71593352      16.57857780      32.46341644      -0.08435146      -0.25899413      -0.14800988       0.25972356       0.11722363      -0.17868919
S       22.93386393      15.63986530      36.14270424      -1.32725096       0.45444315       0.12364458       0.25697622      -0.14451270       0.09635241
S       22.75012917      20.21776333      40.79077894      -0.05222188      -0.39363492      -0.07324121      -0.05646607      -0.27104692      -0.27304102
S       27.27005893      20.05586450      35.97179904      -0.45380450       0.23482319      -1.16255189       0.07581333       0.15368716      -0.09419192
S       27.42255409      15.89928130      40.71296526      -0.33192473      -0.50437113      -0.63328538       0.44878657      -0.34620220       0.41302647
S       26.63677889      16.73703927      37.24102793       0.44946241      -0.11763492       0.18766519       0.06258588      -0.17881244      -0.21620039
S       26.40924483      19.54694025      39.65745669      -0.10452793      -0.40169551       0.08155331      -0.00904545       0.31251275       0.18950143
S       23.55373772      19.09848165      37.15008396      -1.32424650      -0.49605954      -0.66354313       0.12537504       0.28613586      -0.14627454
S       23.85046110      16.69564718      40.03479501      -0.19823134       0.41773198       0.60988494      -0.10442767      -0.17418374      -0.11204844
S       22.15194410      22.55204059      27.90995998       0.44639196      -1.10395080      -0.12019593      -0.11450107      -0.06846804      -0.25390879
S       22.72711304      27.21285240      33.27634018      -0.51546772       0.57155283       0.76119200      -0.17123394       0.36825330       0.46763879
S       26.99348017      26.98683256      27.33014538      -0.01816374       0.39388901      -1.74172170      -0.02187813       0.11890602      -0.01093093
S       27.39423798      23.08719453      33.54143946       1.10232685       0.46281287       0.12084103      -0.11375477       0.14806508      -0.26947314
S       26.58003725      23.62546146      29.32259302      -0.83891817      -0.38001403      -0.13390632      -0.36727842       0.25007257       0.69356961
S       26.21058265      26.06635434      32.55312743       0.21297307       0.17542667      -0.13258428       0.08311163       0.11307309      -0.17000268
S       23.65201542      26.29999776      29.67346462       0.01343566      -0.12905091      -0.68273045      -0.22182577       0.20297488      -0.26179804
S       23.75645477      23.16905924      31.71887206      -0.12632639      -0.00717215      -0.61907644      -0.18866704      -0.42142503       0.36632735
S       23.06089111      22.83400388      35.97939942      -0.40504835      -0.39391104      -0.60039334      -0.10278393      -0.19245589       0.06357272
S       22.82041498      27.26847295      40.83328875      -0.67874966      -0.43582158      -0.69394155      -0.15714068      -0.19267576       0.00177985
S       27.26931545      27.28365575      36.07911792       0.01655809      -0.38430788      -0.06181689       0.20317852       0.28140283      -0.19593663
S       27.47006511      23.03994550      40.80629091      -0.32711747      -0.07022194       0.85592730      -0.12643407       0.21991224      -0.29608067
S       26.67254567      23.80275383      37.19520246       0.00991188      -0.29446138       1.09484036      -0.36018707       0.37845153       0.18965880
S       26.39325469      26.66755779      39.80083249      -0.30272075       0.40486855      -1.16268580      -0.25731279      -0.34509817      -0.25164222
S       23.64103414      26.37021523      37.14205622      -0.02698307       0.13262055      -0.58549220      -0.09740932       0.12067437      -0.11536642
S       23.80895241      23.59693170      39.70206568       0.56588218      -0.73734135       0.57035993       0.10353631       0.19772702       0.03203336
Sb      14.33944455      14.32925720      42.05492378       0.56483122      -1.56686973       0.89907081       0.26096214       0.03168787      -0.43664274
Sb      17.91289733      18.32266697      31.03826679      -0.36218218       0.84550942      -1.32366237       0.22087208      -0.08973943      -0.76778112
Sb      14.28702605      28.76854479      34.73672512       0.86903135       0.68423920       0.51126460       0.69415071      -0.34734489       0.25140464
Sb      17.97320613      17.91025344      38.40495152       0.03587309       1.59361649      -0.02011392       0.10847372      -0.53206460      -0.51404541
Sb      15.84865035      20.67923729      27.27690526       0.65550739      -0.46323908       2.30941639      -0.44872687       0.32256878       0.03283939
Sb      17.91844367      25.36243739      31.01153069       0.30238221      -0.17794919      -1.56230572      -0.21509520       0.13905234      -0.02915868
Sb      14.22031445      21.71102046      34.73652369      -1.47724808      -0.01372917       1.48461807      -0.62493370       0.09557081      -0.44005226
Sb      17.82224154      25.21008341      38.56987769       1.22795038       1.98039239       0.79542138       0.14689912       0.00204749      -0.07127110
Sb      21.22650219      28.54234427      26.13369339      -0.44277923       0.69074419      -1.52250506      -0.35551383      -0.16230422      -0.62528489
Sb      24.99489621      17.80910083      30.88367060      -1.08930851       0.03410661      -1.60906835      -0.26038757      -0.18029027      -0.12195616
Sb      21.51440536      14.31516446      34.82667656       1.01297405       1.44848923      -0.90654232       0.21855858      -0.54132097       0.24001647
Sb      25.10928311      17.96520358      38.51898780       1.06092157       0.03897254      -0.07343457       0.03256603       0.15423087       0.07300931
Sb      20.75853188      21.73306781      26.12323522      -1.71690353      -1.09473757      -2.01932897      -0.10460159      -0.49776872       0.53266978
Sb      25.10542977      24.86154856      30.88315972       0.04954764       0.66854853      -2.33434141       0.52500519      -0.29820049      -0.73769453
Sb      21.44120304      21.60736482      34.74580500       0.30323558       1.87438392       0.51937505      -0.09216245       0.17255894      -0.23830028
Sb      25.12973550      25.15394922      38.48460721       0.39163942      -0.12447156       0.28877881       0.45971531      -0.47125407       0.03167259
Na      28.67661773      17.88748477      42.45826179      -0.03487557      -0.07845512      -0.01355085      -0.02884555       0.08411461      -0.02485811
Na      18.05229315      28.55791943      48.72004467       0.08633469      -0.08978347       0.15152726      -0.24412280      -0.07476881       0.02986805
Na      17.90924285      14.38489227      44.95319955       0.61313663      -0.57889217       0.34504394      -0.05150507      -0.04213228       0.02338561
Na      14.43643450      17.88046303      46.00223678      -0.61111552      -0.17038123       0.08027682      -0.15149183      -0.03142186      -0.13216692
Na      28.46283894      28.48998688      45.57166153      -0.43277939       0.00157213       0.35158590       0.04553684      -0.00490834       0.14955735
Na      18.06315938      17.73325829      41.91439808       0.48199688       0.23439699       0.17907636      -0.09098944       0.09155134      -0.02062504
Na      14.40004630      17.86510948      49.48731179       0.23575710      -0.23229411       0.03711419      -0.06675700       0.06065383       0.19588209
Na      18.00624272      14.45871249      56.06137309       0.01530869       0.06049294       0.69486168      -0.14560108       0.05021674      -0.10391564
Na      18.04356261      14.28368344      52.37847072      -0.19130964       0.34946403      -0.08705874       0.02133075       0.09125384       0.05036658
Na      14.27660026      18.02213618      53.39928315      -0.70692971      -0.23744893       0.57152496       0.16456351       0.03633724      -0.04135375
Na      14.36372605      14.56258358      52.94594625       0.48988238       0.30112116      -0.13085406      -0.00326567      -0.08056911      -0.11058844
Na      17.91710292      17.81855275      49.37148315       0.34797658       0.35520229      -0.30298239       0.07134692      -0.02935737      -0.20540292
Na      28.50491883      25.01305653      42.57264419       0.22246930      -0.25867016       0.65374638       0.00402171       0.13424318       0.03666972
Na      17.93907946      21.51600333      48.79050837       0.41946290       0.22360687       0.65104070       0.00608547      -0.03777452       0.11303841
Na      17.69085915      21.45697097      45.20593918      -0.04846078      -0.08960616      -0.25155305       0.10015861      -0.04296527       0.03860877
Na      28.64490927      24.91064420      46.31620526      -0.46898832      -0.33331397      -0.18621243      -0.02604837       0.19647299      -0.10768492
Na      28.39109105      21.71907243      45.73381894       0.12158924       0.01797650      -0.82032560       0.08047009      -0.16490352      -0.05289401
Na      17.92697991      25.09937212      42.12986458       0.03490595       0.19157158      -0.18461737       0.05379411       0.16740246      -0.07538700
Na      28.78650283      25.09033181      49.76786936       0.53973608       0.01171126       0.18617650      -0.22752828      -0.00726097       0.10458805
Na      17.78671005      21.66719705      56.10195645      -0.26897486       0.24151388       0.38864620       0.09172521       0.00153879      -0.03701931
Na      17.48049438      21.49654950      52.45741719      -0.01583224       0.45185106      -0.53183504       0.25677633       0.04012419       0.10404269
Na      28.69919406      25.19715005      53.37745395       0.44461772       0.01452769      -0.26339664      -0.18130109      -0.00932243      -0.03832610
Na      28.42199679      21.61044640      52.80945663       0.58642537      -1.05825864      -0.20891608      -0.01387577      -0.03114603       0.09940115
Na      17.99332698      25.19741491      49.26485162       0.03964341       0.32470147       0.05686577       0.07992615      -0.15810654       0.00619928
Na      21.51769533      17.87236527      42.49627279      -0.10063954       0.34386239       0.24900904       0.09170671       0.17698941      -0.03697128
Na      25.15397988      28.67364102      49.00234768      -0.39282596      -0.75575077      -0.75243508      -0.06372359       0.09183006      -0.15241706
Na      25.12456621      14.33695488      45.10530967      -0.45680943       0.46248624       0.44342328      -0.21639528      -0.03854972       0.03106082
Na      21.58780547      17.76151825      46.14626050      -0.21839417      -0.02924093       0.29885947      -0.22030489       0.13282192      -0.19013563
Na      21.30909207      28.45544581      45.67208682      -0.17383189       0.70697393      -0.53101077       0.11923345       0.12260179       0.02985778
Na      25.33529432      18.07848332      56.43897151      -0.48112431      -0.86596580      -0.65911501      -0.15271965      -0.08442151      -0.04913966
Na      21.48318559      18.06735350      49.52242229       0.76793235       0.19371152       0.85135625       0.00022766      -0.18750203       0.15852190
Na      25.08956367      14.40207238      56.09120883      -0.39028789      -0.34776204      -0.28055924      -0.17966831       0.03087891      -0.26352390
Na      25.06207042      28.72489036      52.35619014      -0.77180047       0.42013099      -0.31204232       0.01307542      -0.14566733       0.10853901
Na      21.59654430      18.01924201      53.28184292      -0.02247405       0.59816157       0.06556495      -0.12930207       0.02922234      -0.06882005
Na      21.47280936      28.60421611      52.94702995       0.34340440       0.16807179      -0.38347080      -0.09083365       0.07574153      -0.18487452
Na      25.20499556      17.74237181      49.28670414       0.16637302      -0.55378557      -0.09710215       0.11060729      -0.01967560      -0.06622501
Na      21.44722037      25.21987881      42.66582665       0.00759002      -0.53510831       0.99541270      -0.08735979       0.03867109      -0.16312759
Na      24.97045998      21.28110878      48.73571520      -0.14218196      -0.38211965      -0.10949223       0.07236754       0.16370189       0.27047710
Na      25.03140869      21.58601983      45.40278364       0.71682954       0.57845511       0.09273458      -0.15496256      -0.02772330      -0.25525672
Na      21.56121989      24.97876703      46.10165282      -0.65183514      -0.02203847       0.52051978      -0.08850172      -0.01762250       0.14795756
Na      21.31782808      21.57502916      45.60858885      -0.67159039       0.87841404      -0.43230762      -0.05517738      -0.08634332       0.07092828
Na      24.86128819      25.10539940      42.16272894      -0.02342570       0.90373282      -0.47931282       0.04868118       0.09489888      -0.08171011
Na      21.57975174      24.97782550      49.73010527       0.36228400      -0.24885562       0.16231513      -0.11076053       0.24365920      -0.02679191
Na      25.00015958      21.57571998      55.83951962      -0.25515269      -0.22591684       0.01018106       0.08263049      -0.00658449      -0.06433757
Na      24.99254306      21.55727030      52.27572722      -0.43809058       0.11903437      -0.98734942       0.09719387      -0.04110092       0.05606756
Na      21.38344945      25.06883405      53.33461537       0.39206610       0.15310994       0.79093337       0.07341194       0.15557331      -0.05550818
Na      21.32891539      21.80896610      52.79224845       0.36872728       0.04439908       0.11849635      -0.28343416      -0.25914653       0.29385705
Na      25.06565886      25.20865290      49.25485853       0.06725015       0.07098835       0.43870431       0.13055851      -0.06447018       0.25397307
S       15.72627344      15.72314343      43.33403765      -0.69118638      -0.00142020       0.31506977       0.13857556      -0.31378250       0.03929183
S       15.72647158      19.95952665      47.86885422       0.15864683      -0.14503982      -0.52272669       0.01090867      -0.01471593       0.06147370
S       19.91332721      20.33031765      43.33330529       0.97357239      -0.08340234       0.10018431       0.08411268      -0.22693412       0.23422753
S       20.22872709      15.75894578      47.87448659      -0.21335847      -0.20939829       0.29867060       0.37641238      -0.04724832       0.34780761
S       19.42456113      16.66519382      44.12276875       0.15177196      -0.62285261      -0.16889722      -0.01622332       0.06118719       0.36055114
S       19.13186446      19.32768626      46.94249837      -0.48521570       0.44491077      -0.05077008      -0.01473032      -0.09524609      -0.16166382
S       16.44326462      19.06542628      44.05876154      -0.28777429       0.10810999      -0.07717564       0.12038211       0.21813263       0.21051082
S       16.61848623      16.37062105      46.78354219       0.35981759      -0.81708681      -1.06979633       0.37483253       0.01017147       0.19122801
S       15.93437651      15.57779762      50.66613071      -0.00102032       0.03667978      -0.63593626       0.28890307       0.29614826       0.07035614
S       15.59936466      20.15430478      55.15055227      -0.11566402       0.14537877      -0.33778451      -0.15049820      -0.22452780      -0.18495609
S       19.89493046      20.17556012      50.63629035      -0.44755403       0.21286123      -0.10343815       0.34912204       0.31932743      -0.24475137
S       20.28173769      15.85641118      55.11113811      -0.48095078       0.32185717       0.63083947       0.14384405      -0.09406303       0.08428784
S       19.55574047      16.76942451      51.64832585       0.74460848       0.07626406      -0.02522067      -0.24024351      -0.00610729      -0.02438681
S       19.05782392      19.48624480      54.32921719       0.51331449       0.62378855      -0.11640689       0.06310797       0.10244672      -0.10677301
S       16.45929521      19.11759678      51.46493916      -0.33528372      -0.50441860       0.89409674      -0.23368369      -0.05958449       0.06295057
S       16.79097585      16.47317366      54.30539554      -0.48452520      -0.31794610      -0.05889823      -0.45418321      -0.08553608      -0.06544745
S       15.71936375      22.71990280      43.48483863      -0.38810903       0.06987013       0.42116520       0.12665691      -0.00901979       0.16310904
S       15.64090946      27.07595465      47.95961285      -0.07637907      -0.71813323      -0.41390398      -0.18742573       0.10530407      -0.01372815
S       19.96717625      27.52417281      43.38281807       0.43334842       0.12669104       0.85373623      -0.03071672      -0.05786388      -0.13771100
S       20.17586360      23.02123806      47.96286245       0.20659538       0.03499060       0.23969041       0.19929557      -0.00571256       0.21837348
S       19.37658052      23.81842288      44.26675439       0.61636947       0.03525938       1.03690077      -0.02296690      -0.05029658       0.19802943
S       19.27560469      26.54712694      47.01817518       0.26574173      -1.19006758       0.89410889      -0.24740121      -0.29683937      -0.36500195
S       16.42145920      26.28908752      44.38460991       0.15798064      -0.10554274      -0.19499707       0.13385687      -0.10112707       0.09768478
S       16.73740060      23.58147443      47.10526224      -0.17751878      -0.01319305      -0.62009731      -0.03866353       0.01753530      -0.11091382
S       15.67806747      22.75304256      50.71509754       0.20311422      -0.37183217      -0.74614362      -0.19544509      -0.34314389      -0.42159700
S       15.53112444      27.31762110      55.10885706      -0.66512397       1.10633728      -0.39171802      -0.26360172       0.14779187       0.21316833
S       20.07972397      27.36512254      50.64693394       0.29144140       0.09193456      -0.83483733      -0.23455637       0.00468948      -0.04783375
S       20.14989733      23.12552515      55.16943895       0.10779804       0.26595093       0.14469580       0.41449928      -0.31075783       0.43195744
S       19.32772479      23.71462820      51.56596551      -0.04737374      -0.30229587      -0.10976598      -0.08667015       0.21982676       0.14779274
S       19.07736104      26.67748637      54.08387408       0.17941661      -0.51112317       0.12449381      -0.01976007      -0.23423439       0.08631780
S       16.44635569      26.20375437      51.37684254       0.29209570       0.73249321       0.49841607      -0.26637249       0.23550701       0.09506836
S       16.55687895      23.65064340      54.25445327       0.22693983      -0.83345908      -0.00915249       0.03614204       0.18317901       0.02213939
S       22.93897096      15.58930984      43.54976650      -0.12724696      -0.84822765      -0.86278205       0.05530044      -0.02789856       0.00557902
S       22.58180172      20.17283652      47.81244115       0.14268345      -0.26972111      -0.72062958       0.07394952      -0.16508380       0.21317735
S       27.02505989      20.33263958      43.29333735       0.18368820       0.43426210      -0.12823103       0.29599912      -0.19548663       0.14943224
S       27.37634502      15.84169589      47.89207733      -0.27395742      -0.41592272      -0.59669069       0.22287280      -0.25535286       0.39686291
S       26.57177418      16.62753155      44.34463107       0.64038851      -0.22313621       0.16220049       0.05106723       0.44881038      -0.01766235
S       26.26829894      19.49443081      47.04466961       0.46379805      -0.01104846      -0.12899697       0.14473894      -0.13608765      -0.04965449
S       23.62160583      19.23616115      44.34692550       0.09336164      -0.53170864       0.14173492       0.04909379      -0.13098380       0.06923472
S       23.88180443      16.43576523      46.95039927       0.09100098       0.85807975       0.90764556      -0.18783031      -0.20915201       0.45813975
S       22.99168348      15.57870240      50.63054769       0.32513586       1.05998895       0.08135316       0.58576920       0.64233337       0.29277602
S       22.69893711      20.05413564      55.07009391       0.20981284       0.44058843       0.83384122       0.02927693      -0.02646833      -0.11171764
S       27.22339012      20.07311854      50.60419701      -0.05600349       0.62343701      -0.68662588      -0.00000294       0.28574141       0.04440143
S       27.38032905      15.88189465      55.25048331       0.39176942      -1.55244488      -0.93753387       0.34846513      -0.27344045       0.40516735
S       26.69795051      16.65417580      51.60861885      -0.06716048      -0.19780542      -0.40957825      -0.03002143      -0.14153916       0.00091236
S       26.37258475      19.46560673      54.21931922       0.00500427      -0.29703444      -0.30457086       0.07332829       0.25541662       0.02083843
S       23.83806077      19.18729213      51.32387950      -0.21963187       0.34630486       0.23233564      -0.32236071      -0.13900468       0.14255779
S       23.93073691      16.52170223      54.23954063      -0.52120210       0.25637764      -0.15014826      -0.14528894       0.14422613      -0.06258773
S       22.86950171      22.90583154      43.38909613       0.06369650      -0.50008786       0.39386949       0.39666983       0.12692187       0.55155152
S       22.70221343      27.22578646      47.95260369       0.60120261      -1.64210378       0.44335775       0.41891100      -0.35967967      -0.36606940
S       27.03920409      27.31812883      43.25950358      -0.86979721       0.00332382      -0.21080121      -0.34936759      -0.24504363       0.58530205
S       27.30240752      22.97662567      48.09862767       0.23880734       0.34831864      -0.18344184       0.27366370      -0.14564189       0.01872470
S       26.50713886      23.83907732      44.38326606      -0.52078305       0.14362400       0.29396908      -0.37311745       0.27847570       0.42725432
S       26.34857798      26.64605553      47.10011547       0.06306954       0.09623629      -0.22964633       0.04076404      -0.01039911      -0.13681604
S       23.50618318      26.35812691      44.47222661       0.30602957      -0.77523650       0.09268538       0.18256263      -0.07142497       0.04987783
S       23.90201552      23.61523547      47.23886460      -0.46714421       0.04161744      -0.40976981      -0.04087561       0.34110347      -0.43056738
S       22.85795964      22.70835417      50.77264111       0.70053771      -0.77938405       0.68889060       0.24163076       0.14272850      -0.25003561
S       22.73007865      27.20327661      55.07286509      -0.28806429       0.01733452      -1.36734368       0.09052249      -0.07947651       0.18811881
S       27.23433717      27.42694231      50.70252325       0.51302171       0.33894725       0.29404643       0.41402640       0.27998186      -0.37180865
S       27.42820902      23.10434675      55.12412734       0.09786982      -0.33961775      -0.30173039      -0.32665978       0.05525066      -0.01834628
S       26.63685930      23.84448923      51.57172340       0.43859728       0.15710492       1.20266487      -0.12573657       0.06707199       0.07850319
S       26.26463493      26.60454182      54.25488436       0.21159513       1.04086039      -0.26024124       0.21254725       0.02282116       0.23446604
S       23.63348049      26.28618542      51.56850379       0.29355028      -0.04855950      -0.52415835      -0.22006300       0.24359600      -0.33375811
S       23.74846838      23.54872013      54.11597530       0.09280023       0.13934260       0.07756272       0.20131652       0.09796982       0.26210943
Sb      14.34092343      14.31652111      56.44441507      -2.53396477       1.10408329      -0.99880756       0.61968912       0.60768565       0.27413283
Sb      17.91945944      17.89101424      45.49763364       2.19505451      -0.97524850       1.20507423       0.03088718      -0.09654725       0.04965442
Sb      14.41901631      28.63821421      49.26033813      -1.76469335       0.13670427       0.08270756       0.28199430       0.04850555      -0.09560530
Sb      17.92552766      17.98005545      52.91667608      -0.35639696      -0.18889017      -0.28393531       0.50603722      -0.21024612      -0.09142004
Sb      14.26388338      21.57806231      42.02761838      -0.17696846      -0.54150374       1.09098508      -0.05300361      -0.17488638      -0.08894712
Sb      17.95300212      25.02919489      45.70067276      -1.12416526      -0.62145313       0.19419159       0.09398947       0.47533471       0.17034570
Sb      14.41369131      21.43534598      49.16508381      -0.65119017       0.36693633      -1.43965450      -0.76820210       0.17976248       0.52903501
Sb      17.84408243      25.06229819      52.86180319      -0.28357862      -0.83983094       0.50592474       0.35969049      -0.23055711       0.05130740
Sb      21.49625299      28.80421208      42.07809542       0.14518653       0.37677406       0.25861238       0.04647718      -0.86554126       0.06662691
Sb      25.11399972      17.95055915      45.67251325       0.73447179      -0.62465992       0.71453400      -0.12532992       0.16881808      -0.41960979
Sb      21.59256557      14.34564462      49.28607419      -1.04042135       0.77921110      -0.69016235      -0.96019095      -0.29610462      -0.49372297
Sb      25.18798436      17.98356937      52.84836819      -0.37849402       0.93103869       0.95889989      -0.09730126      -0.30491747      -0.13962017
Sb      21.41163716      21.63713419      42.08604330      -0.25890076       0.65835568       0.90752028      -0.07317848       0.04176338      -0.31274802
Sb      25.06124225      25.15173593      45.80140174      -1.21609963       0.18024181      -0.48256406       0.12140535      -0.52981110      -0.19362133
Sb      21.39306716      21.52925375      49.36665266      -0.42246156      -0.68627524       0.27318494      -0.38111542      -0.26874458      -0.54588803
Sb      25.11360259      25.08209765      52.90766987       1.37449709      -0.94361986      -1.27275601      -0.07631950      -0.43307701      -0.22541842
Na      28.72642843      17.88308988      56.98351705       0.62073945      -0.25330461       0.39598217      -0.16971958       0.36217331      -0.22028660
Na      18.07099689      28.69552317      63.33025607      -0.77331224       0.27778761      -0.18548664      -0.24953341       0.04386022      -0.15657051
Na      17.98867350      14.29326546      59.54770939       0.67920600       0.77415429       0.34531708      -0.06308550       0.20817128       0.06005402
Na      14.41034736      17.86260040      60.79271687       0.45147902       0.35758944      -0.82078632      -0.12812252       0.05750178      -0.00658604
Na      29.03078708      28.18422486      59.85121732      26.78030963     -36.77338981     -25.57697842       5.84577953      -9.53531875      -3.11296000
Na      17.88737395      18.07689890      56.56076486      -0.86812320       0.33215726      -0.89378645      -0.00958722      -0.03494184      -0.02873554
Na      14.40767058      17.69943953      64.39980815      -0.11887481       0.21312108      -1.00538564       0.12819428      -0.03567748      -0.09190647
Na      18.00750388      14.22101184      70.45900736       0.65482624       0.07944592       0.64138422      -0.01881369       0.08588871       0.05856763
Na      17.94019910      14.08470886      66.86141535       0.03048724       0.60256203       0.40290939      -0.08291704       0.23124867       0.00516593
Na      14.66112686      17.80329949      68.04910596      -0.40068530       0.12676170       0.06354009      -0.22802746       0.30565095       0.24379974
Na      14.62975768      14.11564410      67.52439834       0.51423425      -0.89206235       0.12494597      -0.07942489       0.15420032      -0.04590891
Na      17.93358185      17.87064586      63.95152417      -1.20272032      -2.77334135       0.04759787     -17.93043680     -45.98737907      -2.16983792
Na      28.67481508      25.05352390      56.84189466      -0.08603865       0.61220906      -0.69015989       0.09281484       0.24680756      -0.05520048
Na      18.00419863      21.54355985      63.12089158      -0.20241648       0.13382565      -0.06722289      -0.98357016       2.64245584      -1.55189526
Na      17.85112117      21.51747118      59.69787442      -0.55273994      -0.80134140       0.24133462      -0.16474101      -0.10665494      -0.10206138
Na      28.66755680      25.10118073      60.40814027       0.49541175       1.00050223       0.31587150       0.29464050      -0.29621038       0.08936358
Na      28.41020320      21.34779510      59.77935509      -0.20957140       0.10942819       0.12817412       0.28368765       0.11427009       0.38555723
Na      18.21341093      25.17847589      56.65996279       0.36195616      -0.02215513      -0.55452576      -0.22486379      -0.03280185      -0.19829514
Na      27.82774834      25.19902667      63.53651199       8.62696084      -1.19978193      -4.64154469       4.34939847       5.16013872      -0.05328816
Na      18.22400842      20.92010863      69.99924056      -1.16479456      -0.76315286       0.70605003      -0.18085976      -0.18677945       0.25695366
Na      17.66528882      21.55977361      66.30101227      -0.46741014      -0.51264871      -1.33628719      -0.34302352      -0.95689956      -0.88340528
Na      28.78279000      24.84346723      67.45681417      -4.77095784      -1.12340277      -1.50872908       0.07205313       0.99320897      -1.10336214
Na      28.56693829      22.47891580      67.02371211      -2.40128737      -0.90185879       1.47174149      -1.11189398       0.91724638       0.63592718
Na      17.98280670      24.92658491      63.94623498       0.25517840       0.65232891      -1.10407900      -1.04242019       0.48228347      -1.68904100
Na      21.46746204      17.93444143      56.74809109      -0.46438341      -0.14521965      -0.05288226      -0.04451177       0.03312064       0.06358297
Na      24.29748740      28.67542320      62.56600873     -20.93621420      -4.60199095     -16.63454727      -3.81532560     -11.67981430     -15.82458288
Na      24.96614839      14.36663780      59.53553005      -1.45508822       1.31551696      -1.35945511      -1.17586322       1.30936205      -0.68908550
Na      21.45268989      17.75987405      60.34306452      -0.88016187      -0.46655984      -0.14288992      -0.10010200      -0.05410152      -0.03896096
Na      21.43011040      28.27653030      59.95710497      -0.23986274       0.24961701      -0.24748744      -0.23331564       0.41002579      -0.14861921
Na      26.56398797      17.82056527      73.66468520      -3.20039484      -8.50727174       1.52152964       1.14652901       1.93617945      -0.41895236
Na      21.52735998      17.97466602      63.54758256      -0.21082964       0.40703311      -1.37531457      -0.41813721       0.16897093      -0.25310029
Na      25.44160544      16.08560357      69.74651474      11.22616192       3.80702482       4.39365214       0.03868162      -1.65123537       1.14659991
Na      24.93361659      29.16014478      66.71728824      -0.60249120       2.81107905       1.39931511      -1.40336403      -2.27304653       0.38400243
Na      21.03107002      18.10215774      66.96026856     -16.72330890       0.43788591      -6.56691340      -4.59035830       4.47565445      -6.06869018
Na      21.41482872      28.90635786      67.53792972       1.90255381      -1.17135214       0.15164882      -0.47864648      -0.14843677       0.41142312
Na      25.45956117      17.64411135      63.42706531       1.31836406      -1.59436524      -0.50133650      -0.46877290       0.41278172       0.07113402
Na      21.54656141      25.08349493      56.92549038      -0.32402499      -0.34151851      -0.12867448       0.07733774      -0.15385310      -0.04222672
Na      24.51543553      21.95960888      60.86646007     -29.60849596      22.42748867     -44.75526662     -51.29670219      34.61308195     227.60407102
Na      24.96991338      21.46890725      59.39121012      10.57083340     -11.56788758     -50.43597025      74.69163627     -80.46599838    -241.55352175
Na      21.33271242      24.99280212      60.67562665       0.46598690      -0.45722982       0.11551597      -0.10987293      -0.05527288       0.01459051
Na      21.41780490      21.43698074      60.20214454      -0.53645625       0.52878021       0.35202502      -0.36339612      -0.07862438      -0.00249278
Na      25.10874130      25.01300297      56.36026022      -0.79456512      -0.13051286      -1.14289068      -0.09176926       0.11121131      -0.07313807
Na      21.40454210      24.92918761      64.54904380      -0.66203141      -0.06156481      -1.00601096       0.34403633      -0.13318175      -0.61679627
Na      23.91975467      20.46042491      69.89776774       1.96525709      -1.28797096       2.06333556      -2.45468026       1.30709618       3.06165081
Na      25.78506970      21.46492170      66.60845084       4.30860423       4.82740111      -2.08773862       0.47817447      -0.03500296       0.57363279
Na      21.47910848      25.47841211      67.53681779      -0.29402107       1.42651636      -1.20190826      -0.93211970      -0.60502267       1.26290173
Na      22.16169792      21.42832741      67.91047591       1.47074010       1.08116546       2.62230495      -0.14944521       0.53433010      -0.26219189
Na      24.05670871      25.23397581      63.42287065     -54.87141803      -5.11372623     -13.67834050     -14.37477771       7.04132347      -3.70659291
S       15.86532406      15.61799779      57.78928646      -1.20050825      -0.38189641       0.25362107      -0.33241147      -0.27892675      -0.15706100
S       15.75909271      19.86293963      62.70843496      -0.44972967       0.60709366       0.81439564      -0.22532293       0.02997134      -0.32465627
S       19.89932090      20.29911718      57.80520330      -0.18468788      -0.26948312      -0.45448321       0.46825560       0.14607582      -0.16704550
S       20.22667953      15.77548596      62.48929802       0.55129465      -0.27677592       0.49626167       0.29376032      -0.52090219      -0.18995559
S       19.30852765      16.71754752      58.78426853      -0.58216783      -0.45983838      -0.74463577       0.23649209      -0.10717519      -0.37469096
S       19.14053986      19.42675578      61.47938973      -0.36875046      -0.04935453       0.19672685       0.40233464       0.52318598       0.66452553
S       16.26545493      19.18619522      58.85961674       0.81339557       0.64864427      -0.39699865       0.22643656       0.09909642       0.17297499
S       16.71712684      16.43626845      61.50214354       0.09644521       0.68947087      -0.34751935      -0.24822963      -0.24927710       0.28549065
S       15.96290817      15.39512459      65.02688812      -0.84846180       0.04778604      -0.09636505      -0.05287680       0.05584625       0.24723831
S       15.67152016      20.05679463      70.42492115      -0.04483975      -0.47266862      -0.10994888       0.10886095      -0.51402374      -0.30385121
S       18.62999518      19.66030924      64.04272855     -75.30244068     -29.94014961     -68.83188911      19.67064734      42.99964452       3.19409219
S       21.04383806      14.27072782      70.57144272       0.24182826       2.04842146       0.12322619      -0.09618326      -1.17546565       0.22538331
S       19.39911173      16.53460450      66.46418200      -1.82319120       0.20751832      -0.16368896      -1.08799346      -1.60561154      -0.76444945
S       20.16419554      18.98096756      69.44110255      -0.57077936       1.20319064      -0.54874005      -0.94175241       0.40903785      -0.44329858
S       16.69657711      19.13151151      66.66928643      -0.50162303      -0.46315595       0.43962563       0.09825443      -0.34644488       0.38079502
S       16.66529221      16.21715335      69.06891832      -0.20689629      -0.63880579       1.14412907       0.11959815      -0.30459809       0.04726907
S       15.58451774      22.83150051      57.89080340       0.55780305       0.58618483      -0.38216085       0.03688335      -0.16841971      -0.16049622
S       15.68681500      27.26613311      62.64446809      -0.58742089       0.33554353       0.12009490       0.04574178      -0.09369608       0.10234955
S       19.97541963      27.24732152      57.74808368       1.43884458       1.07824230      -0.45259691       0.03521514       0.17286656       0.04170446
S       20.30490482      23.07304636      62.83682764      -0.10598016       0.52964092      -0.38813472      -0.15990798       0.56279780      -0.65169857
S       19.37688430      23.72766335      59.02972994       0.56526130      -0.35427554       0.25437844       0.53297710      -0.25536082      -0.52599008
S       19.20060915      26.70181594      61.36821667      -0.57874008       0.07078117      -0.00768014       0.18995562      -0.01899530       0.54484837
S       16.41646251      26.21504950      58.85285720       0.49355163      -0.08033740      -0.50605346       0.12211034       0.05019123      -0.08717836
S       16.67077686      23.65074671      61.59353261       0.39706620      -0.26772756       0.05819966      -0.26114130      -0.22262698       0.37388550
S       15.51021313      22.92567859      65.14715825       0.55850088       0.83143122      -1.38679154       0.23695447       0.14370953       0.25323058
S       14.64625802      27.44956886      70.38469311       0.03074202       0.90473540       0.23532260       0.12852143       0.26257872       0.22486249
S       19.91242426      27.47834538      65.17395992       1.25398402      -0.18352886      -0.24608776       0.63538559      -0.19387683      -0.11871992
S       21.30913319      21.31960705      70.59901894      -5.41133749      -1.53372144      -2.38252487       0.43792083       3.88836789     -10.10123991
S       19.20713781      24.52998280      65.95545869      -9.94014647     113.72408581     -65.51144589       6.16421448       6.78192139     -12.05479026
S       19.22742266      26.16954136      69.27370599      -0.15115673      -0.09815086       0.05014326       0.38354769       0.18585131      -0.17087557
S       16.50058710      26.29207951      66.41948009      -0.44371811      -0.76994382       0.96460225      -0.41950353      -0.32505251       0.23141298
S       16.70688595      23.38393779      69.17245177      -1.02769121      -0.20183425       0.21297875      -2.58930893      -0.20634668       1.70092442
S       22.90827841      15.58975001      57.86675474       0.49786730       0.38526442      -0.91690745       0.36014329       0.13434240       0.38707912
S       22.67400312      20.17787449      62.53414915       0.41288021      -0.05998879       0.73862972       0.31262981      -0.28298575      -0.64864957
S       27.10115357      20.27673578      57.65152763      -0.08745439       0.71135091      -0.12773294      -0.53998057      -0.45511280       0.51001298
S       27.43719066      15.82887568      62.80015525      -0.83510077       2.14015620       1.63583501      -2.07887906       0.20575406      -3.61444950
S       26.57320510      16.71452429      58.84753121      -0.19781599       0.84701570       0.37710132       0.53303873      -0.52406337      -0.49851290
S       26.22175192      19.54114867      61.39622324      -0.91068574      -0.70155718      -0.15425018       0.06274650      -0.17410340      -0.50003357
S       23.52469353      19.18942417      58.76316483       0.18479100      -0.23920511      -0.92133588       0.04793954       0.00190030      -0.22947726
S       23.80298708      16.55730863      61.41472267      -0.68721254       0.32661465      -1.40725108      -0.09438448      -0.54718801       0.35087403
S       22.34060602      15.73591316      64.63892585     -27.18108449      13.90289094      -6.52487492       7.18390930      13.34526776       7.43653398
S       22.03499094      18.27732355      72.11585934     -10.72425767      -3.37319128     -12.67386580       3.78709972      14.72228193      11.86213442
S       27.25516349      19.96642265      64.85303533      -1.58466196      -1.17819997      -2.73089247      -1.54033969       1.18798454      -1.58913967
S       26.42668294      14.71339985      72.03703194      -2.42486658     -14.13217492       7.36200410       0.16848535       0.37059879       1.08295881
S       26.61298954      17.63353231      66.78809227     -10.15528338      22.84617484      15.65563734      -1.09775252      -1.65694088      -2.22627433
S       25.75639722      19.98107715      68.78961614      -6.36746661       1.11386608      -4.60822304       7.84286899      26.16083471       5.98680083
S       26.96340804      23.06892137      63.75495105      89.21862548      80.26621329      18.29683909     142.58129138    -181.27022867      31.12719435
S       22.39182797      17.32029533      68.35334746      -1.57784704       6.84315586       5.31575166       7.09017848      -3.06090611       6.00319707
S       22.97807412      22.62778136      57.80120005      -0.27603649      -0.11193828       0.68065765       0.22541478       0.43333804       0.20478437
S       22.63630340      27.19157078      62.09410893       0.84131440       0.98656396      -0.50892226      -1.02728857      -0.93692086       0.79700971
S       27.23031686      27.39079542      57.84451199       0.29067392      -0.19368372      -0.54328966       0.00426148      -0.06827192      -0.31175617
S       27.22332047      22.97532843      61.97488767      22.57789637      10.01160594     -63.15391971      23.79059277      -9.18249026    -167.69856254
S       26.41727581      23.78783382      58.62565564       0.02890055       0.94352389      -0.34341079      -0.34552925       0.06062507       0.17846371
S       26.30446127      26.46732544      61.35526417       0.48430488      -0.01809551      -0.36862302      -0.39646561       0.19714255       0.27148189
S       23.41178309      26.30970450      58.77267257       0.38065694      -0.45081757      -0.32627292       0.16241934       0.12267433      -0.10616736
S       23.68594580      23.59886409      61.38603851      -3.81595062       6.65750212      -0.29974254     -23.37070950      44.16187672      13.66130439
S       24.05932438      23.12975306      65.14416833      -0.01420616       4.47188721      -1.00150301       0.97218723       0.19946071       0.89332828
S       22.50210516      27.82937285      71.60318313       0.99803561      -1.03868157      -1.79226324       0.21692315      -0.40593903       0.03107414
S       27.87921570      27.12304206      65.56077310      23.47537630      -7.63570392      29.10454701      -0.91231229       0.86587950       1.03759571
S       28.53361186      22.29525765      70.86441237      10.49878647     -23.70620741      12.77906485    -158.91204987      48.00929606      67.52001687
S       26.36809187      23.69224279      65.44770691       6.39028188      -0.54826987      37.80633958      36.86807126     -51.70818919     311.60911022
S       24.85697334      26.62888325      66.47181051     -25.64225975     -14.71603371     -50.30306267     128.28927395      22.57321596      28.11687026
S       23.07234332      26.34280070      66.05661798     -20.12173067      -6.21306726      -0.47645931    -127.25636547     -20.03230922     -30.98768893
S       24.03583652      23.72094759      70.38438381      -0.65460930       4.63118073       2.40290101       1.26887135       0.51146318      -1.81006074
Sb      14.78478862      14.71442169      72.66804710       2.38876572       2.00592977       0.84718602      -0.18582734      -0.27099161      -0.08895674
Sb      17.85452229      17.94474667      60.15437245      -0.33071273      -0.00718887       1.90093569      -0.39670867      -0.04425709      -0.38462023
Sb      14.31221497      28.58498911      64.03120972       0.96257516       0.07427390      -1.46119238      -0.31735862      -0.32441254      -0.03968240
Sb      18.25056722      17.77799676      68.07313989       0.73683944      -1.66607455       0.32594910      -0.78644281       0.50934356       0.40021093
Sb      14.21527064      21.56139441      56.40571254      -0.22118817      -0.81514855       0.18147261      -0.23685503       0.44571598       0.53526633
Sb      17.94830419      25.07963037      60.26472859      -0.49016780       0.00819998       0.28857644      -0.52766886       0.30473972      -0.37970843
Sb      14.34324918      21.37595595      63.78068175      -0.39453746      -1.33012052       0.91577501      -0.25639958      -0.10806283      -0.46029478
Sb      17.86717583      24.94181056      67.78287230      -2.17213283       1.30332056       3.27127077     -13.90751669      28.34683659       4.45007597
Sb      21.43584663      28.61018413      56.45156189       1.64883212      -1.11135195      -1.57500287      -0.22906194      -0.23827451      -0.32897368
Sb      25.05061240      17.94308130      60.06299466       0.62802645      -0.68000706      -1.84818136      -0.36550779       0.93021724       0.41568790
Sb      21.61366262      14.17257799      63.87681336      -4.12160032      -8.77195227      -1.36041913      -7.60467694     -11.92674925      -7.79339391
Sb      25.16590910      18.32407542      68.37699150      27.07466864      25.15795362      51.56150690     -10.63388587     -26.87700166      -5.64092185
Sb      21.44991019      21.51651203      56.41459806      -1.34898123       1.00113145       0.92958404      -1.11285399      -0.14234790       0.06113274
Sb      24.92027251      25.04510762      60.01605439       0.28486540      -2.23715114      -0.82680093       0.75650388       0.59602401      -0.21197914
Sb      21.69946109      21.62967998      64.10737816       2.55212409       1.66897469       2.47227045       0.73524563       0.51484322       2.24881067
Sb      25.24118565      24.82629842      67.66372681       1.86245452      -2.48921240     -10.36830461       5.24971996      -6.62615016       4.18992702
Na       0.33433303      -1.86406063      75.10150792      -3.05359774       1.63965172      -1.70469760      -0.26602834      -0.13577990       2.66414782
Na       0.15016938       2.29558312      75.52044631     -17.31426414      -3.96353069      -5.20413908       0.92241990       0.44949071      -0.83537503
Na       0.21114893       0.55458006      78.26665261      -0.76409696      -1.79129229       0.41953897       0.18173382      -0.42558974       0.04771641
Na       2.49430522       2.00810052      80.06283020       0.47230288       0.12661355       1.51595049      -0.08955934      -0.06069382       0.13876343
Na      -0.07019607       0.25912468      81.91807714       0.32742861      -0.19222017      -0.16154218      -0.03332738      -0.27550339      -0.02714434
Na       1.93639729       1.84876017      84.25964687      -0.40479727      -0.36589040      -0.06539250      -0.41308306      -0.30398263       0.19593026
Na       0.03754436      -0.32375007      86.02134794       0.47167113      -0.85554291      -0.82643900      -0.05269421      -0.00005356      -0.04180874
Na       2.19119213       1.90954089      88.14377785       0.38821799       0.68469383      -0.15057738      -0.10085107      -0.03825181       0.04258182
Na      -0.34082257      -0.06133780      90.07327990       0.47259666       0.08415514       0.35954888       0.10037029       0.14115895       0.01185997
Na       1.77938018       1.83765471      92.15367119      -0.89039771      -0.05953730       0.56897991       0.06953232       0.03199230      -0.08859038
Na      -0.19814696       0.04862792      94.49055854      -0.10671140      -0.27340172       0.00554045       0.01938706       0.08105795      -0.03452278
Na       2.36446540       1.78194401      95.99655136      -0.50304024       0.26090399      -0.33903356      -0.03073483       0.10100424      -0.00040160
Na      -0.34164280       5.10539919      70.15485026      -4.62032111     -10.48939354     -47.64874650       0.80123000      -0.99693302       0.76626527
Na       3.16108494       8.64823334      75.07604875      33.43272028      26.41332027       8.98378437      -2.10356214      -0.98691803       1.18321542
Na      -0.01693790       3.48684620      78.45081689      -0.04585361       1.21253124       0.49327220       0.02374107       0.56975727       0.02611365
Na       2.01096414       6.10036180      80.20457448      -7.02270521     -15.70264873      -4.87308790       0.16884671      -0.02936705      -0.17907726
Na      -0.02547072       4.03663759      81.92283786      -0.58505009       0.71004167      -0.79597440       0.01824375      -0.11164944       0.02518938
Na       2.32573356       6.07050947      83.95611865      -0.19370730      -0.19145162       0.78954538      -0.28070989       0.30508744       0.08492522
Na      -0.10002964       4.11039445      86.23343032      -0.07015322      -0.13371323       0.02782007       0.14068307      -0.02105405      -0.15252891
Na       2.18593423       6.14661538      88.21600377      -0.50505326      -0.07654400      -1.55640644      -0.08317362       0.02531142      -0.01302547
Na      -0.10528756       3.96744307      90.14024307      -0.16081427       0.39356175      -0.32678593       0.08684384       0.01466669      -0.06977087
Na       2.07264583       5.97078276      92.07020072      -0.04448229      -0.43995497      -0.19731426      -0.04352307      -0.02861145       0.02204109
Na       0.19335940       3.91608391      94.28538724       0.11998628      -0.27337828       0.42909043      -0.05643168       0.12333000       0.08383859
Na       2.42600947       6.19825847      96.11669393       0.02858278       0.50518029       0.01274022      -0.14526429      -0.07429598       0.03794242
Na      21.90556972     -51.60672272     106.88428516     108.03789263    -598.49999946     239.91354870    -666.40437770    -436.06809157    -720.92647100
Na       2.97561325      12.66666585      78.57047645      -1.14699553      13.88360894      30.64605728      -7.66384602      -1.61137946      -0.79866193
Na       5.69905751       5.70735325      77.39247999      38.99189226     -51.39117200       7.46906281      -1.23515967      -1.40178265       4.90273064
Na       2.57378126      11.14070489      80.42896295      11.41017462      17.07461220     -14.44015965      -1.14150879      -0.69148645      -0.44714915
Na       0.01931770       8.49405437      82.28348280      -0.80385719       0.12893751       0.06178827      -0.29818403      -0.38159052       0.14182763
Na       2.00672251      10.48241343      83.90348476      -0.12607107       0.11501554       0.29943414      -0.09108565       0.38894470       0.52436558
Na       0.09698241       8.16477740      85.92781241      -0.16189563      -0.11836190      -0.77718148      -0.02289118      -0.00463800       0.08923928
Na       2.08133961      10.20428337      88.20725582      -0.01512327      -0.04198233       0.38982530      -0.02222962       0.00138782       0.03558879
Na      -0.00872102       7.83339839      90.30452688       0.11529768       0.53215448      -0.62818566      -0.08133255       0.16761775      -0.03836422
Na       1.93961171      10.04425080      92.08119376      -0.09689298      -0.26667273       0.38887335      -0.07140107      -0.01091533       0.07900264
Na      -0.03718992       7.89386084      94.35044652       0.18142171       0.03278848       0.66283628       0.06818837       0.01781384      -0.12194356
Na       2.02208640       9.91621266      95.99740582      -0.35360600      -0.75776388       0.68431177       0.02385424      -0.00348548       0.11164470
Na     -37.34033509      90.41767321      85.10293303    -402.45441532     937.79519356     118.76304486    -225.54606751     131.81271285    -515.97725017
Na      -2.27249102      11.42549959      72.66278488     -37.66958230     -28.94422884      -4.21302690      -0.34106591      -0.10299615      -0.32042531
Na      -3.48915738      10.33576668      76.52561579     -39.94431612      -2.28123791       6.05071557       0.33451646      -0.04338627      -0.15920178
Na       2.44680056      14.25163587      80.29942620       0.05003428       0.97127540       1.34329790      -0.64086168       0.93466350       0.55718759
Na      -0.60691038      12.47865363      81.83693285     -26.25276303     -11.50682319      -7.98665607       3.87167353       3.88659010       0.54807067
Na       2.24035691      14.66699842      83.40402502      -0.71968133       0.15741148      -0.83791319      -0.18840131       0.12319233       0.23920040
Na       0.05944656      12.34990658      86.08542562      -0.46045451      -0.06808310      -0.65236388      -0.03959251      -0.02082847      -0.06250062
Na       1.94357227      14.16670638      88.46646684      -0.36582125       0.95074233      -0.24502590       0.05253480       0.09075550       0.03649326
Na      -0.06613807      12.06205025      90.26659472      -0.60240475       0.02460523       0.36413599      -0.04297602       0.00512068       0.03175198
Na       1.88679604      14.19722821      92.20661032      -0.15514437       0.57302109       1.17657747       0.03008416       0.01948913       0.02035888
Na       0.05826234      12.08275415      94.39620216       0.81376597      -0.05261240       0.25508554      -0.00606843       0.06510488       0.03953882
Na       2.00435816      14.39222175      96.05556621      -0.02535289       0.87164875      -0.51686168      -0.01184227      -0.03483689       0.04884611
Na       0.30933715      17.52791658      73.49068216       5.88524449       2.68824587      -4.71850203      -0.94967884      -5.48113364       1.06904244
Na       1.26635535      18.29937591      75.50576421       9.32935582     -10.32257470       2.14954803       1.03827472       0.70408130      -1.18208319
Na      -0.09618512      15.63556705      78.78517094      -0.49892577       1.97122777       2.31002658      -0.14380693      -0.23199229      -0.37286079
Na       1.20387796      18.49783376      80.60734414      -0.49057872      -0.00556764       0.40166886       8.60932516      13.24898653      -5.69167572
Na       0.07615037      16.76331959      81.39440417      17.04507382      19.62153342     -21.13049705      -8.58799056     -13.12961359       6.77713270
Na       2.24278602      18.71864319      83.47542047      -0.50856407       0.49525467       0.24308717       0.02718645      -0.22517592       0.31826517
Na       0.21845212      16.35141009      85.94464167       0.43227779       0.35378306      -0.62910936      -0.01781802       0.00707472      -0.19120805
Na       1.94020097      18.38309407      88.20385206      -0.20110393      -0.35006787      -0.03888466       0.04939418       0.04987800       0.05979835
Na       0.05806423      16.54793512      90.48375481       0.46892102       0.18990025       0.77189731      -0.08111662      -0.11635325      -0.08067212
Na       2.07941780      18.45687766      92.15248204       0.08177570      -0.04308396       0.47421925      -0.00600806       0.06773911       0.01977238
Na      -0.20492206      16.50078088      94.36630129      -0.26714490       0.67467496       0.84409031       0.10766541      -0.03327202       0.04194756
Na       1.85606568      18.54660882      96.23258659      -0.17832994      -0.06484900      -0.62700504       0.07175690      -0.02301515      -0.09841520
Na       0.75534661      21.20401431      72.91981271      16.45441976      -7.86283960       5.85014320     -21.35481905      11.26723543      -2.84379770
Na       1.91917716      22.70730300      76.17787662       8.55668823       2.79963884      -3.67927029      12.93906441       0.77434909      21.06451989
Na       0.62821624      20.41985864      76.65971483      -0.76304525      -2.11059030      -3.11040992      -9.52951625      11.46511199     -11.75328070
Na       1.48622954      21.71303049      81.04382249       0.69517235      -1.31466018       0.91373324      -0.54691908      -0.57981454      -0.34423774
Na      -0.22835620      20.32004757      82.95600685      -0.36145680       0.31968407       1.84287294      -0.15988323      -0.38260610      -0.35772352
Na       2.21521554      22.26503048      83.98890064       0.21144204      -0.13616439      -0.91850897       0.22462661       0.04727068       0.09494954
Na       0.11517820      20.71689457      85.74984206       0.41671336      -0.38346902      -0.73099794      -0.04012665      -0.06995350       0.40274587
Na       2.15070895      22.55395233      88.44040450      -0.04793901      -0.59292936      -0.59606044      -0.20384678      -0.08541532      -0.15780676
Na      -0.08070527      20.59628382      90.24658773       0.66639366      -0.06011189       0.31659320      -0.07479016      -0.09269433       0.00556351
Na       1.87501852      22.54554661      92.17859901      -0.23078271      -0.07533619      -0.10299284       0.03616774      -0.05988541       0.06524373
Na      -0.10986441      20.42416636      94.23393182       0.13792384      -0.75971383      -0.05126943       0.03458609       0.03626020       0.07102910
Na       1.86739014      22.35637315      96.17503694      -0.31181526      -0.06067108       0.34623377       0.09521705       0.03386852      -0.00997449
Na      -0.12183602      23.38949741      73.22587662       3.98332779       1.85201658       6.94732520       9.11806939     -29.52657806      -4.17384928
Na       0.76718254      25.01863972      76.71896893     -10.52271612      -2.45026943      -3.08342055     -61.79715551     -58.72176823     -52.37621237
Na      -0.69466441      22.96691874      77.01447361      -9.28752385       7.86238888       0.51327197       2.16951807      -3.12578627      -8.83090504
Na       2.22477922      26.39017833      80.46520932       0.86752074      -0.68515652       0.35479536       0.06856704       0.33014139       0.49706089
Na      -0.12492622      23.72384310      82.53871660       0.01587921      -0.77078616       0.62800729       0.21116743       0.48199241      -0.25482546
Na       1.96151834      26.16668279      83.58207609      -0.47965334      -0.79015486       0.09731442      -0.15705871       0.04395767       0.18479983
Na      -0.13405593      24.46563218      86.16738125       0.39365392      -0.35636255      -0.09269086       0.21504740       0.00620062      -0.00126533
Na       2.02298639      26.70350471      88.46879808      -0.25337801      -0.02243503      -0.88407439       0.04323145      -0.03982998      -0.07243288
Na      -0.23998174      24.55360126      90.29440055       0.22962288      -0.37352694       0.30410406      -0.01561426       0.01340962       0.03933170
Na       1.64501273      26.84012786      92.18413218       0.25908937      -0.41203803       0.63473774       0.14085242      -0.09644144       0.02638723
Na      -0.13962168      24.49761944      94.37018648      -0.23894372       0.12926844       0.20334450       0.08776880       0.11035939      -0.10501755
Na       2.13960788      26.70976986      95.88316935       0.35381176      -0.17208906       0.74314139      -0.02740920      -0.08639768       0.09711133
Na       4.01656933       0.70908595      73.64282186       0.02538466       0.51320857      -0.89918883      -0.30486664       0.06342156      -0.02477696
Na       6.62521401       2.30131046      75.75947834      -0.47075998      -0.03288017       0.47775762      -0.15140906       0.07936896      -0.00710033
Na       1.94475987      -2.49794725      77.72292530      -9.98558486     -20.84148834       7.35427418      58.80620142      56.55092428      47.47269829
Na       6.60444853       1.86825762      79.22494825      10.32432568       6.23436497     -16.09914583      -0.11326809      -0.04644196       0.14042132
Na       4.06288480       0.33032084      82.09960461      -0.35215830       0.30179664       2.04593319      -0.07517591      -0.19552151      -0.04472448
Na       6.02444772       1.91808480      84.29042919       0.19171396       0.04837393       0.49531448       0.37046998      -0.21578885       0.10980218
Na       4.35075330      -0.37687486      86.15812875       0.04444651       0.34550463       0.18466906      -0.23612176       0.12627466       0.07232693
Na       6.24382294       1.96389974      88.24215193       0.82106340       0.38523291      -0.23004962      -0.05560263      -0.03686938      -0.01039260
Na       4.24661189       0.20756765      90.39741270      -0.30992902       0.15559731      -0.02885400      -0.04654558      -0.19107968      -0.12908855
Na       6.26433458       2.06289456      92.24306989       0.16669632       0.08860207       0.79671731       0.05453420       0.00331458      -0.05025627
Na       4.27370828      -0.01600015      93.96751412       0.04674084      -0.49465247      -0.01989135      -0.04506201      -0.10026042       0.04035671
Na       5.99318762       2.07793518      96.05024148      -0.10312370       0.59766632      -0.32148566       0.13503403      -0.01042065      -0.04468070
Na       4.13690685       5.22320597      73.44082765      -2.18109743       5.85652778       1.77786408      -0.08657191      -0.17013214      -0.36024095
Na       6.11349133       6.46525094      75.27060158       1.36306538       4.63962879      -9.16020925       1.42303888       2.24705881      -5.75392078
Na       4.15898242       3.81637832      78.22555384      -0.70088636       0.22293920       0.65747109      -0.53001065      -0.36799570       0.05163876
Na       6.14211324       6.16323500      80.11689490       0.26279085      -0.81728458       1.13702212      -0.19203655      -0.28368519       0.56753330
Na       3.87736420       3.62072567      83.47975447      -8.68055875      -9.66476689      43.71621190       0.17679778       0.21866736      -1.04300910
Na       5.94511917       6.19686032      83.84027847       0.40384238      -0.01432574      -0.77898887       0.18258036       0.09318543       0.09071617
Na       4.08637459       4.05800114      86.24608868      -0.54276136      -0.62420677      -0.34649279       0.07168250       0.08892657       0.54868498
Na       6.07289795       6.20323200      88.22549340      -0.40159547      -0.30770692      -0.15857866       0.06045561      -0.02915663       0.02190840
Na       4.14243575       4.08692201      90.13473571      -0.48597668       0.26777229      -0.07342718      -0.00698105      -0.11310332       0.06247505
Na       6.25915069       6.05432716      92.08817355      -0.46075570      -0.10178328       0.26793829      -0.01200060       0.03941339      -0.05467386
Na       4.03224421       4.03847914      94.11100921      -0.36722794       0.12424006       0.45324501       0.04137646      -0.00967268       0.02081243
Na       6.10811506       6.03748138      96.05921176      -0.07016952       0.39435501       0.19887285      -0.02996229      -0.00945987      -0.06482576
Na       4.62820088       6.11169814      69.61637330      17.47835782     -13.54054631     -60.82495959     -73.42270399      48.65970679      -6.80771191
Na       7.02650675      10.67780630      75.29775447       4.64778047       2.98815850       4.52713984      -0.04024014      -0.29957875      -0.35236175
Na       6.41415678       9.03801166      79.20454655      31.81934963      12.26465065      21.63414829       7.58451459     -67.45824633     -35.25231419
Na       6.20163239      10.79046159      80.10579059      -0.35122901      11.50337734       7.40266062      -8.07182549      67.80083523      34.63901553
Na       4.71037047       8.85326255      81.95682559      53.32579959       7.11358729      16.34443564      75.89298999      -3.66936983      11.60067021
Na       6.04162364      10.21663091      84.01207280      -0.28232673      -0.33025832      -0.39141461       0.31789150       0.28606725       0.41694555
Na       4.12916800       8.27964900      86.05317994      -0.17093192       0.17701335       0.16197456      -0.04499072      -0.00121285      -0.01756532
Na       5.90852296      10.33029629      88.29379158       0.18391589       0.11711051      -0.24726983       0.12852896       0.05129672      -0.02928664
Na       4.17379792       8.18663760      90.28197988       0.23483317      -0.58711891       0.42063328      -0.01376372      -0.00331921      -0.02511462
Na       6.49454432      10.17535358      92.19406807       0.43827989       0.56755516       0.83739722      -0.10410001      -0.01585461       0.01837497
Na       4.10736348       8.00847671      93.99683771      -0.00335142       0.91298855       0.28981333       0.06568670       0.06768063       0.04185137
Na       6.09032301       9.96759281      95.92370494       0.13143420       0.07706436       0.52745468       0.01281834      -0.04756993       0.09919830
Na       5.08492021       9.51622728      74.07589209      -0.57394057       9.58828472      10.63169467       1.06704425       1.21938537      -1.06077894
Na       6.41861659      14.70350250      75.49227611       0.81074279       1.85460052       1.45786466      -0.18834227      -0.28227891      -0.34251259
Na       5.19485824      13.07169411      78.31442377      23.16233617       6.94418673       3.22253317     -11.44363559     -13.95155683     -18.70014636
Na       6.56072954      14.16068338      79.55016237       3.53220475       3.13753534       3.98961426      19.36385221      15.69830650      17.68884279
Na       4.31119275      12.24456730      81.86671086       0.55807564       0.48512409       0.48349761       0.63653469       0.78739200       0.77640529
Na       6.18242570      14.35831175      83.90827372      -0.24351033       0.08535367       0.05972652      -0.18417258      -0.08647383       0.06629133
Na       3.94133136      12.57118878      86.07833261      -0.58804130       0.11789474      -0.32109356       0.02041441      -0.10837885      -0.06314619
Na       6.28102675      14.05855512      88.25061801      -0.58036590      -0.01327096      -0.33978488      -0.24340948       0.08496007       0.08650509
Na       4.08710677      12.12197112      90.61445132       0.08234709      -0.58961009       0.04564942       0.00258150       0.06601980      -0.21208585
Na       6.06364422      14.33446862      92.23682568       0.32381177      -0.03491766       0.06142898       0.07831585      -0.08032576       0.00747018
Na       4.01111635      12.02028689      94.26669973       0.00015921       0.23545609       0.79207256      -0.04725800       0.05853128      -0.01434790
Na       6.03580202      14.15682059      95.86576061      -0.33002003      -0.01547891      -0.57538709      -0.00052122       0.07177954       0.06906161
Na       4.31624015      16.69599904      73.00510451       0.18202905      -1.38762582      -1.12598456      -0.51674871       1.31509410      -0.13502270
Na       6.21746168      18.68224064      75.17375097       0.29699599      -0.57367125      -0.99538154       0.72154766       0.09664774      -0.03864183
Na       4.45699038      16.22669787      77.60219714       0.10395926       0.82191109      -0.76331412      -0.15797261       0.08465674      -0.06066016
Na       6.63638170      17.84509223      79.66213441      -1.44651063      -0.48108707      -0.79738840      -0.24795394       0.17309870      -0.29748549
Na       4.14605881      16.32260684      81.16153104      -0.32314960      -0.43709080      -0.03674767       0.37310810       0.28407235       0.36742775
Na       5.90882895      18.23657537      84.12367043       0.81425169      -0.58166305      -0.25325724       0.03933351       0.00890178      -0.08158108
Na       4.13952421      16.27356827      86.11722649      -0.09011085      -0.74561216       0.64989234      -0.13752962      -0.01909352       0.04367433
Na       6.01462930      18.35837578      88.17942637       0.15970261       0.09991999      -0.80835977       0.09668587      -0.03162008       0.04318569
Na       4.15715441      16.34211751      90.19454570      -0.10709344       0.35182082      -0.03451437      -0.06879637      -0.05090546       0.00829198
Na       6.19933609      18.41998589      92.31776874      -0.30081755       0.22326013       0.42427022       0.01348361      -0.03379057      -0.04710943
Na       3.87020130      16.38077861      94.16390684       0.55218308      -0.48737810       0.28635722       0.00418474       0.01381904       0.02610850
Na       5.82503324      18.38610037      96.03838465      -0.69616635      -0.60266899      -0.09033362       0.09216006      -0.00980130       0.04085798
Na       2.86990382      20.11933939      75.56289070       8.77404104      -7.84239122       3.20975925       2.84958861      -0.59648888       2.23142435
Na       6.06417686      22.70343006      75.83794391      -0.18548822       1.09282271       0.69317200       0.88946257       0.07437114      -0.32684824
Na       5.82472390      20.74073319      78.25269476      -0.06919921       0.79626624       1.08153419      -0.50993506      -0.26976127      -0.98512056
Na       6.28297399      22.35282792      80.36130130      -2.00068996      -0.92466553      -1.27963175       0.58188806       0.43705196       0.52931535
Na       4.48225921      20.08600203      81.72964483      -1.51327528       0.19723124      -1.80984187      -0.12556867      -0.13255923      -0.09280210
Na       5.77634068      22.21060694      83.59471170      -0.48190238      -1.10173616       0.39808986       0.16211074      -0.03377480       0.30396399
Na       3.98669023      20.42436334      86.28658379       0.47629902      -0.21618388      -0.34070025       0.03757263       0.01900478      -0.09104832
Na       5.83566847      22.73945321      88.47578453      -0.36341310      -0.26072074       0.12004130       0.19365372      -0.06380523      -0.08202191
Na       4.23688711      20.41511254      90.30632059       0.12490848      -0.62701484      -0.35730038      -0.13022930      -0.01536836       0.00819324
Na       6.29005037      22.51869756      92.14919473      -1.08911657      -0.18170746       0.68698169      -0.04566828      -0.00262430      -0.05949168
Na       4.12658883      20.50357916      94.13048470      -0.12329835      -0.07195856      -0.65016950      -0.13801362       0.06204766       0.09171917
Na       5.92944649      22.54482762      96.13797952       0.01345083      -0.00827504       0.19250691      -0.10871496      -0.08655499       0.10901625
Na       5.84258430      25.29066522      72.91858873      -1.80846557      -0.54631301       2.50254930      -0.57852384      -0.74171700       0.83947617
Na       4.82401320      26.69204701      76.43774074      -1.09550408      -0.24750348      -0.87348317       0.09302402      -0.00693418      -0.48668313
Na       5.10165946      24.41397051      78.34345207      -0.43291687      -0.66054010       1.20142931       0.48322175       0.18991952       0.15404980
Na       7.37174772      28.33284299      81.82212054      -3.94886285       3.51135914       5.41244885       0.00121595       0.03464152      -0.49861080
Na       4.24477590      24.22065761      81.88485476      -1.44222599      -0.63528704      -0.02422983      -0.08893959       0.14256639       0.07415750
Na       5.78135681      26.69856045      83.72700416       0.71607791      -0.41392526       0.07770687       0.01195242      -0.38071082       0.20421205
Na       3.95253475      24.40589847      86.00150612       0.41350691       0.28207498       0.17724085       0.01117533       0.08007453       0.03401901
Na       6.21475862      26.47709167      88.30901599       0.02730254      -0.61588483       0.35939927      -0.07172051       0.00239857       0.11538146
Na       3.79869320      24.50947132      90.30354547      -0.02024344      -0.80854194       0.08288419       0.08398145       0.18730509       0.13450766
Na       6.20438644      26.19047894      92.02473944      -0.21069832      -0.06144991       0.07817203       0.02032582       0.08555403       0.07624293
Na       4.00106916      24.48437228      94.12874795       0.23463894       0.28033669       0.29373814      -0.04254961      -0.00842106       0.06893367
Na       6.04238747      26.64688426      96.02359811       0.29063012       0.40509523      -0.67194663       0.00183758      -0.03861757      -0.03457368
Na       8.00851838       0.48029583      72.81084656      -0.37745889      -0.23123779      -0.18448652      -0.00730536      -0.10937219       0.36986423
Na       9.91247797       2.40309801      76.01860945       0.36554690      -0.08992422      -0.13613355      -0.07009024      -0.15128424      -0.04299228
Na       8.16224246      -0.43471457      77.44933549      -0.29242462       0.16726790       0.34668498      -0.11959640      -0.06638291       0.10587598
Na      10.07623213       1.92534464      79.62061261       0.46875553       0.23050786       0.87673921       0.05375008      -0.03949566       0.11767985
Na       9.38520758       0.99437120      83.53893925      11.40929719       1.65588374      17.08748335     -97.27907293    -104.81274883     -68.50427567
Na      10.48861333       2.18286283      84.31284569      28.95527330      30.45801672      22.14899658      97.37653885     105.04095669      68.44477319
Na       8.14998769      -0.14715463      86.07587688       0.26580321      -0.02389216       0.78290067      -0.15204522      -0.23572120       0.17082685
Na       9.83916373       1.76295831      88.20808334      -0.46240652      -0.10058492      -0.00752669       0.25510402       0.09542944      -0.04835210
Na       8.23368030      -0.26037790      90.41868970       0.12967359      -0.00781974       0.22207748      -0.13511243       0.15788380      -0.04402488
Na      10.31507163       2.00147063      92.21259816       0.59356444       0.70445267      -0.46640019       0.00347378      -0.03196795      -0.02868690
Na       8.33807528      -0.19553408      94.23150656       0.46888422      -0.13893461       0.31537490      -0.15802446       0.03982504       0.05873967
Na      10.08906816       2.12187877      95.90496261      -0.42789448      -0.64035992       0.22909466      -0.00032577      -0.00540498       0.05522957
Na       8.21354278       3.87642820      71.28736081      -0.50955764       0.85678837      -3.29890612      -0.38174830       0.31119682       0.20711972
Na       9.47278379       6.41017815      75.23064980      -0.90751152      -0.33321386      -0.24194691       0.22953671      -0.23576654      -0.10072980
Na       8.32687359       4.69703559      78.04868421      -0.82936011       0.94750045      -0.34996379       0.39103211      -0.21000141       0.03956189
Na      10.53482085       6.29947816      79.93504227      -0.44995872       0.87584625       0.44735471      -0.11305899      -0.04629859       0.06365397
Na       7.92393334       3.92594540      82.01156012      -0.41906007       0.07516965      -0.31508795       0.04414659      -0.01845105      -0.03528101
Na      10.22891832       6.01405078      84.06783251       0.11322137      -0.01106469       0.29416276      -0.09342194       0.10977535      -0.02713108
Na       8.03008662       4.18008459      86.06671447       0.06421839       0.85495101      -0.33266466       0.01941618      -0.03833101       0.00782425
Na      10.18899564       6.04762726      88.24686368       0.72600197       1.08355261      -0.37016430       0.00178677       0.01516334      -0.02075833
Na       8.24624875       3.91846571      90.19616484      -0.39835466      -0.00958930       0.49693547      -0.04769104       0.11309656      -0.03031183
Na      10.36884299       6.06306379      91.94746036       0.91756464       0.34054203       0.15477689      -0.02023751       0.01945640       0.03853848
Na       8.06761543       4.13693326      94.10336434      -0.15397536      -0.11259852      -0.52726608       0.13583689       0.01543849       0.09372333
Na      10.31719549       5.93027720      96.13017512      -0.50030992      -0.18804987       0.45403501      -0.04470526       0.09170105      -0.20974511
Na       8.59265111       7.23061286      72.40787101       2.91132797      -0.28489014      -1.92899391      -0.30577015       2.68543576      -2.51910945
Na      10.10647003       9.94022866      74.94596985      -0.16425727       0.33779424      -0.45477936      -0.14099735      -0.35977852      -0.42618313
Na       8.36132908       8.16922728      77.78303084       0.78218980       0.15937509       0.05192420       0.60278307      -0.12053863      -0.42355714
Na      10.56025225      10.24109677      79.77303118      -0.17967295      -0.31060115       0.44487452      -0.09055392      -0.02866183       0.12989673
Na       8.00379388       8.29968734      81.65527551      -0.41083153      -0.59742591      -0.67635954       0.52716857      -0.09321404       0.53245633
Na      10.17478947      10.27798255      83.83601479      -0.34016244       0.46388960      -0.64645678       0.02081725      -0.04948415       0.10104687
Na       8.11455052       8.25583817      86.23954836       0.35980586       0.68215432      -0.07763901       0.00947341      -0.02246703      -0.11787767
Na      10.23139461      10.11932255      88.26494906       0.32142395      -0.59598875       0.89666883       0.06419488       0.10202259      -0.07343109
Na       8.21421774       8.20525406      90.11923653       0.10738930      -0.31980323       1.02048865      -0.00023686      -0.05552065       0.02225752
Na      10.45021877      10.17911234      92.16032177      -0.12299955      -0.17875274       0.52611364      -0.01042365      -0.85160954       0.36013013
Na       8.33466391       7.97725052      94.31853678      -0.26144783      -0.69534842      -0.36155465      -0.01949018      -0.04202939      -0.09479532
Na      10.35193262       9.95631667      95.89730236       0.90688088       0.37362142       0.70401596       0.11893314      -0.00602090       0.08157593
Na       5.38758532      10.96321699      70.55316006     -10.15248378       0.60407215      -0.12293434       0.57289999       0.70670386      -0.04561419
Na       9.75986733      13.79338245      74.59122878       0.33290439      -1.14114397       0.09985496       0.06608568       0.01686854       0.07312565
Na       8.28962190      12.00144367      77.33897481      -1.14793134       0.13791087       0.68152914       0.14513465       0.49656791       0.49706512
Na      10.23883514      14.53461814      79.63847854       0.32839240      -0.34926711      -0.01533108       0.13031214      -0.39900859      -0.15656650
Na       8.05702818      12.24030694      81.97262136       0.47301445       0.58166054      -0.31626328       0.30874525       0.14332489       0.11042141
Na      10.43891451      14.27616548      83.99968777       0.77952700       0.25100239       0.35567217      -0.06450833       0.07899224       0.10949336
Na       8.28556144      12.34783859      86.04949299      -0.78544816      -0.97433750       0.17982527      -0.03822173      -0.13605670      -0.07656442
Na       9.68521178      14.14480794      88.49958352      -9.00344288      -3.01557522       3.95800523       0.53267640       0.35822013      -0.53022223
Na       8.32913650      12.27611541      90.28071294      -0.07836888       0.01286151      -0.19588692      -4.38008771      -0.59069194      -1.05794713
Na      10.23239186      14.09845544      92.29093569      -0.48112392       2.27592516       2.22864338      -3.04578967      17.03503554      13.67607074
Na       8.24992793      12.06289221      94.36901880       0.10265153       0.10467132       0.01243608      -0.05616197       0.00066154      -0.08827274
Na      10.26971623      14.14268508      95.92808470      -0.15726391       0.39381370       0.42404820       0.10766445       0.10385861       0.08141623
Na       8.33704930      16.85617833      71.72154318      -0.35477299      -0.36133102       0.13369241      -0.62901652       0.05462031       0.00793871
Na       9.91710520      18.60143916      75.20817365       0.45426097      -0.73853840       1.83960436      -0.24505416       0.19726461      -0.41885533
Na       8.48774812      16.16976197      77.11597114      -1.07898804      -0.44921521       1.32467010       0.05699123       0.15717670       0.18799749
Na       9.18642065      17.04186332      81.03894079      -0.74631300     -11.82072400       6.48178681      50.60055167      41.24097837     -66.10618401
Na       8.05889856      16.12546393      82.31991928     -18.96612588     -18.25596191      23.65179754     -54.91711756     -44.64371942      62.18357720
Na      10.65945889      18.15740791      82.38542609       8.09127548      -3.56745795     -26.25431407       3.42259801       3.42687049       4.58941681
Na       8.16706694      16.27550836      86.14968638      -0.60015036       0.50965955      -0.67620131       0.02800073       0.03928937      -0.10804784
Na       9.96929258      18.19289377      88.32239740       0.49479911      -0.38136229      -0.49551074       0.17158295       0.06243965      -0.08825029
Na       8.14968387      16.27972507      90.32914118      -0.31972012      -0.13382040       0.86507360      -0.09032005       0.08812944       0.11309589
Na      10.17316223      18.40858088      92.39986430       0.64507663      -0.97403750       0.12399158      -0.02366624       0.04831404      -0.17807718
Na       8.20259914      16.34777976      94.28887734      -0.51800369      -0.21209065       0.24954605      -0.03194457      -0.00090760       0.09147029
Na      10.25129585      18.53447089      96.05964272       0.07088349      -0.25991961       0.53336189       0.00043280      -0.12863401       0.14015133
Na       6.61490797      21.04083120      71.29598382       2.23741160      -1.26840195      -3.25485840      -0.37245665      -1.03452978       1.83391845
Na      10.09809657      23.10359278      74.00516187      -1.19298388      -0.13430136      -0.83043987      -0.36727261      -0.25294811      -0.00920672
Na       8.83093303      20.94037511      77.46416246      -0.54751408       0.73713827      -3.01946848      -0.16437558      -0.10038917      -0.03558171
Na      10.94545416      22.58886658      79.84921339       8.65858252       5.11884032       2.09383400      -0.47776816      -0.26696205      -0.16948489
Na       8.06590995      19.77012128      81.63463730      -0.56730701      -5.68313453      -4.42402107      -0.20166924       0.74209607       0.04493647
Na      10.15585270      22.45359420      84.09544959       0.96855954       0.17490341       0.65758279      -0.00690543      -0.04356669      -0.14968360
Na       7.83062533      20.66957085      86.10573275      -0.69964372      -1.03262630      -0.74116009       0.02195009      -0.10131037      -0.01671258
Na      10.12238481      22.29644096      88.09734805       0.00692182       0.26481826       0.46467816       0.03218314       0.05864483      -0.00001393
Na       8.10745814      20.33264576      90.18250564       0.38668682       0.02665847      -0.19389962       0.01885239       0.07190889       0.01889722
Na      10.34220345      22.42990301      92.13530524       0.14109828       0.56178855       0.74165044      -0.06898814      -0.08485212       0.10557527
Na       8.12203839      20.57264627      94.49642902       0.83690779      -0.19191583      -0.54169166       0.04604688      -0.00455958      -0.01031516
Na      10.61308777      22.53639881      96.12556169       0.12850807      -0.54617302      -0.44308522      -0.09767271      -0.06865003      -0.04233485
Na       6.60210182      24.63216016      70.54277017       0.60602800      -3.12621359       0.42353471       0.17329864      -0.25639688       0.47451191
Na       9.10475501      26.14740053      75.29708990      -1.57707713       0.66545654      -0.18689765      -0.00775171      -0.01208553      -0.20407593
Na       8.38101992      24.35995522      77.88006808      -0.52216350      -0.45372364      -0.71819726      -0.42347939      -0.01478210       0.14558148
Na      10.17065931      26.69732402      79.90914881       0.47720570       0.41685872       0.00427113       0.13285683       0.21005771      -0.32265324
Na       9.00954728      25.46114590      82.29457170       7.65812177       7.54202781      -1.21865361     -17.83098041     -14.43008055     -23.00784534
Na      10.16497355      26.38735828      83.82890984       6.11509446       4.64713010       7.77057606      17.46879647      13.94546015      23.28003507
Na       7.91356941      24.56867119      85.99395434      -0.20925562      -0.89729178      -0.27876696       0.02618055      -0.02959913      -0.01772437
Na      10.18335015      26.65564456      88.31221293      -0.32651974      -0.35065493       0.26366521       0.02774940      -0.03339786      -0.12473024
Na       8.53576650      24.44982000      90.14247853      -0.41274225       0.02977112       0.22109220      -0.16369875      -0.04299142       0.02466907
Na      10.22982042      26.61547811      92.23126844      -0.48932656       0.10383042      -0.04907428       0.12803419      -0.15582650       0.00567520
Na       8.05998053      24.25103678      94.51738878      -0.16638170      -0.40296604       0.52951857       0.17106898       0.16273289      -0.12129207
Na      10.31783383      26.28184277      96.01944693       0.65808479       0.10079909      -0.01530228      -0.01888791       0.02115608       0.01482754
Na      11.51685946      -0.14396594      74.25715998       0.76269973       0.25948760       0.14614931      -0.00079584      -0.05104342       0.01414982
Na      14.21501705       2.02656473      75.67777609      -0.63988877       0.17687295      -0.58748512       0.15503357      -0.09426591      -0.14144735
Na      12.13870176      -0.05735328      77.51937975       0.26987123      -0.30081887       0.42684441      -0.01551996      -0.08099013       0.03150908
Na      14.13773959       1.84384081      79.62206555     -20.60993790     -16.95233095      12.60272305     -19.74391381     -13.50914375       9.99510787
Na      12.44815243      -0.21225265      82.11306526       0.72846497       0.26783873       0.45756202      -0.02436446       0.09449913      -0.09609987
Na      14.46556263       2.10388941      84.41273328       0.03682341       0.11344499      -1.10636347      -0.11484610      -0.05255380      -0.17436248
Na      12.08543758      -0.21756961      85.90117163      -0.28919175      -0.63263280       0.25491159       0.12061444      -0.01958759       0.14030352
Na      14.21898478       1.95587110      88.10085259       0.11011901       0.14626184      -0.00767166       0.06755678       0.01457447      -0.02612529
Na      12.42740552      -0.09395527      90.05637428       0.16859047      -0.42379985       0.68605688      -0.16093601       0.07230025       0.09522394
Na      14.44829000       2.06832366      92.17498591      -0.20447709      -0.28968569      -0.27322341      -0.55995380      -0.51415096      -0.97815657
Na      12.23557920      -0.07562218      94.32825948      -0.32677617       0.08705279      -0.73237361       0.13035315       0.10977335      -0.03446621
Na      14.56864390       2.01650402      96.02411250      -0.91129355      -1.10283432       0.32517688      -1.17897115      -1.18096639       2.26752091
Na      11.88336286       4.01054805      73.99164844      -0.95617634      -0.39631934       0.35891612      -0.05533687       0.13612061      -0.24446453
Na      14.72685812       6.20055155      74.91867224      -0.64032917      -0.10586517       0.47544629       0.16788206      -0.08480109       0.09706974
Na      12.35419822       4.02311282      77.55769006      -0.45296358       0.00044375       0.14945546      -0.11038071       0.18379702       0.02798774
Na      14.14361061       6.09760685      80.01015351      -0.05307340       0.14437640       0.22406593       0.15807081       0.03624589      -0.06288801
Na      11.95857252       3.77225473      82.00899438      -0.28859657      -0.87078499       0.43709164       0.23169151       0.08286809      -0.13306500
Na      14.35273721       5.83326260      84.22283428       0.53004948       0.24151566       0.87886382      -0.06849988       0.03683235      -0.01977159
Na      12.18961045       4.05501969      86.26253921      -0.25899628      -0.38545053      -0.44442904      -0.03858041      -0.01592335       0.08183542
Na      14.41513038       5.90105140      88.16146369      -0.92837394       0.34088768       0.11258787      -0.06304674       0.07211345      -0.10648088
Na      12.33472985       3.83299673      90.11576182      -0.53049476       0.34463164      -0.38332187      -0.12669029       0.01528116      -0.06279623
Na      14.35866570       5.83987361      91.80109845      -5.54659744      -4.14796735      -5.20924929       0.11170477       0.11628263       0.19876767
Na      12.42777331       4.14817720      94.20512030      -0.27953446      -0.16114455       0.21773389      -0.28757507      -0.03401446      -0.02227598
Na      14.45821897       6.04756881      96.01886082      -0.05351111      -0.29994475       0.08737875       0.04327031       0.13705298      -0.02793886
Na      12.15370770       7.89826612      73.04449058      -0.28067313      -0.43489525      -0.55477176      -0.04078207      -0.31922000       0.30700222
Na      14.30896141      10.18721492      75.45425398      -0.01079762      -0.19180457       1.08987461       0.04728108      -0.10117222       0.11864193
Na      12.31386523       7.82035268      77.32291905      -0.73857328       0.00082350       0.35149441      -0.02958641       0.07607832      -0.08253964
Na      14.47708543      10.25762951      79.88039145      -0.24989321      -0.18714776       0.15074430      -0.18927028      -0.11025863      -0.06916134
Na      12.34902920       8.15445276      82.06753369       0.18989696       0.82444506      -0.46894712       0.01374942       0.03518025       0.05193642
Na      14.37348659      10.11146745      84.03909098       0.28151860      -0.40252907       0.40058236      -0.05106026       0.13702819       0.02285068
Na      12.36574852       8.08805234      86.15813954       0.12534897       0.26285055      -0.51607183      -0.07372584       0.00931653      -0.02765772
Na      14.59301746      10.07308374      88.02717279       0.27393693       0.40171186      -0.19621847      -0.23947789       0.12180055       0.02963175
Na      12.52276547       8.18952988      89.86271640      -0.24497357       0.64206275       0.09410642      -0.02280917       0.04351287       0.23213272
Na      14.83717495      10.53489366      93.73533856       6.25811527      10.74459774      30.84031080      -0.37911053      -0.33676474      -1.65875050
Na      12.46182683       7.90002334      94.07422425       0.18316916      -0.78609778       0.25154957      -0.05181366       0.04534500       0.04993475
Na      14.31575770      10.10177178      96.06950068      -0.35278672      -0.19046991      -0.00219101      -0.25712885      -0.20299790       1.15853365
Na      13.01632547      11.71417238      71.67678022       0.24727150       0.37604553       0.02378325       0.00984860      -0.08463494       0.04014905
Na      14.44353146      14.24554233      75.72928632      -0.33187192      -0.32179247      -0.16625940      -0.40325341      -0.25761465       0.29893854
Na      11.35301518      11.55471305      76.70939685     -15.29582193     -11.58739439     -11.91370640       0.66462820       0.43643925       0.38906622
Na      14.27220528      14.53916003      79.32494628      -0.11526500       0.48165776       0.45983681      -0.02020353      -0.07587496      -0.04768986
Na      12.30673915      12.49393277      81.89057006      -0.21641003       0.01989322      -0.54136820       0.05131328      -0.08392543      -0.07201039
Na      14.19716754      14.14265565      84.29759029       0.42837035       0.17176970      -0.65975912       0.14174314       0.06448719      -0.17277242
Na      12.28378073      12.21079833      86.23335102       0.12963555       0.65703406      -0.63316374      -0.08583749      -0.04934367       0.11417671
Na      14.44225844      14.29365942      88.29913948       1.39907190       0.73004420      -0.14404464      -0.13414438      -0.24622446       0.11945592
Na      10.54743624      12.41965477      90.93390390     -30.04288703       5.18089219      11.31712596       7.45767194     -16.01155251     -12.62994959
Na      14.26686236      14.05302457      92.28797641      -0.40738073      -0.18239664       0.29805501       0.04364573       0.03321205      -0.18867596
Na      12.51537233      12.08284743      94.28476849      -0.21031685      -0.45326943       0.71208724      -0.52459972       0.31928764       0.14304483
Na      14.25109963      14.37345779      96.21524346       0.17647494      -0.40494403       0.16400777       0.03944087      -0.02489110      -0.13565996
Na      12.04214684      16.43354459      73.63732863      -0.59113126      -0.52602983       0.30160075      -0.04441854      -0.02962034      -0.08924014
Na      14.31346323      18.65411232      75.39775525      -0.05777307      -0.05939179       0.53684504       0.04759251      -0.15447264      -0.07403188
Na      11.92022780      16.42226364      76.67540142       1.60092030       2.76842831     -10.91219715       0.03904447      -0.02496776       0.48725697
Na      14.01263584      18.26070713      79.47942164       0.27702930      -0.51526645      -0.58196386       0.07471521       0.02775360      -0.11532270
Na      12.22120865      16.45341255      81.76326787       0.53925108      -0.49746013      -0.71570726       1.07412958      -0.94524168      -0.13822053
Na      14.30687142      18.31776106      84.22207340      -0.40044537       0.26071394      -0.76191942       0.13821018       0.33942589      -0.43901386
Na      13.57594445      16.58982114      86.30495929      20.72061277       0.45764762      -1.94051863      -1.04959992      -0.31808266       0.11800997
Na      14.34698897      18.54563702      88.35085731      -0.06365481       0.11271727       0.13862334       0.04875334       0.13407354       0.16773550
Na      12.25173068      16.26842781      90.21916716       0.52429368      -1.04844156       0.02351306      -0.03492381      -0.05750630      -0.03937017
Na      14.16736949      18.40716064      92.14498105       0.55502981       0.11842941       0.05779585       0.13160183       0.02465522      -0.01653189
Na      12.38581793      16.36396895      94.18729854      -0.77669625      -0.39358284      -0.15069638      -0.10293022      -0.08407421       0.11444673
Na      14.33074539      18.31132904      96.13260315      -0.41493267      -0.33014785       1.28248349       0.01445948       0.03891822       0.09276982
Na      11.49297699      20.49960468      72.63367945      -0.66352875       0.24018355       0.52906386       0.24142059       0.14974259       0.07764770
Na      14.34549576      22.61895374      75.62221022       0.04221710      -0.56929632       1.08482147       0.00063047       0.06597286      -0.02225096
Na      12.25650501      20.34738095      77.19196772       1.01315565       1.34973598       0.31318031      -0.08645623       0.04179257       0.13493794
Na      14.36663550      22.47745464      79.46706065      -0.19879563       0.68742938      -0.26994219       0.04129540      -0.08621886       0.03865881
Na      12.16313508      20.07211945      81.81878188       0.11289455       0.54616359      -0.42120516       0.54883302       0.78845199      -0.13490310
Na      14.17472397      22.32634485      84.09442022       0.46645715      -0.43309502      -0.16601987       0.07681571       0.04234531      -0.14150083
Na      12.27085614      20.41929531      86.19077460      -0.43468984      -0.16338285      -0.24185267      -0.10751485      -0.14330544      -0.04118328
Na      14.27074321      22.42679689      88.07882279       0.41575989      -0.35605744       0.95725888       0.01462401       0.02260053       0.13921055
Na      12.17102741      20.29021592      90.14075436      -0.12477769       0.79370584      -0.17602704      -0.07938689       0.04722068      -0.02564415
Na      14.26530460      22.29636256      91.93496349       0.61494740       0.35931432      -0.21066996       0.08956188       0.00297857       0.04646316
Na      12.35753430      20.27516726      94.31210233      -0.78707662       0.58242870      -0.70211173       0.02716383       0.20022932      -0.02739168
Na      14.46261900      22.45211028      96.10429404       0.45558365       0.51114748       0.16364104      -0.00480478      -0.03271520      -0.03011293
Na      10.62084037      25.24252539      71.35793621      -0.53195511      -0.86493182      -0.97491181       0.09949686       0.14149948      -0.02082288
Na      14.48313002      26.53369193      75.32623370       0.37573627       1.31088807       0.05059841      -0.17027770       0.01295174       0.07116091
Na      11.90218662      24.84564565      77.43701823      -0.11267258      -0.51579680      -0.80354233       0.09043016      -0.00299672      -0.09469268
Na      14.16194126      26.57755883      79.58742389      -0.49581690       0.67030881       0.61366385       0.01256629       0.02232579       0.00896545
Na      12.33481588      24.42630172      81.62268484      -0.08102459       0.59343754       0.32063438       0.28395781       0.20304053       0.34598300
Na      14.45494672      26.42854907      83.88008409      -0.22054270       0.39787697      -0.07311395      -0.03221891      -0.02886316       0.13631384
Na      12.20790795      24.65553917      86.17522270       0.31071923      -0.27594557      -0.54390019      -0.07935796      -0.10759100      -0.10239538
Na      14.12034354      26.48273592      88.11528803       0.28150819      -0.34673138       0.48354897       0.23899937       0.01701860       0.04303751
Na      12.22076247      24.35814123      90.06267837      -0.47854010      -0.04893283      -0.99100518       0.05246171       0.09545096       0.06010408
Na      14.41841701      26.74573288      92.09394910       0.08808448       0.08684329      -0.11713979      -0.05900716      -0.15596101       0.00738288
Na      12.43108208      24.52288319      94.06847636       0.01734929       0.42754870      -0.00341275       0.06192972       0.02708014       0.05031271
Na      14.42203482      26.76431201      96.10121276      -0.58054085       0.23740669       0.26826394      -0.01961241      -0.11637211      -0.19913899
Na      16.94504695       0.04761617      74.13289882       0.61789134      -0.38446283       0.00733811      -0.00841089       0.18339562       0.00464507
Na      18.58537955       3.25526753      74.34641516     -58.91123455      16.80146826     -37.04928950      -0.06925695      -0.10065962       0.29040222
Na      16.44852278      -0.19311326      77.49588862      -0.98504900      -0.78293798      -0.40116546       0.02947389       0.00206235       0.03767407
Na      18.51697837       1.92738772      79.85583068      -0.47429562       0.42820015       0.19851533       0.09991489      -0.14643810       0.09449963
Na      16.22123882      -0.09248214      81.80867421       0.46433344       0.75502577      -0.51290361       0.05379035       0.05352893      -0.03088220
Na      18.34908334       1.89786563      83.94769816       0.38679726      -0.24089644      -0.48939082      -0.11666600      -0.22525467      -0.09276773
Na      16.32039328       0.04216460      86.25668459       0.24476477       0.15396007       0.60240204       0.06544968      -0.20639860      -0.04213432
Na      18.44749951       1.89503390      88.16321715       0.16225230       0.66276396       0.49690822       0.07587082      -0.02275150      -0.02075546
Na      16.32775388      -0.00670336      90.20484347      -0.16962977       0.16566897      -0.26315054       0.07322418      -0.03457352      -0.11058788
Na      18.40435190       2.18144402      92.06681428       0.02721762       0.37737700       1.12263464      -0.02106361       0.03237389       0.01897478
Na      16.54360260      -0.11425768      94.03628772      -0.41924873      -0.14180976       0.02149405      -0.05262838      -0.09948876       0.04088967
Na      31.49844077      -2.06643114     102.82284517     207.73407764      10.30556210     -94.09330179     127.08917202     347.90234751    -690.01534748
Na      15.86791500       3.36557710      71.46458052      -0.07556013      -0.67881007      -0.10047952       0.10221359       0.05482414      -0.11332093
Na      18.76116861       6.42924969      75.52878664       0.65534181       0.02253695       1.35177408      -0.50410812       0.12163358       0.01032514
Na      15.78751448       2.96833679      78.79350752       8.52313529      -6.76370078      10.28051468      19.64792352      13.66730946     -10.20016326
Na      18.20623810       6.17098315      80.19102481      -0.19954973      -0.49370525       0.21239103      -0.08303163       0.11698471       0.02359297
Na      16.14310424       3.96661884      81.85584570       0.11551721      -0.89948028      -0.02525739       0.11922046       0.00000927       0.24918714
Na      18.63820738       6.25534227      83.96097912       0.15092505       0.07677871      -0.71559914      -0.49053184       0.57921394      -0.36519301
Na      16.70754211       4.11720834      86.12275070      -0.26482599      -0.14863689      -0.14496701      -0.20669399      -0.02177192       0.01800384
Na      18.42922622       6.21776362      88.26880893       0.26656113       0.09854351       0.33403297       0.15360473       0.05587229       0.02852914
Na      16.52025916       4.13475082      89.91487400      -0.09109352      -0.30772721       0.10048173      -0.00669560      -0.14733515       0.13550017
Na      18.72310970       6.24077359      92.11371422      -0.69856049      -0.79969733       0.26809986      -0.19054302      -0.01849032       0.06952827
Na      15.48822163       2.98851544      94.10981951     -22.05221947     -23.70220092      -5.35919417       1.88068128       1.83416830      -1.32598320
Na      18.47025046       6.23422037      95.97496125       0.25036638      -0.26176514       0.78313392      -0.10257765      -0.09435502       0.08192235
Na      15.60084105       8.23108825      71.53883383      -0.60834023       0.84795633       0.68864720       0.16958836       0.16820509      -0.00051812
Na      18.53480484      10.02544355      75.52459066       0.66738358      -0.57951528      -0.43361777      -0.43495466      -0.87001176      -0.89411418
Na      17.47349600       9.16964644      78.23755516      19.93268249      15.43752970       9.66938409      -5.95180781      -8.48313902     -12.19887438
Na      18.22687982      10.28787139      79.99675011       0.46019265       1.03635619       1.33812831       5.40879115       7.93633571      12.75274913
Na      16.22968014       7.90870381      82.36084622       0.15255184      -0.36006118       0.51135175       0.01012202       0.11341660      -0.17793122
Na      18.37869819      10.33639093      83.88771360       0.48327483      -0.07369023      -0.02114747       0.13593887      -0.06042828       0.04459875
Na      16.56286966       8.17085400      86.16033353      -0.07367859       0.13768516       0.28447941      -0.00067369      -0.06507776      -0.05323564
Na      18.65125783      10.34111491      88.27741242      -0.24607659      -0.14102404      -0.00595182      -0.06783864       0.02972540      -0.03195868
Na      16.35350295       8.11349800      89.96321990      -0.28281439       0.00716498       0.54573727       0.04272376       0.08509499       0.29238201
Na      18.45639134      10.20616686      92.28966414      -0.05431236       0.44680690      -0.04226547      -0.03398018       0.12424798      -0.10035189
Na      16.51525945       8.44904554      94.41468757       1.77463487       4.88894239       4.46970179       0.22193797      -0.79325624      -0.16084212
Na      18.28748762      10.28058886      96.14228083       0.10653362      -0.58628657      -0.15280133       0.18177368       0.06409406       0.04577664
Na      16.45154907      11.83007552      73.26391716       0.29392562      -1.00552707       0.08420286       0.09092156      -0.12616663       0.06467544
Na      17.18926000      14.89421983      74.85495022     -37.45545413      16.21686326      -7.02548116       0.63576539       0.03847383      -0.12394645
Na      16.53327870      11.96271178      77.59455891       0.23183898       0.68372104      -0.06845801      -0.65700501       0.58877122       0.01509607
Na      18.37366361      14.42062317      79.73777462      -0.33565123      -0.22611564      -0.23394941      -0.13813753      -0.11304995      -0.06286646
Na      16.32736012      12.38355332      81.91038544       0.45886170       0.67140562       0.24209817      -0.12108611       0.03996756      -0.03916283
Na      18.17967009      14.30525174      83.97052802       0.31046935      -0.08061752      -0.19809668       0.04237406       0.01451412       0.11401918
Na      16.36396683      12.07891530      86.16168064      -0.06190703      -0.10202431       0.40126401       0.06612877       0.10246417      -0.05090308
Na      18.44655913      14.08775015      88.12342405      -0.44731059       0.09482752      -0.67399136       0.01491327       0.08987323       0.08800526
Na      16.26539998      12.08590654      90.07250251       0.08179165       0.58337574      -0.15393006      -0.00717116      -0.03316604       0.26244039
Na      18.48183658      14.24713010      92.03002252      -0.81822371      -0.17811215      -0.84386829      -0.04852225       0.02764531       0.10758633
Na      16.48136768      12.30742208      94.41682053       0.56900466       0.60434311       0.77333751       0.53806562       0.74735012       0.15963150
Na      18.26960963      14.42576051      96.17280420       0.63594649       0.11804365       0.06292277       0.05295604      -0.02306808       0.04852507
Na      15.28715577      17.56195532      71.65621631       0.07848961      -1.07076279      -0.53685210       0.41400594       0.63665194      -0.64961102
Na      18.21441142      18.96638701      75.13003581       0.73615847       0.62172095       0.35694423      -0.00128043      -0.12697776      -0.06960539
Na      16.88477472      16.65589538      77.24247589       0.48000110      -0.49365668       0.94871107      -0.17670012       0.01276176       0.24930307
Na      18.56960817      17.95371921      79.83767928       0.17377236       0.11803366       0.27624986      -0.13308730       0.18914346      -0.16419368
Na      16.12365077      16.47187455      81.67745062       0.12760732       0.00441014      -0.35713732      -0.03334513      -0.08955637       0.13338054
Na      18.17357480      18.33679846      84.18204105       0.11923954       0.51241572       0.10044567       0.02793024       0.00906235      -0.06398848
Na      16.43985534      16.44266179      86.31883308       1.21060839       1.20981514      -0.13406625       0.40815678      -0.12922673       0.00572051
Na      18.47795844      18.22203483      88.31409560       0.14974206       0.26942130      -0.25060253      -0.00628138       0.04040467       0.06801348
Na      16.22263368      16.27917425      90.30063232       0.45119833       0.47183670      -0.37919639       0.07736422       0.00297131       0.00846672
Na      18.61706878      18.34905094      92.13741404      -0.11152517       0.08535221       0.54141247      -0.02568226      -0.00465874       0.04504789
Na      16.32233733      16.33831360      94.27863760       0.41510888       0.06683687      -0.08220304      -0.01840721      -0.03705798      -0.11087159
Na      18.11482973      18.29976772      96.39952040       0.31330972      -0.06451505       0.13576405       0.09822257       0.08263594      -0.13264865
Na      14.48259335      21.76572426      71.72279633      -0.01685494       1.61783508      -0.61153219      -0.15669581       0.27772514       0.14863439
Na      18.15807669      22.70228597      75.33453047       0.46916224      -0.62533528       0.09924172      -0.11973201      -0.21454827       0.12704972
Na      16.24159884      20.21453077      77.41040900      -1.70531269       0.12334866       0.65882600      -0.00368748       0.21898706       0.21132597
Na      18.25966333      22.24258304      79.89866636       0.30380966      -0.76010889       0.87652698      -0.02938896       0.07693443       0.10414424
Na      16.40802638      20.12215074      81.84555794      -0.04695686       0.27126259      -0.17626650      -0.15240758       0.08259578      -0.06459963
Na      18.46031561      22.47228404      83.88174406       0.11865453      -0.01259017      -0.55981510       0.01504856      -0.06573411      -0.09822231
Na      16.48920206      20.52654187      86.37479866       0.25015863       0.72933508       0.28044204      -0.10196069      -0.15195014      -0.18776444
Na      18.36529461      22.45173999      88.10982241       0.22845558       0.74564594       0.50265926       0.12383409       0.02287988       0.07495528
Na      16.48391452      20.16740255      90.19102378       0.02892502       0.57890274      -1.15281871       0.00470758       0.21410844       0.06600010
Na      18.39600367      22.33101030      92.26337707       0.87343323      -0.25985594       0.90225521       0.08744797       0.00865148       0.00055897
Na      16.47082456      20.38028913      94.19206685      -0.12639936      -0.50374797       0.17992530      -0.06299266      -0.03579741       0.06155005
Na      18.55878033      22.33130678      96.27535213      -0.83932985      -0.24483985       1.14792514      -0.08803508       0.00437790      -0.07747461
Na      13.97988211      24.80216285      70.37294966      -1.50517050       0.40347025      -0.14383990      -0.17594422      -0.06795015       0.12861178
Na      17.98457929      25.82608735      75.34929092      -5.67887496      -1.95535400      -0.52928498       0.23842118       0.20558558      -0.07166156
Na      16.35507610      24.74654271      77.69229488      -0.85051296      -0.29888997       0.08829891      -0.08456817      -0.19592576       0.16016338
Na      18.70659107      26.64108668      79.77034133       0.04149125       0.11458284       0.49410347      -0.17946412       0.05923549       0.03438785
Na      16.43940543      24.61211542      81.64795701      -0.32800686      -0.12007769      -1.31542341      -0.04903745      -0.06411895       0.03867856
Na      18.37891552      26.41819156      84.09677703      -0.32311270       0.08521768      -0.48130957       0.00683194       0.03488286      -0.08338985
Na      16.34717325      24.40369934      86.07152051       0.62414061      -0.74834713       0.11896737      -0.02027530       0.03237988       0.01489272
Na      18.35963646      26.36715088      88.26166908       0.47492168      -0.18198838       0.02974669       0.08596767       0.11790596      -0.10936305
Na      16.62402638      24.32313948      90.10529758      -0.20402215      -0.61862944       0.69072119      -0.26380902       0.05013483       0.11594245
Na      18.58552680      26.48770047      92.20316455      -0.16392459      -0.64884554      -0.16413217      -0.04452170      -0.09755884      -0.15763396
Na      16.37529964      24.52009108      94.08392820      -0.93906855       0.45723997       0.40071682      -0.08801779      -0.12332897       0.03874976
Na      18.31857843      26.42048197      95.76344267      -4.35535678      -6.76469465     -13.39415612       0.07672426      -0.00692936       0.28366039
Na      20.51836964       0.44526281      73.14043385      -0.10753132       0.43187749      -0.13043511       0.17456772       0.02360229       0.50541878
Na      22.74658029       2.37732820      76.30021405      24.05436906     -12.91130084      21.16992365      -0.02847378      -0.49506840      -0.62043015
Na      20.15121709       0.00046631      77.63386318       0.52387476       0.30895249       1.16169212       0.17809051      -0.96887210       0.39894580
Na      22.41964064       2.07852997      79.89149153       1.18642732      -0.21837018       1.25131929      -0.00435004      -0.42647565       0.33097045
Na      20.76273133      -0.12022838      81.99007157       0.17983509      -0.68767011       0.61703813      -0.11341378       0.04790362       0.11307522
Na      22.82544060       2.01265195      84.02876814       3.61607045       3.73057966      -1.07746386      -0.17281325       0.01116939      -0.06331664
Na      20.42795165      -0.18079057      86.00663287      -2.74699189      -1.05550516       2.01346582       0.00053052       0.07344229       0.02067125
Na      22.39729457       1.76875667      88.13554168       0.34353340      -0.19470192      -0.94578541       0.02591289       0.05928650      -0.05460375
Na      20.44413380      -0.10236543      90.26508540      -0.52694951       0.35620730      -0.04383900      -0.02798148       0.02909751      -0.07130786
Na      22.38709781       1.99447463      92.22228994       0.28055197       0.52642072       0.21530507       0.02263275       0.07843373      -0.08624467
Na      20.41200723      -0.07450573      93.98608173      -0.12172910      -0.57406742       0.46147218       0.04405024       0.08791934       0.19373182
Na      22.49681636       2.35164850      96.38647278      -0.03519806       1.06144955       0.80872283       0.00463019      -0.09593590      -0.12181248
Na      21.85611725       3.09463157      70.82056339       1.06318463      -0.81454055      -0.65606279      -0.27978476      -0.49498997      -0.10283604
Na      21.60672332       6.46427458      74.22869260     -13.39101358       2.40894042     -17.28513164      -0.75928622      -1.12615618      -1.68246652
Na      19.64285179       4.35918244      78.12261108     -65.59419458     -10.72271103      13.49581291      -5.16682008      -0.15626596      -0.12915583
Na      22.94642889       6.22200828      80.16545019      -0.33107160      -1.79599649       0.81255569      -0.10109931      -0.44623336       0.60442043
Na      20.26946706       3.92530078      81.96304050       0.32329599      -0.05544219      -0.35562594       0.22941640       0.02397882      -0.26865681
Na      22.48769969       6.25644725      83.97611330      -0.16660445      -0.36888306      -0.78373179       0.17519337      -0.02317209      -0.11152933
Na      20.46860966       4.14933111      86.21506282       6.55375972      -1.65863042      12.97491436     226.14746481    -132.42149929     516.75046998
Na      22.41729416       6.20529255      88.34891301       0.25315200      -0.19544517      -0.17923951       0.07915774       0.03407544      -0.02846411
Na      20.51655242       4.03190619      90.06849524      -0.08707157      -0.58210223       0.03129822       0.01646287      -0.00312690       0.02130085
Na      22.65032587       6.31205613      92.01290240      -0.10572759      -0.47313869      -0.45345382      -0.17272485      -0.08903987       0.05295539
Na      20.54850057       4.16922947      94.26901776       0.09828304       0.83571687       0.02096112      -0.03800573      -0.05816974      -0.06238327
Na      22.12873356       6.19781361      96.34679479      -0.10767190      -0.14587499       0.47330250       0.17176542       0.02679683      -0.17461981
Na      21.45518523       6.83963611      71.89557549       0.24038292       0.82050081       0.41873892       0.70731811      -0.32087887      -1.36286923
Na      21.86898455      10.30281086      75.77875313       1.61412474      -1.44248690       0.16085345       0.71547481       0.07542755      -0.54254404
Na      20.47620822       8.45464236      77.94903724       0.29355441      -0.04085196       0.29705712      -1.12865425      -0.33882030       0.14405638
Na      21.79578313      10.55172373      79.74485794     -39.66665730       0.19237938       0.18675345      -0.20061391       0.19275993      -0.05227215
Na      20.77083692       8.31652429      81.69498307      -0.22030241       1.10971863      -0.18430025      -0.20393496      -0.08612196       0.11960613
Na      22.46422251      10.21484501      84.04645150       0.44068462      -0.13973761      -0.72333498      -0.02830160       0.15386787      -0.09364317
Na      20.49643817       8.24724230      86.33376665      -0.48940188      -0.06661857      -0.21055394      -0.00317903       0.03454817      -0.10274547
Na      22.66267936      10.44139036      88.15927206      -0.07914513      -0.56048499       0.46131901      -0.09183212      -0.11281921       0.04097046
Na      20.58024596       8.47457451      90.27239453       0.19198499      -0.11147933       0.64132228       0.05267161      -0.04970028      -0.03211202
Na      22.60284483      10.47091196      92.38041708       0.64059048       0.04029160       0.23173734      -0.00791849      -0.09649782      -0.05036529
Na      20.40451133       8.40733770      94.39549116      -0.30802442      -0.02943542       0.04219550       0.15639363      -0.04312615      -0.05980094
Na      22.76613706      10.09859354      96.23085997      -0.38521002       0.19521942       0.01231993      -0.16408460       0.09083646       0.04285011
Na      21.09714165      11.46472613      71.52346563      -1.38769370       1.62894253       6.10586103       0.11887565       0.12015192      -0.33162525
Na      19.11485166      12.16264403      76.38999414     -29.65288872     -45.21530813      24.70660480      -5.33794561      -0.41265575      -5.13267085
Na      20.75294291      12.63022196      77.89277996       7.09912601       0.60410472       7.69128572       5.40200520       1.87416893       5.10907981
Na      22.79469401      14.34016901      79.80896540      -1.93866511       1.90803811       3.46298250      -3.10981105       2.22479053       6.08766985
Na      20.42408017      12.34525100      81.68339306      -0.05574007      -0.29430222      -0.07445770      -0.06127695       0.18530570       0.35337784
Na      22.47201616      14.42158765      83.93592681      -0.10211198      -0.27703483      -0.90562444       0.06184608       0.06680217      -0.10622907
Na      20.71622631      12.29387862      86.01880037       0.08945552      -0.22750413       0.38212088      -0.18013007       0.05248706       0.02591964
Na      22.64271108      14.44700609      88.31522946      -0.38844587       0.61415545       0.72672773      -0.03156774      -0.01723212      -0.04035655
Na      20.64106631      12.38365590      90.40452562      -0.53333627      -0.25029878       0.09346507      -0.00304000      -0.06666545      -0.11943447
Na      22.58215576      14.40959916      92.32832497       0.55750492      -0.39687513      -0.05481778       0.04336095       0.04337977      -0.02728157
Na      20.42821430      12.30517702      94.50730720      -0.45400001       0.72384286       0.77477555      -0.02229345      -0.05497161      -0.05845242
Na      22.31284949      14.36833972      96.29785467       0.33697900      -0.80619165       0.68518347       0.08087179       0.00859153       0.02183237
Na      21.74995853      16.63108807      70.94700167      -0.54723394      -3.35523331       0.20146050      -2.43249966     -14.64686663     -10.87073404
Na      21.52960007      17.74878654      75.12645907      -2.04011820      -1.81834957       0.08432177      -0.44477566       0.67097497      -0.30624336
Na      20.84964625      16.26069104      77.87930248       0.31237962      -1.22039577       1.53209356      -0.24054154       0.06080721      -0.09986529
Na      22.74352061      17.50575225      80.47404910       1.23904451      -1.41962961       1.16250622      -0.30042019       0.16514692      -0.06199523
Na      20.20377013      16.30303323      82.01898910      -0.40280015      -0.99175837       0.81629752       0.00930476      -0.16173552       0.15076670
Na      22.53084761      18.28454354      83.82498077       0.41051844      -0.88895660      -0.33297083      -0.01198605      -0.04049805       0.15437792
Na      20.31963011      16.43726244      86.16622414       0.69715078       0.35796745      -0.19745734       0.09840026      -0.10262644      -0.05202324
Na      22.59786331      18.27136784      88.19645629      -0.01653153       0.25669362       0.42330008       0.02203580       0.10863396       0.00674062
Na      20.66191094      16.39173336      90.19024686      -0.23400055      -1.13268786      -0.09634775      -0.05824402      -0.02765430       0.08611150
Na      22.63189431      18.51901677      92.43266981      -0.17589648      -0.46900331       0.16310371       0.00394120      -0.07368711      -0.19347131
Na      20.45242194      16.48796589      94.43401024       0.61498184       0.24792575       0.22101824      -0.05415094      -0.07955595      -0.06212611
Na      22.40014922      18.38321343      96.44032014      -0.31173519      -1.21497228      -0.27026565       0.09274210      -0.01745203      -0.00924603
Na      21.24985169      20.56846338      72.55121102      -6.19200413      13.61165658       2.84977359      -0.15742322      -3.09935509       9.12324293
Na      21.46556300      21.78006739      77.08415385      -4.14032479       0.01368353      12.47887852       0.65667611       0.39865174      -1.12826711
Na      19.58953243      20.40392303      77.83827672       0.56822736      -1.61619271      -0.57918438      -0.53073438      -0.63919192       0.24061559
Na      22.32380617      21.66297237      80.94248710       0.20142614      -1.90714642       1.04682154      -0.53846344       0.16102111       0.12392696
Na      20.25306285      19.85589944      81.71458034      -0.11255880      -1.43195513      -0.71155401      -0.13548207      -0.00686530       0.12881811
Na      22.83938199      22.13937937      83.92575625      -5.20532236      -5.66760597       0.96366688      -0.08372996       0.16078321       0.23503667
Na      20.25592350      20.26972387      86.21220070       0.46391995      -0.08805729       0.48406021       0.18476477       0.06061120      -0.08503904
Na      22.66644162      22.52366693      88.06236083       0.06506730       0.07439362      -0.33479608      -0.03173210      -0.07437166      -0.05004130
Na      20.50668530      20.60703741      90.14948612      -0.29624339      -0.30617222       0.36265288       0.01662957      -0.16444468      -0.03614045
Na      22.44933203      22.44512869      92.15087289      -0.00793825       0.83958158      -0.55275499       0.04626632      -0.10549053       0.08720174
Na      20.50101217      20.19449356      94.52564585      -0.01254332       0.17573690      -0.35145763      -0.07646613       0.18979214      -0.05644293
Na      22.35597181      22.49802203      96.45395532      -0.39862832       0.05052965       0.82116273       0.03253276      -0.07977956      -0.06547892
Na      21.44299433      24.69474758      71.02427361      -2.52231045      -0.00432422       1.33225887       0.28864291      -0.07853118      -0.20344586
Na      22.73828524      26.59555156      75.57136500      13.30667485       2.04372890       1.81987678      -0.55281032      -0.41284595       0.21875762
Na      19.86390281      24.12973255      77.88520106       0.22513544       0.93294554      -1.71201182       0.05654527       0.41572292       0.02270269
Na      22.60686608      26.72950225      79.88519540      -0.06135376      -0.43010550      -0.87520075       0.01050712      -0.20666291      -0.16059431
Na      20.62325881      24.59810618      81.50411247      -0.13603230       0.08053398      -0.75111104       0.00104751      -0.20976969       0.12658002
Na      22.33038937      26.04265987      84.24275345     -17.94724061     -47.58903275       1.19195851       0.18990733       0.23505337      -0.18539409
Na      20.53712617      24.21906225      85.96826670       0.50902946      -1.11243461       0.29543528      -0.14154674      -0.05822606       0.18374840
Na      22.41461954      26.56929518      88.26584289      -0.45610352      -0.48169316      -0.20032576       0.07795049      -0.04943053      -0.06083944
Na      20.56307135      24.30961382      90.17268358      -0.24901803       0.45513372       0.27673081      -0.09904282       0.05916357      -0.03607809
Na      22.47024408      26.44912322      92.10496984      -0.20499496       0.15512150       0.29104706       0.05569793       0.10244751       0.05349619
Na      20.53630290      24.37472394      94.34628933      -0.22551554      -0.37312447       0.72319380       0.01427179       0.01615089      -0.00536822
Na      22.50492884      26.93625807      96.06583246       0.28625659      -0.00197420       0.90119904      -0.10413673      -0.08140388       0.04617795
Na      24.43843773      -0.79789787      73.81774043       0.93093689      -2.52341199      -0.88314891      -0.33847671       0.61795919      -1.02434779
Na      26.40931354       1.67720689      76.04700440      -0.90920757      -3.25531612       1.70837846      -0.82433989       0.29289543       0.12644275
Na      24.66412413      -0.14113243      77.61681192       0.06748070      -0.19940412       0.07432493      -0.34745115       0.18336245       0.46823973
Na      26.35017407       2.08686118      80.03234210      -0.60391525       0.81933448       0.47830976       0.07107336      -0.30497590      -0.00231588
Na      24.59563707      -0.07970070      81.77141716      -0.63394050      -0.41812581       0.35239277       0.19166260      -0.22137993       0.13929437
Na      26.55827873       2.00955158      84.02341089      -0.14295753       0.48906796      -0.24929738       0.06125238       0.04334348       0.06909388
Na      24.68441666      -0.17424449      85.90937416       0.66921433       0.26573941       0.24507085      -0.08844911      -0.05951126       0.02383641
Na      26.53965123       1.99753582      87.97543177       0.33511992       0.07653545      -0.14086526      -0.00135472      -0.00726645       0.03636965
Na      24.57596066       0.10836140      90.20358281       0.10322520       0.88189232      -0.28790988      -0.09191761      -0.07001503       0.00691021
Na      26.52174860       2.13606963      92.13472701      -0.79269002       0.45063481       0.40028551       0.01793127      -0.03865060       0.11022140
Na      24.38572532       0.29848872      94.32329817       0.43109754      -0.12959178       0.02156052       0.06156092      -0.02342788      -0.01799065
Na      26.55402952       2.23991975      96.13914107       0.37960467      -0.23222284      -0.55118257      -0.01961395      -0.02661078      -0.02742741
Na      25.49258820      11.75172594      67.06634655     -51.04052087      84.76512482     -79.25879412      -0.16027140      -1.15091793       0.20817556
Na      22.55019876       7.11617302      76.25681175     -62.19121092      -4.96477734       5.14211613       1.34221414       0.16468950       1.47035726
Na      24.71926931       4.06725258      78.18500494       0.05951074      -0.75702806       1.30084662       0.80271093       0.07321971      -0.14312649
Na      26.59635379       6.47827491      80.30157629       1.44027307      -1.32810162       1.99311527      -0.02678650       0.05529247      -0.17132677
Na      24.69993640       3.95274628      81.87872715       0.41495721       0.18409587      -0.95115871      -0.15951850       0.11340554       0.18088419
Na      26.51092984       6.08086122      83.93256642      -0.39658139       0.69219247      -1.04974954      -0.04142538      -0.01119192       0.13114930
Na      24.33184046       4.07235011      86.25118584       0.12931493       0.51647117      -0.21198765       0.07635385       0.06407100      -0.04243150
Na      26.61620571       6.09967350      88.16044586      -0.08189447      -0.31802264      -0.10036695      -0.11629307       0.04886213       0.02005484
Na      24.40369418       3.97367976      90.16494388       0.08744217      -0.16658846       0.09930982       0.02283760       0.00969159      -0.10509082
Na      26.41733965       5.88280105      92.19883466       0.00744840      -0.97873878      -0.09529357       0.08023422       0.09416846      -0.03631653
Na      24.34989912       4.22860569      94.29995143      -0.41309945      -0.35792999      -0.02179441      -0.03025966      -0.04182550       0.05650541
Na      26.61062651       6.04274692      96.07158714       0.02736456       0.54565437       0.76409520      -0.03231683      -0.01191359       0.13969622
Na      21.94096016       4.28993870      78.01999291      12.25896297     -38.00884679      28.67876184       4.17365007       0.32441178      -0.33258991
Na      31.41481913       8.93267197      81.65883031       3.09250017      17.43676684      54.91345121     -75.69935186       2.21886527     -11.69663906
Na      23.00433864       8.17874840      78.40635333      -7.47135864      -2.36730229       3.15998796       1.36639845       0.45006754       0.48784782
Na      26.59080733      10.74285045      81.44543066      19.92759274       0.88453521      21.28747570      -1.80552439      -3.71467667      -2.75430003
Na      24.64604489       8.42694826      82.11023669      -1.17976422      -0.03061144       0.42723213      -0.20992128      -0.82844427       0.26142854
Na      26.55597295      10.31312689      83.77386791      -0.25865497       0.01356862      -0.05779119      -0.07089726      -0.22051300       2.17772468
Na      24.32339992       8.21474417      86.04655730       0.36533576      -0.63078130      -0.01889952       0.18913622      -0.01070876       0.10017640
Na      26.77366363      10.05812340      88.19821594       0.30064799       0.02776720       0.89497426      -0.04550856       0.05067876      -0.06657189
Na      24.61215708       8.32304887      90.17987181       0.48249789       0.93771568       0.19933351       0.02990905      -0.00771429       0.03869425
Na      26.53506465      10.27295728      92.55211239       0.24972451      -0.07962021       0.25600706      -0.02110265      -0.06844142      -0.15731112
Na      24.34408603       8.05848299      94.30329186      -0.33230676      -0.01226985      -0.07862184       0.14336484      -0.03076460       0.05270199
Na      26.67743858       9.95041528      96.23788344       0.73913272       0.22847237       0.08364390      -0.06821008       0.03350452      -0.13444277
Na      24.24795166      10.80223685      80.76428875     -11.65703469      -1.43567190      35.96257537      -5.20015420     -64.25117836     -41.47309529
Na      25.92338945      13.43758270      74.64536010     -16.39959337      18.24378938     -10.20074941      -0.23356568       0.25893504      -0.34876686
Na      23.72880795      13.58946267      77.86250340      -4.40330017       3.66794942      -0.47059557       2.98632313      -2.69382682      -5.84463951
Na      25.88507293      14.68253285      80.29955887      -1.43173677       1.21935620       1.33016470       0.61553300      -0.02803128      -0.38025408
Na      24.36913974      12.47335088      81.82503314      -1.51543750      11.76221212       9.18392349       4.02521921      64.98374318      41.50606773
Na      26.65494820      14.08846389      83.77682803      -0.77728607      -1.18067799      -0.27525270      -0.15423918       0.36459074       0.28897540
Na      24.40183679      12.45940173      86.03762192       0.21841210      -0.27183910      -0.39387946       0.16934440      -0.09530374      -0.06110314
Na      26.58268261      14.14544249      88.28277091       0.08750424      -0.49095166       0.09107532       0.11584626       0.11217200      -0.02110965
Na      24.55203546      12.22457968      90.10695816       0.14520965       0.09824556       0.08276629       0.11471787       0.02607383       0.21561650
Na      26.79297089      14.23256301      92.33925457       0.43400082       0.87928949      -0.37393887      -0.11127323      -0.05596897      -0.07123726
Na      24.45025593      12.40177993      94.45795703      -0.39258782      -0.36597445       0.46395865       0.10911742      -0.02766600       0.02656636
Na      26.59193692      14.26808409      96.24928775      -0.46138052      -0.34878758      -0.05033466       0.08743380       0.01343942      -0.00783478
Na      22.77018672      15.88432019      74.25065402      -2.21698918      12.90968925       1.64543506       0.18887885      -0.14217203      -0.96569878
Na      27.51649607      18.78392139      75.83774230       0.25381945      -3.67398626       3.81489097       3.57168710       5.26325295      -6.97988983
Na      24.04656432      16.46550831      77.52784082      -0.06641579      -0.14139706       1.23896756       0.43445284       0.49673083      -0.04156461
Na      26.60568435      18.92108356      80.14569927       0.58005440      -0.57480668      -0.82257012      -0.00283747       0.09598723      -0.25994531
Na      24.97230467      16.70249326      81.66091118       0.56020112       1.06981618      -0.87978762      -0.00548439      -0.06998472       0.35748934
Na      26.49267160      18.21461712      83.24112535       8.75889072     -33.41598473       7.69668235       0.34109347       0.26894107       0.49201165
Na      24.59638471      16.40346165      86.06080678      -0.15307400      -0.01148544      -0.17274945       0.06702142      -0.04826784      -0.09189855
Na      26.84236592      18.14438220      88.13972825      -0.53770551      -0.00755402       0.35097504      -0.04619049       0.18892272       0.00995645
Na      24.86635237      16.36841953      90.30853418       0.10248827       0.58113670      -0.26060490      -0.13664144       0.01264171       0.05899229
Na      26.43834861      18.58963360      92.44042056       0.32860846       0.27271137       0.59149838      -0.01402338      -0.02177040      -0.19001712
Na      24.67109614      16.37172782      94.50557011       0.10574366      -0.61672663      -0.42427631      -0.15454518      -0.00866048      -0.01250977
Na      26.46325235      18.50699816      96.24569369       0.05225106       0.03986609       0.03043237       0.05278261       0.06477129       0.10696618
Na      25.18468562      20.12402214      74.50299970      -7.66634839      -0.50858813      -2.51000083       4.51816404       2.48424701       0.01902618
Na      26.65201150      20.98600991      76.27231847      -2.76408101       0.96226359      -3.51961664      12.06573446       8.78138080     -16.94377639
Na      22.87527035      19.62983041      78.54829826       1.97978233      -1.85441292       3.36420927       0.54907407      -0.14750443       0.21979037
Na      26.33708168      21.74954063      81.01249511      -0.95193702      -1.33586714      -1.35874953       0.42609104       0.07944058      -0.87271552
Na      24.13623801      20.10531954      81.88180471      -0.92808855      -0.62717790      -0.05451978       0.35109349      -0.54182584       0.40382940
Na      26.56562011      22.41738207      83.80737015       9.60882105       7.55228825       3.60380954      -0.60745813      -0.06839434       0.68262595
Na      24.78012578      20.23788301      85.84874849       1.06968947       0.33840365      -1.55247034       0.13890141       0.00846042      -0.04654374
Na      26.66306686      22.59161954      88.15771956       0.41012023      -0.27508299      -0.36607767      -0.02832297      -0.16080849       0.03329752
Na      24.52742033      20.48162876      90.00714292       0.27356496       0.07715672      -0.08391154       0.08552700      -0.06340730       0.09460347
Na      26.28015296      22.39571539      92.50765746      -0.40667320       0.53295051       0.78760192       0.11802524       0.09405146      -0.20915570
Na      24.46256795      20.58640066      94.45788866      -0.18686206      -0.27775958      -0.20087853      -0.13005715      -0.03279515       0.18677143
Na      26.71551778      22.62402966      96.20320612      -0.66795621       1.08719104       0.12659862      -0.09136788      -0.08488325       0.10542221
Na      25.77971109      23.65654519      75.59607385      -5.65471609       5.23023078      -0.17446385      -1.12695566      -2.22563381       1.54913646
Na      26.98340059      25.85398705      76.08370637      -2.60458632       7.53345682      -0.13241564       1.72644833      -3.80355162      -2.31571791
Na      23.19049728      22.91880483      78.95401057       1.30721177      -2.43322447       3.01067615       0.80730241       0.58850394      -0.06688978
Na      26.89593995      25.59125901      80.59901502       0.34103966      -2.55648120       0.35746552      -0.00358564       0.06206321       0.07457506
Na      24.36845421      24.26868125      82.02066134       0.83208853       2.67965281      -4.12114770      -0.04234849       0.09290217       0.10507314
Na      26.59712070      26.09200550      83.88711675      -0.62873408      -0.44480412      -0.53704738       0.03577763       0.21317065      -0.16554661
Na      24.77797256      24.40834461      86.10282534       0.30033620      -0.36296612      -0.69400415      -0.11779472      -0.01733410      -0.00896462
Na      26.48458913      26.65899772      88.18766575       0.07921004      -0.05173114       0.00152767      -0.03464045      -0.13184845       0.01633659
Na      24.52498555      24.42911316      90.28890940       0.07598266       0.50145331       0.33869732       0.08310728       0.06545125      -0.02630563
Na      26.46842126      26.85363047      92.40477732       0.08883973      -0.59125204       0.78416137      -0.05481286      -0.14312369      -0.06200598
Na      24.21963626      24.48437698      94.45548294       0.35141436      -0.73497703       0.76688435       0.09632366      -0.02042388      -0.00482164
Na      26.32408871      26.60244439      95.92437149       0.53398985      -0.15204065       0.44843740       0.04163846      -0.02109278       0.13726246
