2712
Lattice="28.6612 0.0 0.0 0.0 28.6612 0.0 0.0 0.0 100.8156" Properties=species:S:1:pos:R:3:momenta:R:3:forces:R:3 energy=-7065.200037212843 pbc="T T T"
Na       0.02696220       0.46624664       0.42165883      -1.17101008      -0.14642165       0.32694218       0.01419615      -0.10862277       0.09652987
Na       2.19032861       2.24745443       2.44646021       0.06658838      -0.11952429       0.19867565      -0.10797288      -0.12764766       0.00696063
Na       0.16247436       0.08486303       4.45876627      -0.24959394       0.25179461       0.40616133      -0.00337253       0.08533452       0.08337143
Na       2.05347096       2.03466907       6.67065655       1.14590514       0.65110069       0.12036488      -0.10103893      -0.00318433      -0.00050529
Na      -0.16009096      -0.17224514       8.78423471      -0.58450605      -1.07625622       0.44174452       0.07137242       0.04635226      -0.05915313
Na       1.76526924       2.15224442      10.70433910       0.02952691      -0.41460148       0.17062389       0.20077087      -0.01373550      -0.04145265
Na       0.03328550       0.14547196      12.69695607      -0.32990031       0.47498868      -0.23097540      -0.10605147      -0.11823223       0.03208084
Na       1.97538455       2.07545987      14.88767053      -0.03023030      -0.10334174      -0.12271755       0.07284689      -0.07576860       0.01396276
Na      -0.32752572       0.00293525      16.76011318      -0.30774305      -0.32831550       0.19138153       0.08120781       0.04153689       0.00943673
Na       2.33458553       1.96591232      18.50604988      -0.12527438      -0.48832464      -0.71096368      -0.05990983       0.04493588       0.04255714
Na       0.04444487       0.14235837      20.73603005      -0.10123612       0.29655513       0.62536771      -0.07409250      -0.02054209       0.03564427
Na       1.90509209       2.01774745      23.32234596      -0.13712809       0.60393151       1.98631696       0.01644972      -0.07772440       0.24588918
Na      -0.17302765       4.02987759       0.49143624       0.34906289       0.58347289       0.21920816       0.05861123       0.09033257       0.09631825
Na       2.12833733       6.01203966       2.26162408      -0.22881514      -0.17088800       0.24344409      -0.02382266      -0.05413886       0.03693367
Na       0.03623026       4.11339124       4.56700786      -0.01455458      -0.53804686       0.59096853       0.00069765       0.02398244      -0.06037443
Na       1.85407984       6.12963977       6.53350156       0.14029908       0.21075075       0.78153303       0.07328702      -0.01810553       0.13530467
Na      -0.25424979       4.02761421       8.75155081       0.29267806       0.52557184       0.45756746       0.05644901       0.09844370      -0.08241877
Na       1.77494135       6.43732406      10.57070910      -0.11003842      -0.27614786       0.72118777       0.07575746      -0.10337290       0.05618797
Na       0.02839876       4.10497388      13.01887933       0.16346720      -0.62860043      -0.21212459      -0.08932038       0.13496101      -0.11557310
Na       1.82837285       6.51788780      14.98986240      -0.17252569      -0.03256423       0.67719033       0.04911950       0.00663317       0.03348963
Na      -0.09509761       4.20884562      16.69176534       0.58808722      -0.69761534       0.70974188       0.03301989      -0.04141375       0.02072743
Na       2.03179727       5.91908064      19.00009842       0.02255663      -0.48145129       0.14521547       0.01579733       0.08487877      -0.13984948
Na       0.07163071       3.68889426      20.99838769       0.21073606       0.11392728       1.05203850      -0.08674140       0.04245259      -0.06925189
Na       1.92493096       5.87974741      22.68011758       0.36727460       0.76686225      -0.08581958       0.00189515       0.06178109       0.15690763
Na      -0.02501427       7.96490217       0.51000397       0.27406419       0.07811094      -0.50438236      -0.04359233      -0.06876307       0.05733792
Na       2.17707599      10.07611833       2.08273716      -0.04043023      -0.54214634      -0.25562959      -0.03421293      -0.01936835       0.05042451
Na       0.12744619       8.03633522       4.38905058       0.32902228       0.61317920       0.72339728      -0.07855179       0.03787029      -0.07538089
Na       1.92392200       9.93870377       6.48740321      -0.01874679       0.70058892      -0.46877947       0.14627599       0.11862911      -0.00621664
Na      -0.26919148       8.34257544       8.59673181       0.64580865       0.13170984       0.05591384       0.06967577       0.05484770       0.03723025
Na       2.27138771      10.40814499      10.48862896       0.06205054       0.09439354       0.38922103      -0.08640537      -0.03683627       0.10833898
Na      -0.05935560       8.55282674      12.75432464      -0.32705788       0.04298284      -0.25356493      -0.05602302       0.00258301      -0.03269627
Na       2.08890642      10.52058031      14.71233838       0.27432558      -0.69163454      -0.52731305       0.01857035      -0.04284842       0.10985867
Na      -0.19965543       8.44796814      17.17208165      -0.14586220       0.48841304       0.02846889       0.08690683      -0.08539620      -0.16085196
Na       1.98822541      10.33211175      19.07628796      -0.08712358      -0.24731185      -0.18419502       0.00654536      -0.01025715      -0.08125116
Na      -0.08505569       7.97716218      20.89306676      -0.19908846      -0.15555657       0.59109841      -0.09451183       0.01328541       0.03108855
Na       1.71898619      10.09973301      22.73862586       0.00062113      -0.13236048       0.04380037       0.00801390      -0.09203732       0.13813439
Na      -0.13133193      12.08488445       0.53427941      -0.53556651       0.17433764      -0.23710901      -0.02573439      -0.01030438      -0.00724324
Na       2.05998061      14.13376491       2.13488916      -0.26601514      -0.22132987       0.52293061      -0.11809287       0.03109977      -0.01599049
Na      -0.06441200      12.10028299       4.45645271      -0.08852403      -0.47936507      -0.22778983       0.06057509      -0.01733112      -0.03856753
Na       2.01499004      14.21349191       6.40359661      -0.63220777       0.55315862       0.26384695       0.01512928      -0.01934868       0.01579014
Na       0.04673648      12.33104704       8.33284784      -0.16129394      -0.62386027       0.16375583      -0.09617124      -0.05459443       0.02717087
Na       2.17599020      14.25333505      10.38823898       0.78936049       0.24473581      -0.27159936       0.01730239       0.04500639       0.06438178
Na      -0.14876739      12.37912033      12.56720384      -0.35851679      -0.82432812       1.06704168       0.02195288      -0.00242674       0.02971354
Na       1.86339462      14.47060232      14.67140293       0.02740079      -0.11558064      -0.15513424       0.02022437      -0.10408764       0.05839770
Na       0.02035983      12.45940950      16.81281979      -0.57729716      -0.01998999      -0.01422152       0.02458726      -0.12311804       0.04359142
Na       2.17345001      14.28942131      18.99447431       0.23439469       0.48695951       0.12160355      -0.12800329       0.08496247      -0.04162615
Na      -0.01156544      12.28933861      21.19149276       0.38000487      -0.73351546      -0.47827277      -0.06175082       0.15711621      -0.14628817
Na       1.92521826      14.43380944      23.25108617       0.40105884       0.38375963       0.31798372      -0.03858957       0.00585437      -0.04724001
Na       0.11477183      16.55296343       0.31646590       0.09018932       0.49551248       0.63713039      -0.05966706      -0.10106849       0.19032242
Na       2.13776171      18.44585087       2.28401987       0.78286393      -1.02444806       0.27562752       0.04587324       0.02459443      -0.00050986
Na       0.21519805      16.34089433       4.26037178      -0.36483303      -0.30653442       0.29139655      -0.10984444      -0.08109011      -0.04838116
Na       1.86762908      18.36731753       6.27542306      -0.63211542       0.57623543      -0.45030134       0.07069445       0.08107978      -0.02430469
Na       0.05202314      16.34613205       8.46147417       0.05575028      -0.54857161      -0.16291923       0.01891595      -0.04251317      -0.02809313
Na       2.08587787      18.32954537      10.59743146       0.34803568       0.31101904      -0.22495151       0.01974033       0.00965741      -0.05393643
Na      -0.15149990      16.29074281      12.56632654      -0.68602297       0.43835384       0.73032087      -0.01509751       0.03549220      -0.01892952
Na       2.12152685      18.50773074      14.48876056       0.25690937      -0.22844375      -0.52038108      -0.06575080      -0.00061558       0.07478567
Na      -0.10209324      16.47386793      16.76310623       0.26929270      -0.03114415      -0.50304707       0.10888069       0.03362783      -0.02984346
Na       2.07075749      18.43851151      18.75769900       0.62459993       0.55384227      -0.25265624       0.03657616       0.04542880       0.01590168
Na      -0.00125249      16.28043129      21.07123522       0.10975365      -0.40765735       0.45451934       0.07478833      -0.05306812       0.07803231
Na       1.87734033      18.59481936      23.10023931      -0.50293607       0.38079900      -0.07519395      -0.07585277      -0.02598133      -0.12915312
Na       0.01167999      20.62650257       0.46597407       0.79319601      -0.02606084      -0.16304059       0.00256377      -0.04055807       0.15824271
Na       2.30426896      22.65544894       2.26522843      -0.00945624      -0.71493873      -0.01922334      -0.00026256      -0.04087568      -0.01185278
Na      -0.07085973      20.45196919       4.10652777      -0.56597504      -0.14428672       0.51308746      -0.02733791       0.03011568       0.07680393
Na       1.82778655      22.36168765       6.38746926      -0.49377131      -0.22714849       0.26800743       0.05808854       0.05562782      -0.04196496
Na      -0.21492232      20.37665353       8.44464931      -0.05110745       0.05983028      -0.63721512       0.07647100       0.00993257      -0.04864610
Na       2.02498476      22.22688554      10.46627885       0.13602304      -0.65870322       0.34158595       0.05673460      -0.01632648       0.03564612
Na      -0.27198715      20.43171026      12.48673333      -0.12722359      -0.19049013      -0.62200216       0.12152781      -0.05665101       0.07762263
Na       2.16834664      22.44007419      14.54215184      -0.14539306      -0.28286404       0.23088210       0.00018834      -0.00431577      -0.03838689
Na       0.20052728      20.56433149      16.63868663      -0.56947527       0.26330053      -0.08676114      -0.05587390      -0.06850831       0.08064043
Na       2.17500547      22.79818828      18.98655879      -0.86580920      -0.13854894      -0.37518625       0.02777175      -0.19285977       0.04794802
Na       0.04682025      20.53724701      20.79280476      -0.35948935      -0.30134671       0.15082408      -0.00419641       0.01747661       0.05289308
Na       1.84465076      22.42704570      23.06272922       0.14323632       0.30553563      -0.12423123       0.02349941       0.05097241      -0.06738332
Na       0.16003778      24.69513673       0.49998083      -0.20685898      -0.20427506      -0.00035166      -0.02696124       0.03063547       0.08944236
Na       2.07237606      27.00669896       2.18398251       0.60796915      -0.43907947      -0.11952964       0.08348467      -0.17981622       0.03208315
Na       0.05816014      24.58499876       4.22458867       0.49385540      -0.32940749      -0.49525262       0.07731449      -0.06169059      -0.01174019
Na       1.95804960      26.46299972       6.33449344       0.46739943       0.35691757       0.60543462      -0.03835769       0.03275349       0.14566852
Na       0.01900597      24.41610274       8.77660779       0.72460375       0.71658012      -0.50033921       0.00398530       0.05281618      -0.14148704
Na       2.15487882      26.47278987      10.73243696       0.46174342       0.35822341      -0.18060700       0.01713194       0.06770896      -0.05649568
Na       0.20169580      24.57171424      12.63031998       0.02786748       0.81095077      -0.14559729      -0.08629170      -0.10865326       0.05225362
Na       1.98348986      26.82241402      14.72417355       0.19828454      -0.50346900       0.65304081       0.06936073      -0.12078603       0.05085016
Na       0.29966729      24.44903245      16.71876806      -0.29022009      -0.40328700      -0.26849056      -0.10510487       0.03132062      -0.04679171
Na       1.93225865      26.73320063      18.65754733      -0.59418921       0.45442997      -0.84533714       0.14618674       0.02165446      -0.00238692
Na       0.10320952      24.64614181      20.93642782      -0.02222711       0.01717285      -0.54260253      -0.12266554       0.02887927       0.08181797
Na       1.67521748      26.91225631      23.02764416      -0.59067228      -0.68233255      -0.60928032       0.00714890       0.02223418       0.00868484
Na       4.15827137       0.14939244       0.38672972      -0.51701083       0.20500302      -0.54857791       0.06518350       0.00347692       0.06890927
Na       6.07957160       2.15878984       2.47441545      -0.68221236      -0.39733706      -0.35227060       0.03882639      -0.12625040      -0.05261574
Na       4.18138973      -0.01527755       4.54000600      -0.51372184      -0.54507074      -0.44749860      -0.08168832      -0.01547608      -0.08310007
Na       6.11269497       1.93647425       6.49547912       0.69483469       0.32189920       0.30221243       0.10005156       0.04813358       0.15058565
Na       3.89772726      -0.22306609       8.36827909       0.19730798      -0.24197486       0.47298579       0.01480321       0.07478352       0.12379226
Na       5.86233035       1.98144441      10.64222920      -0.19213823       0.15007235      -0.75749470       0.10683153       0.06212191      -0.03372016
Na       4.11173702       0.06073041      12.75015466      -0.38345136      -0.14623165       0.04797124      -0.06556253      -0.04315267      -0.03577875
Na       6.08776273       2.11826770      14.61408811      -0.48133788       0.19742286      -0.06615299       0.16465002       0.04870545       0.03072878
Na       4.48682021      -0.05663380      16.58168260       0.25949937      -0.27124039      -0.05684769      -0.11936091      -0.09262061       0.08233657
Na       6.32276390       1.86389795      18.64223038       0.40324913       0.07902182       0.51911842      -0.03108929       0.08569389       0.06099033
Na       4.18180158      -0.00834831      21.03474420       0.41617330      -0.77110139       1.38902501      -0.11910253       0.06452929      -0.01994418
Na       5.97585436       2.01996621      23.10465329       0.35633197      -0.01055761       1.00789940       0.07712083       0.01801053       0.06412293
Na       4.01685766       3.88254894       0.37758002       0.80132837       1.05592191       0.44630266       0.02848442       0.07399856      -0.05828299
Na       6.19422862       5.81191841       2.17881764      -0.06009837      -0.33076178      -0.28692190      -0.12231217       0.18449436       0.10609419
Na       4.14042620       3.99571857       4.72967519      -0.83675796       0.70936742       0.35471458      -0.04537584       0.12958183      -0.08385511
Na       6.23987762       6.05740868       6.50330668      -0.46056720      -0.23017958      -0.20671946      -0.02861258      -0.03410500       0.02328419
Na       3.97921283       4.18778590       8.60752404       0.66610129      -0.16034774      -0.90230979       0.02463616       0.01960010       0.00863525
Na       6.22153113       5.95535431      10.91343972      -0.56007015      -0.54904615       0.47593211      -0.03950471       0.07486399      -0.13660243
Na       3.96866456       4.27286511      12.89534251      -0.27299070       0.25092206       0.06465424      -0.08789214      -0.00005021      -0.07913001
Na       6.16483938       6.37807724      14.87499981       0.06576168      -0.29960847      -0.04213628       0.06459134      -0.01244110       0.12597952
Na       4.22007582       4.29295373      16.54979377       0.16807539       0.88751709       0.26849814      -0.05262483      -0.03287135       0.16651784
Na       6.07777307       6.25578628      18.96996726       0.17428930      -0.75672807       0.31115826       0.12638831      -0.07959107      -0.01371146
Na       4.29958056       4.10745403      20.92128838      -0.37223270       1.12778972       1.09807540      -0.02504900      -0.12996467       0.06423073
Na       6.37236018       5.97305001      23.04954352      -0.63732354      -1.03572499       0.84434000      -0.08024850      -0.10990705      -0.04915548
Na       4.17662430       7.88132297       0.25798990       0.53345118      -0.16640489      -0.28008284       0.03907388      -0.00042311       0.20034592
Na       6.01574996      10.14450981       2.11861546      -0.58501990      -0.62025728      -0.13076780       0.11559584      -0.08045037       0.02901836
Na       4.11390875       7.87711537       4.39770131       0.07038845      -0.19642603      -0.19525717       0.00248056       0.06053695       0.00738113
Na       6.31455356      10.15281641       6.08525357       0.54038500      -0.55978047      -0.17920919      -0.09284654      -0.00307209       0.17518755
Na       4.26766064       8.15053615       8.55558152      -1.27331960      -0.26863644      -0.52031691       0.00534214      -0.03285678      -0.05674702
Na       6.20740900      10.16007976      10.74611013      -0.15959212       0.39665577      -0.24791076       0.01312218       0.04341902      -0.00778457
Na       4.01150072       8.16484911      12.83767634      -0.24332208       0.17604437      -0.03089580       0.01363593       0.05402832      -0.05778953
Na       6.18447118      10.33919958      14.89154479       0.01694165       0.64748006      -0.24848537       0.02925918      -0.00437381       0.07199654
Na       4.23183298       8.47508091      17.16907939       0.29859061       0.06356039      -0.85349946      -0.13304647      -0.08382165      -0.14513031
Na       6.21116732      10.15996379      19.33428625      -0.33488210      -0.08650163       0.18948222      -0.00198064       0.17559548       0.04757573
Na       4.06905410       8.13605192      21.31210180       0.16180602      -0.52124752       0.03753308      -0.01079224      -0.09978089      -0.06943774
Na       6.27606021       9.72822449      23.12876809      -0.68847177       0.00822380       0.49805540      -0.01268098       0.17344796       0.01766952
Na       4.23382742      12.28326873       0.41899146       0.44664365      -0.24745106       0.64848290      -0.05896321      -0.02985891      -0.10271848
Na       6.05502900      14.36250854       2.11305072       0.21261627       0.27623748       0.35707645       0.04623698      -0.09430055       0.01165247
Na       3.96535603      12.24905286       4.25992128      -0.25855726      -0.67120249      -0.33606660       0.05587595      -0.06191094       0.11626741
Na       6.27791948      14.22600286       6.27261038       0.70779849       0.10154082       0.60006576      -0.16194465      -0.01780325       0.04534278
Na       4.34766995      12.11666440       8.42419150       0.34349028      -0.19052564       0.46687038      -0.02085548       0.05706397      -0.14336692
Na       6.15481132      14.38858391      10.51450471      -0.43127065       0.04512440       0.65895971       0.04353966       0.01689218      -0.05508489
Na       4.31861747      12.61477074      12.88103461       0.63207220      -0.01017552       0.09055501      -0.07662910      -0.13106111      -0.08664698
Na       6.30320279      14.14872824      15.15850007       0.17543218       0.15839083      -0.06523442       0.02406308       0.10257297      -0.07869187
Na       4.22064583      12.33979808      17.16572472       0.42329505       0.00406713       0.12038811      -0.00731605      -0.01512208      -0.05006043
Na       6.23800321      14.56683949      19.40622983      -0.56380459      -0.01801790      -0.58873697      -0.08592901      -0.02497573      -0.08460914
Na       3.80782094      12.30364999      21.31004836      -0.90888846      -0.55273310      -0.32097804       0.19672434       0.04163324       0.07544114
Na       6.07058381      14.60503216      23.16456352      -0.60054623      -0.10280381       0.26186775      -0.11041210      -0.00133111      -0.13963984
Na       4.00319613      16.28978345       0.46221022       0.37093887       0.05634693      -0.07256539       0.03209472       0.02666657      -0.01367306
Na       6.15429155      18.27365667       2.18449649       0.28648443       0.50085204      -0.92694276       0.04027791       0.01415419      -0.02337336
Na       4.00831276      15.98894534       4.30670331      -0.19379323       0.12307589       0.09004467       0.03842923       0.20667278       0.02452739
Na       6.27926765      18.41344566       6.10605124       0.69446943       0.14203649       0.06068134       0.01518711      -0.03661976       0.03733214
Na       4.12140105      16.44635834       8.06219156       0.23903194       0.07294115       0.33658310      -0.00046625      -0.07608889       0.07060393
Na       6.23419846      18.41735618      10.06629234      -0.03412411      -0.71101077      -0.68177752      -0.01742295      -0.07177886       0.15255891
Na       4.14132352      16.23730980      12.83658607       0.62516069       0.05459634      -0.14138171       0.11538636       0.08026068      -0.08607462
Na       6.43226488      18.54056337      14.78503391       0.32983426       0.10354845      -0.06182248      -0.00336456      -0.04060253       0.02892007
Na       3.92952620      16.29079278      16.68955435       0.67356419      -0.45646472       0.68894458       0.15347269       0.07001643       0.10237882
Na       6.12637481      18.70389320      18.92856436      -0.27410767       0.33918634       0.32877922      -0.04723052      -0.15542278       0.02040436
Na       3.87000999      16.56557755      21.09030535      -0.06264648      -0.20626843       0.21744702       0.06158889      -0.01407039       0.11024307
Na       6.07184596      18.60230425      23.66891509       0.40504437      -0.33087309      -1.23873541       0.06980242      -0.13123828      -0.17596277
Na       4.25542802      20.39138424       0.31962517       0.11123568       0.11460015       0.21996422       0.00703823       0.03373841       0.20764737
Na       6.50699696      22.51879990       2.47251054      -0.25104843       0.06521450      -0.25476982      -0.12637004       0.06022533      -0.18256497
Na       4.36399393      20.47025108       4.30327531      -0.40108692      -0.17279637      -0.92146797      -0.13809664       0.05290078       0.03283233
Na       6.49797894      22.62621971       6.22107069       0.02572104      -0.24323241      -1.15254062      -0.17963541      -0.11454730       0.08307144
Na       4.05925738      20.30260155       8.14525280      -0.10906425      -0.34091510       0.54159617       0.04236690       0.09548508       0.01582780
Na       6.09575522      22.51070822      10.25287365      -0.76230887      -0.17709983      -0.48189825       0.05717268      -0.20092559       0.01445531
Na       4.37290641      20.36133503      12.54583157       0.25219272      -0.85212008      -0.00437807      -0.02786540      -0.00062977      -0.06436570
Na       6.26940168      22.43410975      14.60199565       0.77250720       0.57255175      -0.40239825       0.05992966      -0.01225999      -0.02538581
Na       4.29273196      20.68520585      16.65758496       0.78917459       0.25757118      -0.14383398      -0.09517770      -0.06746767       0.12318602
Na       6.08745922      22.81064312      19.46547144      -0.67217197       0.19310284       0.60311243       0.01651864      -0.01730633      -0.08931085
Na       4.19160060      20.54155934      21.43429016      -0.00623513       0.54953580      -0.37800072      -0.10832755      -0.01829354      -0.13731742
Na       5.85512735      23.05278739      23.01106894       0.38983566      -0.32766468      -0.46837552       0.02954218      -0.00437336       0.05702196
Na       4.59051142      24.75452854       0.51150128       0.27851768       0.29062560       0.39310905      -0.15950928      -0.05886129       0.03398894
Na       6.31952976      26.56049559       2.47553957      -0.11293343       0.37639713       0.75725786      -0.04487257       0.14763089       0.01226496
Na       4.07228562      24.65080012       4.57839709      -0.13748570      -0.59468580       0.49303312       0.08150856      -0.04710656      -0.05768014
Na       6.27744914      26.83101103       6.58869499       0.02773172      -0.53585279       0.02035572       0.02356750      -0.13197647      -0.01892664
Na       4.16296207      24.32781800       8.44259020      -0.17808470      -0.13084293       0.24752188      -0.11772933       0.11060074      -0.14493099
Na       6.00060721      26.51792421      10.59813395       0.33434950      -0.07169867       0.00777563       0.01773373       0.05852058      -0.02910333
Na       4.26170082      24.21387296      12.38198592      -0.28323923      -0.08502128       0.21642774      -0.12654741       0.06349617       0.11218753
Na       5.97573690      26.26766943      14.63944590       0.07504304      -0.56988052       0.05549738       0.09077597       0.05642976      -0.06483743
Na       4.17382602      24.37872101      16.87996513      -0.13190517      -0.66292241       0.59114072       0.01507931       0.10162575      -0.06792505
Na       6.21273036      26.44029374      19.10757964       0.15501935       0.19137018       0.02093870      -0.00215407       0.07339900      -0.07916672
Na       3.82299166      25.11373035      21.35134454      -0.45004021       0.45968276       0.35202071       0.04666921      -0.11288034      -0.03784495
Na       6.29750181      27.07348893      23.25480766       0.16448179      -0.07828360      -0.27010975      -0.11424142      -0.18588754      -0.04120370
Na       8.15190255      -0.07211100       0.53452844      -0.58058786       0.24398570      -0.33779302      -0.01564148       0.09042404      -0.06792509
Na      10.20596225       2.15617737       2.18837859      -0.04359344       0.52965656       0.69459943       0.01344989      -0.09504026      -0.00056704
Na       8.29744375       0.14193506       4.42458989       0.28473275       0.43251996      -0.27592264      -0.02884432      -0.08826268      -0.06634272
Na      10.09317100       2.08870775       6.43587859      -0.07663015       0.31257385       0.77391648       0.16494258      -0.05871309       0.15015456
Na       8.27359066      -0.06737449       8.89044618       0.35401615      -0.03337659       0.04177900       0.04038982       0.04559805      -0.06734755
Na      10.29570036       2.18318586      10.92414189       0.15280138      -0.35690853       0.10913008      -0.03509155      -0.01436683       0.00687766
Na       8.18913770      -0.14514158      12.65489486       0.27179399       0.57323781       0.02785111      -0.00854530       0.01458061       0.01816528
Na      10.27467304       2.16637007      14.88855647      -0.24986166      -1.11046604      -0.09566375       0.04754808      -0.10596872      -0.10215182
Na       8.31198710      -0.12093051      16.52897083      -0.47117377      -0.20122173      -0.44694748      -0.08671681      -0.03067230       0.08689090
Na      10.26336215       2.04507293      18.85768326      -0.62700368      -0.74482913       0.06205554       0.09005257      -0.03759901      -0.00147959
Na       8.18846264      -0.07639160      21.01920092       0.55049998      -0.25782679       0.16013425       0.01200441       0.17321619       0.12624030
Na      10.04674795       2.14725497      23.56715876      -0.54995734      -0.73884237      -0.33254088       0.00498711       0.01812285      -0.07208869
Na       8.02237070       3.95171481       0.43183566      -0.09694369       0.03966069       0.25168671       0.10473487      -0.02557644      -0.16383206
Na      10.33596104       5.91887344       2.22901161      -0.28425195      -0.63179696       0.51334359      -0.21742091       0.10957745       0.03258075
Na       8.34929255       4.13068918       4.47444662      -0.55835591       0.14311523       0.05731607      -0.11436471      -0.01641335      -0.00637089
Na      10.28095326       6.28158531       6.33517498       0.17898049       0.01515268      -0.41470400       0.05835460      -0.12065899       0.06030379
Na       8.29920382       4.01552985       8.52491844       0.07233022      -0.17743678       1.13360390      -0.04563258       0.05160315       0.05662530
Na      10.22328624       6.26213269      10.90138486      -0.49107383      -0.38455236      -0.01513592       0.04350053      -0.04439542      -0.06416545
Na       8.33879492       4.27222391      12.91948067      -0.38453998       0.22119321      -0.24255179      -0.06423082      -0.08328414       0.03737071
Na      10.28706476       6.44430461      14.93705513       0.36163181      -0.00902380       0.73881103      -0.02088343       0.03342119       0.09207616
Na       8.46840218       4.13205397      16.94431518      -0.30804843      -0.49328836       0.78892867      -0.18768066       0.13488255      -0.03583201
Na      10.52117873       6.18431599      19.14100444      -1.25188565       0.99679631       0.51207285      -0.05730043      -0.09541313      -0.06948906
Na       8.22106810       3.83070110      21.03805073       0.02348933      -0.10923142      -0.16661574      -0.00814141       0.10105762       0.05247300
Na      10.15432132       5.99582807      23.29362704      -0.32200999      -0.33861038       0.33264527       0.09528604      -0.03603951      -0.02129391
Na       8.39300230       8.04357291       0.35099073       0.10888468      -0.13721339      -0.16623469      -0.11753912      -0.06422670       0.11662961
Na      10.11182834      10.09954179       2.19504574       0.67551901       0.25609112       0.80740482      -0.00861012       0.07115638       0.11131678
Na       8.00485428       7.96745097       4.26935232       0.17714364       0.51180845       0.13632429       0.09671310      -0.01958353      -0.07505462
Na      10.18935368      10.01274476       6.34588832       0.50933439      -0.20999545      -0.25112393      -0.13583681       0.07916869      -0.01906629
Na       8.26465194       7.90867883       8.54407288       0.22939942      -0.98158901       0.84110149      -0.09878737       0.11164912       0.00259928
Na      10.02155162      10.26071190      10.53785797      -0.22138972       0.19047550       0.47575240       0.03852178      -0.02560824       0.06144202
Na       8.12119783       8.14668950      12.91663328      -0.59261354       0.02222109       0.50177629       0.08337353       0.14864550      -0.06599234
Na      10.11184867      10.42687738      15.08773315      -0.16446052      -0.37639535       0.61182186       0.02281710      -0.00981054      -0.10664998
Na       8.31566995       8.48609999      17.28953683      -0.03637265       0.01882912       0.30760184       0.00206801      -0.10640788      -0.07112099
Na      10.44900493      10.49470195      19.44694981       0.01088683       0.26928239       0.96793819      -0.04154154      -0.05997204      -0.10562665
Na       8.39704117       7.98693674      21.28268607      -0.04014955      -0.38292507      -0.03705472      -0.04167785      -0.00636452      -0.10878600
Na      10.16643041      10.16251760      23.19643179       0.18539107       0.51458616      -0.42103324       0.04584355       0.00567848       0.01664885
Na       8.31539058      12.34453276       0.36524296      -0.18449609      -0.19206812       0.48352435      -0.02376695      -0.06699989       0.05469460
Na      10.34733832      14.28196164       2.40046868      -0.17567915       0.14449607      -0.35263771       0.01155721      -0.03942797      -0.10601030
Na       8.03998856      12.34572299       4.13192499      -0.40842642       0.50987356      -0.09932681       0.04258802      -0.12390815      -0.00778211
Na      10.05581760      14.27268480       6.12335781      -0.10988296      -0.03087504      -0.08531548       0.14096335      -0.00840610       0.08337382
Na       8.23680537      12.34379722       8.31363871      -0.66509247      -0.42429535      -0.62439327      -0.04547457      -0.10477876       0.01105991
Na      10.02288275      14.45046235      10.38787016      -0.35301433       0.70292771       0.73060985       0.09342465      -0.12358764       0.04089133
Na       8.27611756      12.29808684      12.79514089      -0.38922811       0.25649491      -0.26306276      -0.07601515       0.02776681      -0.09961889
Na      10.11221829      14.27541889      14.82072452       0.14575190       0.60224276      -0.23545161       0.11967199       0.03697060       0.12399492
Na       8.37250113      12.54725208      17.44487649      -0.38866914       0.87981153      -0.59458424      -0.02092221      -0.07807511      -0.00648087
Na      10.53234717      14.75231521      19.41120590      -0.19161001       0.09487702      -0.64365174      -0.01844322      -0.03781402      -0.07128248
Na       8.35094967      12.40681630      21.44109466       0.08193217      -0.01557430      -0.13113143      -0.16773811       0.00240094       0.02318575
Na       9.98184884      14.37261166      23.49296214      -0.21628948       0.09656268      -0.05907561       0.10851170       0.02167582       0.16127145
Na       8.24736015      16.18415874       0.28106572      -0.54879980      -0.42706826      -0.08851527       0.01396427       0.07802959       0.18087777
Na      10.33605127      18.17846635       2.27370106      -0.54120694      -0.22663405       0.33397332      -0.10540547       0.03361801      -0.03664898
Na       8.05244405      16.15227835       4.13850338       0.48552724      -0.54885337      -0.43377352       0.04446416       0.13672363       0.06830234
Na      10.30275971      18.38779032       6.08718187      -0.29219909       0.21499791      -0.46246662       0.01199701      -0.09581430       0.12272410
Na       8.19584833      16.32435741       8.14113023       0.57106195      -0.22340284       0.07853799       0.03563455       0.06471507       0.02743076
Na      10.42683648      18.51759738      10.40277050      -0.28009197      -0.94009529       0.85157709      -0.03608104      -0.11514837      -0.02303489
Na       8.49417284      16.25425540      12.69693003       0.32370129      -0.00143467      -0.76114716      -0.16027395       0.17166659       0.01832061
Na      10.31931779      18.93254567      14.95258242      -0.18974322      -0.51949528      -0.65837526      -0.11479266      -0.18481538      -0.04318926
Na       8.19132267      16.34933196      17.01675487       0.36930715      -0.05606873      -0.29148985       0.05565460       0.06613643       0.00880967
Na       9.97210016      18.47700531      19.12941073      -0.41898811       0.15957260       0.22659996       0.18703957       0.06058482      -0.08045358
Na       8.32986735      16.59430694      21.45976412      -0.23218151      -0.52665818       0.98357284      -0.06203745       0.06030542       0.06152324
Na      10.21652184      18.66052808      23.94757565      -0.45072380       0.86984168       0.43895009       0.03858330      -0.02524501      -0.14280502
Na       8.30707272      20.38901804       0.29197848       0.63239689       0.54802644      -0.49073820      -0.00213054      -0.03170533       0.18076758
Na      10.28394619      22.53145539       2.17605338       0.01610200      -0.03496740      -0.23378907      -0.04748480       0.16970352       0.11836843
Na       8.34628475      20.37122746       4.16199349       0.02055052       0.29262360       0.00391644      -0.00945566      -0.03305159       0.02863810
Na      10.19502755      22.41315970       6.29957662      -0.01506617       0.77989475       0.20767047       0.05813593       0.03903931      -0.13369268
Na       8.34621221      20.50692110       8.26990542      -0.50053828       0.31333934      -0.01158845      -0.06119449      -0.08444639      -0.02554392
Na      10.41266791      22.26897990      10.45101512       0.47910629       0.27553988       0.38633255       0.07444656       0.16216550       0.00926706
Na       8.19640117      20.50587578      12.10462478      -0.08877600       0.28608609      -0.68768049      -0.03793693      -0.04897716       0.21786506
Na      10.20951021      22.64287542      14.46932835      -1.09785766       0.03364106       0.27410234      -0.03457232      -0.04804586       0.02765363
Na       8.12530089      20.79490666      17.20670090       0.17199078      -0.06579148      -0.25588669       0.08039856       0.05704327      -0.06046526
Na      10.42228230      22.74230027      19.38559139      -0.87754266      -0.67031813       0.24136491      -0.14954878       0.00283757      -0.01053157
Na       8.18038110      20.59639271      21.29128570       0.18493739       0.42086713      -0.86296745      -0.01325425       0.03606095       0.10809826
Na      10.19549694      22.38959321      23.49893124      -0.02084275      -0.51977828      -0.16941365      -0.06642794       0.01522787       0.02559479
Na       8.44513080      24.68828317       0.36241789       0.06672266       0.13484061      -0.91350500      -0.04246039      -0.09654511       0.02194348
Na      10.40426599      26.60931395       2.10871401      -0.98666565       0.45836853      -0.22643356      -0.00183152      -0.02721919       0.10993753
Na       8.24910589      24.76226804       4.49032607      -0.48974229       0.17718761       0.01822386       0.13447913       0.00219578      -0.03846687
Na      10.20559175      26.66056077       6.51943716      -0.01475739       0.27370814       0.01226900       0.03140605       0.06584342       0.02310401
Na       8.20111688      24.49479801       8.59014792       0.42900535       0.29314460      -0.37493174       0.08433227       0.05775334      -0.06703113
Na      10.57243460      26.20154430      10.68973998       0.31421259       0.27647530       0.25240704      -0.08532829       0.04782945      -0.00671921
Na       8.13778181      24.39003240      12.43118624      -0.79011679       0.17252471       0.24426606       0.02440573       0.06624203       0.00453903
Na      10.44365356      26.64974503      14.67044043       0.47272140       0.68157601       0.13423436      -0.06908920      -0.14448358      -0.04199884
Na       8.06476466      24.45574972      16.81827852      -0.12649993      -0.48753400      -0.36430552       0.11139733       0.04083263       0.05982404
Na      10.10520721      26.73707887      19.05699593      -0.15350365      -0.36458047      -0.02288749       0.12142158      -0.08944771      -0.10178146
Na       8.35451695      24.86118186      21.58712834      -0.20809033       0.15017841       0.42077548       0.02542175      -0.05374381      -0.01777360
Na      10.29767096      27.08759827      23.70231140      -0.24008485      -0.45221840       1.23450549       0.03665799      -0.01473909       0.07659122
Na      12.46055588       0.01906709       0.50776867      -0.25162904      -0.05755164       0.60180529      -0.14481482       0.03073598      -0.16342227
Na      14.26188297       2.13042007       2.20166432       0.12301725      -0.18634311       0.09400213      -0.13741939       0.05090270       0.14087273
Na      12.13903283       0.13488281       4.30295701      -0.07605510      -0.32967991      -0.18615282      -0.01783965      -0.03353455       0.00364292
Na      13.94605323       2.02872377       6.46251861       0.64994114       0.72603686      -0.15810926      -0.00043794      -0.04104315       0.13946357
Na      12.23411547      -0.06842583       8.78076495       0.38928997       0.67068597       0.34003428      -0.06680686       0.14219482      -0.07926708
Na      14.20241823       2.21756993      10.96716453       0.49445431       0.03512323      -0.49311664       0.04803278      -0.11630501      -0.09780538
Na      12.27336421      -0.06201453      12.64938282       0.32656414       0.17309943      -0.46644784       0.03074142       0.07059803       0.06818570
Na      14.42074621       2.12438214      14.99832471      -0.74448198       0.12655793       0.33609914      -0.09793541      -0.09916419      -0.11980927
Na      12.37122608       0.05807573      16.81925086       0.39439015       0.29077246      -0.42997535      -0.09735521      -0.05136830       0.08102254
Na      14.12314471       2.26812427      18.99708252       0.03954142      -0.34684501      -0.47848114       0.07364084       0.00563559      -0.07816290
Na      12.19315111       0.24412479      21.25580631       0.39355159       0.31988072       0.00115335       0.01892284      -0.07252982       0.04230770
Na      14.80745279       2.00916155      23.68136578       0.42788227       0.81973626       1.57460258       0.05972891       0.02713263       0.20111826
Na      12.15389904       4.10603113       0.35468994       0.59070795      -0.00390763       0.87999314       0.14336723      -0.03390687      -0.01258613
Na      14.21810507       6.10724411       2.40976984      -0.37623067      -0.63676654       0.25486548      -0.10634596      -0.06235430       0.03375902
Na      12.24345668       4.10833509       4.37419446       0.33682198       0.03365004      -0.14755743      -0.03753024      -0.03439178       0.10060227
Na      14.27486587       6.12711584       6.65808998       0.15907183       0.73211210       0.64569118      -0.13573689       0.02495848      -0.07939332
Na      12.20242510       4.08161800       8.84911185      -0.03733965      -0.60347262       0.64338652      -0.01464453       0.07339331      -0.17063023
Na      14.22535617       6.54423999      10.56672154       0.10575405      -0.37042551      -0.05141357       0.04430215      -0.21907959       0.04568718
Na      12.43535581       4.39142371      13.15244803       0.69412801       0.24544240       0.06161071      -0.04691123      -0.01514288      -0.16130230
Na      14.38846475       6.68090577      14.91017377      -0.15144548       0.67526173      -0.49082258      -0.05500658      -0.11814193       0.14184775
Na      12.32748756       4.26814278      16.75131558       0.71829380       0.37379319      -0.71159771      -0.00789652       0.01384702       0.04891040
Na      14.19558159       6.11170125      18.95424077      -0.19113542      -0.52970764      -0.12801408       0.07776625       0.06696883       0.01181808
Na      12.50626549       3.97008257      21.52187689       0.96953192      -0.05145592       0.33437990      -0.04668409       0.07273046       0.05605830
Na      14.95183072       6.31888399      23.06725191      -0.00103451      -0.22648403      -0.49576076      -0.10143276      -0.07368223       0.04132042
Na      12.17102712       8.04409615       0.49470710       0.21158962      -0.33919982       0.11264830       0.12014420       0.03797282      -0.05490306
Na      14.30606124      10.16050409       2.37158550       0.36124805      -0.25774754       0.72504714      -0.08211953      -0.01453172      -0.12541061
Na      12.18572647       8.28374062       4.20161999      -0.02128055       0.16623647       0.33934101       0.06033848      -0.10854588       0.12681231
Na      14.46089450       9.79975879       6.54815841      -0.04674845      -0.13059664       0.34001352      -0.13880758       0.20318740       0.01207877
Na      12.09520150       8.25562294       8.55381222      -0.34295869      -0.09240855      -0.16671629       0.00919559      -0.02028411      -0.01036474
Na      14.38087935      10.33559876      10.37510634      -0.10937767       0.74245606      -0.42142993       0.01417924      -0.00540524       0.06621802
Na      12.35103614       8.30887579      12.74936935       0.28164935      -0.63655627      -0.03855989      -0.10201873       0.17466781       0.01731364
Na      14.52734152      10.41980847      14.73044388       1.11429307      -0.20094391      -0.11356138      -0.23916483       0.05267619       0.10850662
Na      12.17133547       8.61000029      17.11037215       0.98497958      -0.55943583       0.28935600       0.08359663      -0.11377963      -0.06428043
Na      14.11744962      10.37818485      19.22479178       0.24814684      -0.00286316       0.07588870       0.05419633       0.01952844       0.03913401
Na      12.26757824       8.12548272      21.38141806       0.12463592       0.78638214      -0.48288554       0.06740824      -0.07258400       0.05019254
Na      14.48068972      10.06169033      23.01615838       0.17486165       0.20496489      -0.08714269      -0.10206499      -0.02822947       0.06763685
Na      12.13212517      12.10599304       0.51365614      -0.26253878      -0.37454067       1.05752908       0.01530632      -0.04405982      -0.06989902
Na      14.29072100      14.06802826       2.03919982      -0.02414734      -0.29765987       0.30868111      -0.04020218      -0.00370654       0.20909985
Na      12.27203769      12.05458860       4.53511129       0.13741943      -0.16481460       0.04337932       0.04872241       0.04591582      -0.02311453
Na      14.47694754      14.29109022       6.33386932       0.11070845      -0.15701153       0.25057961      -0.10490965      -0.03279366       0.05289728
Na      12.13151391      12.16556830       8.36256733      -0.14085813       0.49097692      -0.01794678       0.02845212       0.06280336      -0.07862987
Na      14.31893545      14.14989642      10.38745716      -0.01874949       0.78890732      -0.29353486       0.01800292       0.01637118       0.09669521
Na      12.10132698      12.38673343      12.62942928      -0.30244528      -0.31232093       0.60420102       0.06358592      -0.04174501      -0.00164810
Na      14.43016213      14.47155120      14.75838005      -0.14107840      -0.23465714       0.17191940      -0.01741690      -0.11816017       0.01152395
Na      12.23535714      12.44856176      17.05693473       0.55156726      -0.25376715       0.37765852       0.06585863       0.07761533      -0.01012238
Na      14.36027009      14.42882186      19.49620160       0.43227651      -0.18915206       0.62936135      -0.08372562       0.00258677      -0.09588340
Na      12.26852326      12.50502602      21.52217596       0.18284792       0.44547548       0.75606895       0.07412909       0.01413276       0.13149091
Na      14.19306224      14.33048153      23.92316309       0.22992999      -0.28550029       0.78694276      -0.06625395      -0.15736280       0.02867062
Na      12.36964196      16.25851680       0.57799406       0.37579648      -0.22463679       0.07752026      -0.03485412      -0.00243036      -0.19218482
Na      14.38335651      18.26385783       2.27531746      -0.04596856       0.27654489       0.31281607      -0.00855866       0.15007533      -0.02972492
Na      12.58586604      16.14279686       4.35824036      -0.16469405      -0.01840677      -0.15956171      -0.10721928       0.05152936       0.02074105
Na      14.35597574      18.37473211       6.36101610      -0.33288591      -0.39246929       0.21221097       0.04597125      -0.05107812      -0.04920107
Na      12.15120574      16.12206694       8.35626408       0.18850023       0.01322777      -0.12655145       0.08798105       0.09623182      -0.07405259
Na      14.13198147      18.62010591      10.62054749       0.62528649       0.01860189       0.06102268       0.12163916      -0.15018890      -0.14114896
Na      12.37008215      16.23011048      12.67060024       0.83690831       0.18124588       0.54430233      -0.09698541       0.07706022      -0.02606043
Na      14.33190941      18.51964712      14.76891379      -0.02963519       0.25971668      -0.45086604       0.06184230      -0.02568776       0.09308156
Na      12.32716574      16.48637219      16.85915522      -0.41493491      -0.09698166      -0.32781266      -0.06214244      -0.04665359       0.01598625
Na      13.87474875      18.42168322      19.31383602      -0.34024547       0.24420916      -0.09288084       0.10325002       0.02191940      -0.16536609
Na      12.51644573      16.57078170      21.94064685       0.03905127      -0.20052347      -0.68865314      -0.25564058      -0.05719381      -0.03827951
Na      14.38297945      18.74373741      23.48198229       0.15924271      -0.53196551       1.47112623       0.07975973       0.12175577       0.08880446
Na      12.10901003      20.50035824       0.56651467      -0.43539200       0.37919162       0.05198340       0.15595799      -0.10782280      -0.09449342
Na      14.12013689      22.69566061       2.31811812      -0.01665031      -0.02944498      -0.24355134       0.10784560      -0.19662798       0.12554838
Na      12.34740109      20.31610047       4.13675398      -0.08056341       0.46346478      -0.05302297       0.02961410       0.11427223       0.13261728
Na      14.44996574      22.55284058       6.23086021      -0.02121396       0.81651880      -0.20589795      -0.03089500      -0.11720404       0.01246930
Na      12.41443632      20.56620839       8.24645121       0.36790268      -0.04847166      -0.22186491      -0.01115850      -0.07304806      -0.05705343
Na      14.55624793      22.42124062      10.41547851       0.22168304       0.85763367      -0.03743888      -0.06376676       0.02004711      -0.03118517
Na      12.41390731      20.45838273      12.71975963      -0.04641161       0.70382119       0.18026072      -0.07670655       0.08616052      -0.05229483
Na      14.50697452      22.16805284      14.78896702      -0.23732175       0.59098975      -0.80921263       0.02327301       0.08009582       0.00589181
Na      12.07157817      20.99522939      16.96227908       0.27169321       0.00401301       0.09385524       0.09451399      -0.18889397       0.07291319
Na      14.30050100      22.65338893      19.15803568       0.84471000      -0.06871425      -0.28884869      -0.05936337      -0.04768102       0.06599955
Na      12.24339126      20.52347843      21.50237396      -0.58309964       0.11098644      -0.33765907      -0.09593717      -0.06242813      -0.04022288
Na      14.37782229      22.45987471      23.06883332      -0.90257823      -0.19669803      -0.20927542       0.00337176       0.02253853       0.07062134
Na      12.51983574      24.49988583       0.42622054       0.20699053      -0.28869906       0.08912821      -0.17025567       0.12016861      -0.08076133
Na      14.24068401      26.71370155       2.29228276      -0.01731441      -0.12929338       0.21524451       0.10894729       0.00901853      -0.01768961
Na      12.35615805      24.70257608       4.43360541      -0.10087477      -0.13660886       0.91051877      -0.12704268      -0.02280707       0.00579184
Na      14.15819320      26.95927813       6.39598626       0.76993213      -0.07699226       0.12269524      -0.00420258      -0.14094336       0.01499834
Na      12.25072803      24.30853886       8.12314931      -0.66396464      -0.66288206       0.10019729       0.08744695       0.12964704       0.13873947
Na      14.35145825      26.68424852      10.54575827       0.23426095       0.90920517      -0.52979474       0.06099142      -0.07986730       0.01684250
Na      12.72552613      24.30752177      12.62476662       0.06660972       0.57350414      -0.04701449      -0.06714800       0.03317209       0.06001491
Na      14.31613507      26.71579804      14.78332197      -0.80815977      -0.36963300      -0.27339321      -0.00586163      -0.14652480      -0.02903253
Na      11.98104615      24.53142567      16.90256063       0.01668771      -0.07680751      -0.14531868       0.15626942       0.05555345      -0.02213924
Na      14.16459554      26.50574348      19.12485366       0.33319904       0.68072822      -0.10840247      -0.12870952      -0.00083737      -0.10550593
Na      12.25397507      24.69343616      21.57064225       0.04834323      -0.73520321       0.17490027      -0.01555409       0.07477534       0.02478778
Na      14.26345968      26.83972710      23.84239507      -0.69360161       0.36951900       0.71529114      -0.16395082       0.01257960       0.20686130
Na      16.28555050       0.36732805       0.50440997      -0.39620767       0.39865049       0.31962859       0.06957206      -0.19435563      -0.08411589
Na      18.26054235       2.15735032       2.39866325      -0.02572780      -0.01180095      -0.60454241       0.06380387       0.01833037       0.04818313
Na      16.29774762       0.10460651       4.36659537       0.53908923      -0.19468829       0.25288091      -0.04700261       0.04194056      -0.00028917
Na      18.50033469       2.09545991       6.48463843       0.32334060      -0.42168268      -0.62371941      -0.18538450       0.02694796      -0.03514540
Na      16.36443319       0.07548935       8.29760957      -0.18573076      -0.67416968      -0.95367225      -0.01671499       0.03215866       0.10324291
Na      18.38653169       2.22883329      10.69544574       0.54145712      -0.42137305      -0.26956846      -0.06514620      -0.08118098      -0.01894464
Na      16.45737676      -0.08922834      12.76376586       0.00657807      -0.29628186      -0.39826158      -0.04171305       0.02175786      -0.02275678
Na      18.31515980       2.23955258      14.45852782       0.02307119       0.08750577      -0.25422622       0.08867905      -0.09118431       0.26139252
Na      16.02704792      -0.00679722      16.98536522      -0.28596060       0.22569615      -0.06383659       0.22566011       0.00253736       0.06603590
Na      18.29463903       2.32479695      18.81537118      -0.37006884      -0.26957076       0.48733419       0.07328398      -0.17204704      -0.04862026
Na      15.98211999       0.02769716      21.06970702      -0.19394664       0.51172681      -0.13932708       0.10475101       0.06974120      -0.01691656
Na      18.68472949       2.07444615      22.80855051       0.44667620      -0.22737843      -0.12969989       0.02085337      -0.03422468       0.05557721
Na      16.07970026       4.18898324       0.49777395       0.74858139       0.22855248      -0.02994666       0.10678090      -0.00137038      -0.02260290
Na      18.22483458       5.99729417       2.48907048      -0.73633452       0.59309141      -0.04491354      -0.10820098      -0.20061121       0.04158657
Na      15.90305014       3.92091158       4.62872576       0.53012416      -0.69916972       0.32974093       0.23340702       0.06597504      -0.03653188
Na      18.48318762       5.77331838       6.52978501       0.44496532       0.01900599       0.48012962      -0.17176041       0.17087316       0.02273376
Na      16.12074415       3.92622705       8.49169574       1.22193369       0.52592977      -0.36982025       0.05453978       0.03844052       0.04821362
Na      18.45991393       6.07806655      10.77440855       0.18220844       0.47533395      -0.14558624      -0.12620906      -0.01304985      -0.08499516
Na      16.11295965       4.13105223      12.93441776       0.05000410       0.60807551       0.85842780       0.07039598       0.23780154      -0.12345431
Na      18.46948461       6.46387957      14.74176895      -0.43019050       0.07933906       0.52434309      -0.03052884      -0.01264846       0.11245797
Na      16.34842643       4.31090393      16.64514693      -0.35687849       0.42119454      -0.87913877       0.02869834       0.04768400       0.11749258
Na      18.54227128       6.22478837      18.84388006      -0.39432570       0.05436618       0.37189750      -0.02538681       0.01084986      -0.05530109
Na      16.58509777       4.11361358      21.05913126       0.93087306       0.25212720      -0.17617760      -0.09518733       0.06253111       0.08538641
Na      18.74898302       6.33317323      22.84892224       0.06410527      -0.69647780       0.84688830      -0.02916088      -0.07118097      -0.06256598
Na      16.13966403       7.89324674       0.68636373       0.05095314       0.44410115       0.24257446       0.10285306       0.15326707      -0.19398303
Na      18.12765090      10.05914520       2.54365640      -0.12870114      -0.08913727       0.24545643       0.16218938       0.00755399      -0.20903255
Na      16.36265326       8.12126429       4.49219209      -0.30744594       0.77904960      -0.19829802      -0.07669459      -0.21057520       0.03417074
Na      18.31174906      10.02929181       6.37303916      -0.61978560       0.58323045      -0.72114787       0.09949145       0.07964190       0.11509362
Na      16.53472580       7.97085148       8.53914727      -0.11896812      -0.64666160       0.07494899       0.06124458       0.03940422      -0.00137786
Na      18.30873260      10.33871363      10.61352929       0.24383096       0.04321885      -0.51396888       0.05785374      -0.03962316      -0.11734959
Na      16.23661660       8.33019797      12.78000279       0.82468023      -0.02047307      -0.72571952       0.16476610       0.00555766      -0.11882473
Na      18.68179232      10.26585703      14.87915816      -0.13529731      -0.07945277       0.14390188      -0.19275173       0.03657008      -0.01651056
Na      16.34840184       8.62499627      16.98362001       0.13268488      -0.63344111       0.42939947       0.04464050      -0.12440880       0.04978690
Na      18.43234100      10.51113293      19.10524979      -0.06151836       0.25340583       0.02861783       0.10006396       0.03038159       0.04267928
Na      16.47235492       8.22737223      20.91508907       0.34032207      -0.59421818      -0.53970151      -0.03161406      -0.05444266      -0.04599202
Na      18.56003506       9.82682073      22.89321126      -0.43742261       0.16252369       0.54876542       0.06454034       0.12223678       0.04211286
Na      16.34454926      12.12751307       0.55221162      -0.09882826       0.01737761       0.82930178       0.09772676      -0.06642750      -0.11081435
Na      18.33170107      14.03814381       2.43487224       0.05123150      -0.23141511       0.03864472       0.03391051       0.08359022      -0.05953583
Na      16.21818548      12.06702662       4.37577546      -0.29625824      -0.33450763      -0.21408510      -0.00415251       0.10645561       0.16183296
Na      18.54180850      14.44627253       6.27612731      -0.17076146      -0.34904969       0.14920843      -0.02639704      -0.07465010       0.01305667
Na      16.43417463      12.42127886       8.19699218      -0.36347825       0.43598700      -0.02343564       0.04329362      -0.15695280       0.03172569
Na      18.41307778      14.18259727      10.55104851       0.81352654      -0.06235763      -0.05650350       0.02043583       0.08767937      -0.00216768
Na      16.54217288      12.08580649      12.78171005      -0.22214362      -0.02561055      -0.30861362      -0.05550130       0.22716366      -0.00763095
Na      18.30279282      14.60157536      15.00385260       0.56521521      -0.56373527       0.31342760      -0.07761127      -0.09344284      -0.18674283
Na      16.11752568      12.33924321      17.21298630       0.16143158       0.32360171       0.04952378       0.10812340       0.07987198      -0.08245089
Na      18.34512274      14.26747970      19.41370331      -0.16047552      -0.30946949      -0.22586650       0.01562473       0.08388518      -0.00849935
Na      16.34978866      12.20849035      21.44151183       0.82026277      -0.00144312      -0.15951756       0.02607944       0.15266155       0.05285084
Na      18.12369719      14.63241054      23.46499080      -1.11507694      -0.12877623       0.37981374      -0.01545455      -0.03199210      -0.04109300
Na      16.31223472      16.21905696       0.59831555      -0.48068930       0.66578339      -0.05416157       0.09810334      -0.03122581      -0.11182132
Na      18.25772086      18.38349452       2.33334571       0.01491344      -0.62400609       0.16972553       0.14611050      -0.00194018      -0.07629580
Na      16.38295720      16.14501897       4.15980038       0.47167493      -0.15390996      -0.02887258      -0.05245199       0.06489875       0.16255213
Na      18.59209362      18.14066762       6.35086759       0.13949868       0.58497409       1.05225133      -0.12106395       0.15210608      -0.11168638
Na      16.41041666      16.23712609       8.46211206      -0.64948386       0.14447346       0.57259845      -0.04889318       0.08799289      -0.01987628
Na      18.55308103      18.20785214      10.37021863       0.60839803      -0.15340703      -0.00876479      -0.06189122       0.09521341      -0.02364658
Na      16.30063760      16.44563219      12.50142959       0.28842284       0.51045437      -0.17404353       0.01828612      -0.03514477      -0.01644070
Na      18.13769707      18.45880821      14.80414146      -0.08351128       0.14089223       1.20133322       0.11535552      -0.06216554       0.01835085
Na      16.27557950      16.22036020      17.14757895       0.34407375      -0.42532561       0.04671492      -0.02539730       0.16429187       0.09526163
Na      18.65030848      18.13268898      19.35310578       0.27118096       0.04323756       0.46665235      -0.05312615       0.02113873      -0.05327847
Na      16.13096933      16.59559688      21.53314252       0.46061010      -0.04725092      -0.31005848       0.04356304      -0.08740045      -0.03008015
Na      18.32336366      18.65988670      23.08915666      -0.20467115      -0.34911073       0.02823245       0.06476943      -0.03074254       0.05382441
Na      16.31969562      20.73915619       0.68212799       0.06912591       0.48646542       0.38372017      -0.02621457      -0.07538350      -0.03815418
Na      18.50249825      22.92570281       2.31361684       0.43645251       0.33163815      -0.21359781      -0.01403037       0.02142731      -0.00062728
Na      16.59712531      20.69714686       4.21318722       0.24122502       0.05655308      -0.09317685      -0.10305484      -0.10227579       0.11727836
Na      18.23770973      22.81137468       6.35262226       0.51538289       0.23085404      -0.45678323       0.10712709      -0.04186817      -0.04530104
Na      16.39232417      20.28541014       8.28837442       0.05760422       0.03311146      -0.25002667       0.05485221       0.05251220       0.00231891
Na      18.29439273      22.82056107      10.28558354      -0.08772927      -0.40925303      -0.47837435       0.08028007      -0.10917259       0.04562279
Na      16.61539083      20.44705412      12.45631745       0.74793697       0.29838968       0.21134222      -0.05808504      -0.01472603      -0.04539536
Na      18.50489506      22.28434350      14.66956250       0.12094752       0.75531329       0.59549521      -0.08651801       0.09750525       0.03599671
Na      16.60952844      20.51276240      17.15964758      -0.23442604       0.60746165      -0.13723880      -0.14735988      -0.07999787       0.06013613
Na      18.45551303      22.72788055      19.17353303       0.46923137       0.06446502       0.63466545       0.04051996       0.05112185       0.05491139
Na      16.42587868      20.40601042      21.18045821       0.24104320      -0.28134478       0.09431385      -0.19149119      -0.00482361      -0.14919990
Na      17.98199751      22.53565351      22.96622072      -0.08260849      -0.36838488      -0.05412721       0.20540737      -0.01690434       0.07908305
Na      16.13583378      24.49627574       0.43717013       0.04078338      -0.19268367      -0.23036120       0.13811052       0.14434053       0.01263516
Na      18.63053962      26.86690302       2.13918161      -0.27213300       0.12148938      -0.27563828      -0.24857584      -0.05224943       0.03947943
Na      16.15897447      24.70995903       4.30344171       0.42263342       0.41892605       0.33119057       0.03616626       0.05374264      -0.05660955
Na      18.17653709      26.61878699       6.06861265       0.47754149       0.22588181       0.49136955       0.06099704      -0.03392625       0.18054138
Na      16.23236275      24.74350674       8.29412018       0.06146249       0.42957842      -0.61977455      -0.03633140       0.05732863      -0.01014718
Na      18.41905198      26.49542172      10.64654324       0.39854763       0.46713838      -0.51189010      -0.01354702       0.09771150      -0.13291778
Na      16.50878391      24.52453537      12.65947693       0.20757160      -0.11183328       0.63645653      -0.09310239       0.01307995       0.13060244
Na      18.52693737      26.65781770      15.11760630       0.20686141      -0.39820034      -0.00291000      -0.14949637       0.02449871      -0.09916716
Na      16.07846469      24.37217225      16.89280311       0.49993133      -0.19145468       0.71571496       0.14028760       0.09971084      -0.04361922
Na      18.45240520      26.54237753      18.90634288       0.48292729       0.52123602       0.93524132      -0.03524817      -0.01710441      -0.00704137
Na      16.20707360      24.85385689      21.32641266       0.27676071       0.42562269       0.29785693       0.00316928       0.01390036       0.01007199
Na      18.08971890      27.13181958      23.19312365      -0.04699744       0.17807289      -0.01998976       0.12437406      -0.02916939       0.04263321
Na      20.54463415       0.18781445       0.36678227       0.01481108       0.34152804      -0.17036822       0.04020900       0.09520241       0.15000356
Na      22.49484198       2.03956668       2.91533051      -0.44682747       0.82474763      -0.51682381      -0.01817506       0.06041835      -0.39057890
Na      20.32276180       0.07244147       4.59159060      -0.15480143      -0.45368096      -0.65651976      -0.02073612      -0.04417286      -0.04682390
Na      22.39144816       1.89294860       6.52899286      -0.66022709      -0.26840236      -0.40039136       0.09003628      -0.01122596       0.14553163
Na      20.15786031      -0.16356075       8.33031513      -0.35018134       0.24695615       0.44301950       0.04443274      -0.00833607       0.04665323
Na      22.30028728       2.02156122      10.40492879      -0.22594246      -0.20364574       0.95241989       0.09410996      -0.05810612       0.13738331
Na      20.47562845       0.10276722      12.66731444       0.04056239      -0.19470792       0.28777706       0.00147817      -0.10444669       0.05019939
Na      22.46812457       2.26696004      14.78175623      -0.52448373      -0.35915306       0.04740798      -0.03168364      -0.01836463      -0.04719914
Na      20.51333735       0.21186125      16.86834610       0.27922104       0.77650082      -0.55269884      -0.07843782      -0.03990056      -0.03579808
Na      22.33279839       2.18850266      18.83103783       0.16732125      -0.08342597      -0.78490617       0.14413625       0.01876517       0.03902565
Na      20.58674946      -0.34049758      21.06257370      -0.17392453      -0.01602974       0.49575498      -0.06171550       0.17822421       0.07818940
Na      22.42879026       2.06584955      23.09631621       0.89561385      -0.51135941       0.60993988       0.08323734      -0.00571659      -0.13084902
Na      20.24862697       4.00947932       0.53287193      -1.33847173       0.00841956      -0.47888292       0.09674973       0.00932965       0.05431132
Na      22.46112595       5.89617980       2.48382872      -0.12527582       0.12589137      -0.72484190      -0.01396909       0.01941346      -0.04596870
Na      20.53485545       4.06257587       4.66356471       0.66260491      -0.02234725       0.08891200      -0.02517731      -0.00150970      -0.09771285
Na      22.48614686       6.14477399       6.56139274      -0.31710864       0.23673843       0.28352818       0.00287319       0.02933574       0.10726809
Na      20.40127539       3.96368907       8.57826733       0.80089083       0.48041057      -0.09534513       0.04398786       0.12450249      -0.04030499
Na      22.61299875       6.05467269      10.50263410       0.09728719      -0.32605131      -0.26994162      -0.15152974       0.07220529       0.01020027
Na      20.42977649       4.31835947      12.80407673       0.25586336       0.13538963       0.74011943       0.10552363      -0.06432035      -0.04488716
Na      22.37883094       6.26138561      15.01695973      -0.67561108      -0.35362985      -0.02098148       0.05862276       0.13625430      -0.11752097
Na      20.50280039       4.25808678      16.74309342      -0.27351005      -0.34481177       0.26403037      -0.16453331      -0.09531611       0.00490170
Na      22.41349570       6.21535507      18.72972101       0.32191985      -0.74230916       0.32758283       0.10338672      -0.15316276       0.05412652
Na      20.62112256       4.18843209      21.12977109      -0.59365933       0.97555325      -0.05933103       0.00974851       0.03639193      -0.04253133
Na      22.79337666       6.11580859      22.97127928      -0.48572189      -0.15707017      -0.14233731      -0.06726275      -0.08266731       0.06156278
Na      20.12245284       7.90743238       0.75262623      -0.59235691       0.06458345      -0.48201596       0.09437191       0.10547386      -0.06921395
Na      22.24504294      10.11393919       2.33670304      -0.64859943       0.05812490       1.02694020       0.02679368      -0.05085502      -0.02835992
Na      20.34881717       7.86029294       4.42163540       0.07786050       0.10744671       0.06637528       0.03021272       0.13448307       0.09816197
Na      22.30296065      10.21550441       6.47648445      -0.29780912      -0.35946753       1.11655566       0.03756511      -0.02572872       0.06926615
Na      20.42294734       8.15525316       8.54543807       0.81628347       0.79546559       0.40567708      -0.02449800      -0.00064074      -0.00449184
Na      22.22727248      10.53948784      10.70649922      -0.79748074       0.30707560       0.18860475       0.10053918      -0.01597457      -0.09350365
Na      20.43259321       8.29072416      12.48448223      -0.35666930      -0.10100264       0.13086513       0.04819579      -0.03459893       0.08282940
Na      22.40616046      10.23107293      14.83855570      -0.25770092       0.00515334       0.38115619       0.09244306       0.10689116       0.01327915
Na      20.52305143       8.62754735      16.96741154       0.15746161      -0.16281488       0.00593160      -0.07720955      -0.23689908       0.06568018
Na      22.39212869      10.56163829      18.82870096       0.49206727      -0.46716044       0.45185551      -0.00148514      -0.06564979       0.15078823
Na      20.77949572       8.11406122      20.95541366       0.30621120      -0.13770316       0.06172074      -0.08946104       0.01327954       0.05449467
Na      22.33785021      10.02313964      23.06188912      -0.48341329       0.63590542       0.78106726       0.09920871      -0.00376418      -0.04366046
Na      20.31188405      12.09922739       0.65661667       0.55677485       0.13718084       0.38045347      -0.05258372       0.00386067      -0.11317057
Na      22.50529544      14.08612733       2.33960126      -0.24295206      -0.40866964       0.08871405      -0.08962736       0.03599739       0.00897522
Na      20.40929186      12.09280844       4.44896889       0.75468320      -0.69763332       0.14740114      -0.03098734       0.01662623       0.02110034
Na      22.50702732      14.22801879       6.20265488       0.37568221       0.38911893       0.01778961      -0.06833751       0.01981769       0.05601211
Na      20.42619588      12.32152533       8.36537685      -0.42187204       0.17944502      -0.61143557      -0.06679212       0.00237926      -0.03920654
Na      22.42621544      14.30121837      10.53113749      -0.33659789      -0.09699729       0.63408639      -0.02130722       0.03247970      -0.03232058
Na      20.38100632      12.45998141      12.89376231      -0.06995028      -0.34801576      -0.04999794       0.03129479       0.05800722      -0.00678032
Na      22.72013500      14.49968938      14.81979339       0.65649941       0.49304637      -0.29077989      -0.20286863       0.03918395      -0.00108022
Na      20.28026197      12.64781858      16.91994312       0.56078870      -0.02011160       0.31262127       0.04138461      -0.10207951      -0.08000008
Na      22.14027780      14.53623346      19.04828285      -0.05765641       0.57810268      -0.52808051       0.11745795       0.01375952       0.10666630
Na      20.60518631      12.75857514      22.04864539      -0.12516562      -0.01025213      -0.18281026      -0.06853290      -0.07989239      -0.15664803
Na      23.07634055      14.45344696      23.49298183      -0.08398999       0.73198457       0.23336050       0.03442579       0.00429896      -0.03933177
Na      20.43866655      16.14478815       0.62105102      -0.38484941       0.14223613      -0.38985634      -0.15434473      -0.08571309      -0.02000875
Na      22.16571315      18.38095132       2.15931007       0.02450053       0.08965160       0.36895875       0.19384281       0.01256539       0.06408443
Na      20.65197796      16.31165107       4.20371533       0.39794615      -0.58159126      -0.17632063      -0.09545887      -0.00798373       0.11064937
Na      22.41226541      18.73281177       6.25982966       0.55732962       0.33624274       0.53291332       0.02456305      -0.05969870       0.05681876
Na      20.67491923      16.42391718       8.32117235       0.10890216      -0.58430951       0.47751558      -0.00555353      -0.08034045       0.04004781
Na      22.64913231      18.69716832      10.41326238       0.48614116      -0.12477050       0.63423779      -0.05586136      -0.00835167      -0.05179964
Na      20.51302904      16.54535748      12.51161593      -0.32391835       1.13344146       0.64162033      -0.01944913      -0.09577840       0.10133942
Na      22.39779863      18.41969473      14.82898855       0.53323869      -0.07726698       0.46900063      -0.00436034       0.02836339      -0.02117415
Na      20.40841654      16.33116340      16.84387324       0.13592034      -0.06191368       0.11363918       0.00620051       0.15948041       0.02873513
Na      22.21650262      18.72804094      19.18449209       1.05626470       0.51058619      -0.00813227       0.10629451      -0.21859925      -0.03334056
Na      20.64079580      16.41684904      21.86518747      -0.56140381       0.32843851       0.22169841       0.03587386      -0.04502541       0.03478606
Na      23.00879377      18.51104087      23.14184772       0.86602208       0.15756088       0.62953119       0.01460763       0.01198320      -0.03520514
Na      20.23838480      20.60405696       0.61644185       0.22878127       0.16882045      -0.02686767      -0.00209483       0.06425602       0.06140574
Na      22.64693405      22.89429444       2.33451808      -0.02297178       0.16232551       0.58966176      -0.02246230      -0.09410430      -0.05893512
Na      20.59064320      20.76018267       4.29258232       0.70150304      -0.08070791      -0.08592492      -0.11195419       0.01201284       0.04602370
Na      22.74015464      22.85419307       6.24547679       0.22941851      -0.15988027      -0.51657602      -0.07812814      -0.17586653      -0.02914436
Na      20.17659161      20.66158140       8.32854985       0.43812338       0.38755247       0.38241601       0.13388014      -0.02355729      -0.04941273
Na      22.50075461      22.54603585      10.44453912      -0.53620101      -0.25989111      -0.29562090       0.01680021       0.02213268       0.01098440
Na      20.47388747      20.39739284      12.51763501       0.01536504      -0.41533239      -0.21562846      -0.03522832       0.04707450       0.00789094
Na      22.63214635      22.33421933      14.82542954      -0.80990581       0.61247628       0.40247165      -0.13549291      -0.00624947       0.01757221
Na      20.24298702      20.51473979      16.99326675       0.53971224      -0.46524600      -0.65316356       0.09221800      -0.04235816      -0.00847564
Na      22.45883994      22.77227803      19.00964918      -0.18300900       0.45904355       0.28236339      -0.02269368      -0.12597499       0.01476717
Na      20.64676708      20.57866647      21.54526655       0.00946561       0.85281691      -0.28144235      -0.05038512       0.11514641       0.04010335
Na      22.98797869      22.34134970      23.29063181       0.58145109       0.10689916       0.05903073      -0.00715351      -0.04238118      -0.04517049
Na      20.63634133      24.82403780       0.43018077       0.12503304       0.03769815       0.38729891      -0.01527896       0.00952315       0.05310294
Na      22.47122741      27.02977403       2.54222661       0.03449051       0.21673456      -0.50461319       0.07749562      -0.04221079      -0.17181764
Na      20.58902558      24.96000916       4.35386579       0.11894530      -0.31512208      -0.18787670      -0.04516808      -0.15327537       0.09265363
Na      22.71522469      26.62953650       6.46412519      -0.63998016      -0.31283677       0.17521062      -0.03140319       0.17778850       0.00890652
Na      20.61000978      24.58708821       8.19464081       0.27991447       0.00411375       0.75812210      -0.16000336       0.01996730       0.00827694
Na      22.45030401      26.60162118      10.19410191      -0.31601770       0.08772640      -0.34941120       0.05881996       0.02817782       0.17347028
Na      20.34062008      24.65259729      12.71179569      -0.23797199       0.15486817       0.46507051       0.09518614      -0.09593677      -0.02477625
Na      22.31273526      26.37810858      14.97264037      -0.52563128       0.25222424       0.61143192       0.08875770       0.22304626      -0.06940621
Na      20.48310689      24.38340921      16.61231297       0.58506795      -0.02647738      -0.34011451      -0.10295829      -0.09993505       0.17895279
Na      22.37033817      26.44322220      18.92872980      -0.21156493      -0.44296920       0.04641154       0.02688396       0.02149072      -0.10911079
Na      20.77296521      24.56057133      21.91869480       0.34290879       0.29633792       0.30102852      -0.11705819      -0.02183265      -0.05048088
Na      22.86439345      27.03838502      23.17250146      -0.27689623      -0.30992664      -0.23073390       0.05072586       0.06074577       0.07128533
Na      24.85287942       0.23281142       0.59297051      -0.39667321      -0.24692044      -0.90011226      -0.13867091      -0.09596420      -0.03869865
Na      26.56172931       2.11803133       2.52066936       0.21969785       1.16444134       0.25282332       0.13540257       0.10700342       0.06250786
Na      24.70988382       0.14825275       4.46867843       0.62460119      -0.32156574       0.48983593       0.07162229      -0.12449457       0.17063072
Na      26.72343828       2.16959166       6.54255859       0.31787670      -0.55143161      -0.39362121       0.04564510      -0.10982263      -0.00822447
Na      24.84763764       0.08535465       8.48485587      -0.03481081       0.41392644       0.09245778      -0.07081566      -0.08059404      -0.01437515
Na      26.42742958       2.09892025      10.87343591       0.34524186       0.45654883      -0.14459870       0.02787740       0.00260259       0.01933016
Na      24.31003972       0.00446500      12.81994006       0.03832991      -0.06274371      -0.69316781      -0.00154901      -0.07443223      -0.03962076
Na      26.44310030       2.06599530      14.79677804      -0.60261587      -0.04564033      -0.28905057       0.05950587      -0.01733354      -0.11039085
Na      24.34287849       0.09526220      16.67484394      -0.07875295      -0.13040052      -0.10270508       0.04547771      -0.11704142       0.11501107
Na      26.51410961       2.18749153      18.71697608       0.15649877      -0.65032066      -0.30310594       0.01979235      -0.04352161       0.03409531
Na      24.70878656       0.11475823      20.84648926       0.82034237       0.34083446      -1.09827480      -0.03244866      -0.01381133       0.00723211
Na      26.59066722       1.98228880      23.22214283       0.40590074      -0.10151553       0.56531173      -0.02796977       0.01636089      -0.11683396
Na      24.48824956       3.90378886       0.59300702      -0.55056768      -0.29780519       0.34946059      -0.08407527       0.01171680      -0.00282160
Na      26.36571446       5.98493506       2.56594898       0.15026060      -0.33521291       0.93975833       0.09825379       0.01977977      -0.02251297
Na      24.47675092       4.07342197       4.90181045       0.48812133      -0.38925106      -0.25323192       0.05509262       0.01617120      -0.11160357
Na      26.60378716       6.34626065       6.58633214      -0.28782293       0.55210416      -0.87919755      -0.07801573      -0.07593752      -0.05039452
Na      24.52479654       3.95076021       8.63428500       0.37427900      -0.62016714       0.19999125       0.04838780       0.07153995      -0.09247026
Na      26.52587697       6.27946853      10.73389617      -0.79503462       0.18037602       0.62441305       0.05169992      -0.00607958       0.01223643
Na      24.47134786       4.43915595      12.71026383      -0.00211663      -0.86127984      -0.51082674      -0.02538141      -0.16327836       0.07461874
Na      26.40166381       6.49698842      14.73044561      -0.13386969      -0.12317236       0.40088558       0.13020994      -0.02468507       0.02500555
Na      24.69638364       4.11156139      16.62678227      -0.12806160       0.21698440       1.33774784      -0.16150006       0.09447578       0.10192587
Na      26.68516441       5.90992773      18.84461169      -0.11950533       0.27839445       0.74137823      -0.08642677       0.05181413       0.10419622
Na      24.66639337       3.93801247      21.28891381       0.03708443      -0.68680347       0.07833469      -0.10793847      -0.01513956      -0.20740093
Na      26.70172951       5.81056900      22.88542074       0.13347214       0.18355765       0.15505543       0.07763103       0.14849714       0.02878259
Na      24.42165120       7.93154841       0.62950995       0.39135487      -0.12489804       0.58816274      -0.06869754       0.03202601      -0.02835856
Na      26.54190926       9.85846597       2.42552124       0.60544535      -0.82245916       0.10989083       0.00596612       0.14765642      -0.02701944
Na      24.12585447       8.39176177       4.45184851       0.16254470      -0.12075738      -0.41284044       0.15164872      -0.16921760       0.06810396
Na      26.43434763      10.24365073       6.44315669      -0.48547226       0.38366956       0.01400696       0.02310012      -0.02056560      -0.01055904
Na      24.49898207       8.29493526       8.70631727      -0.36078451      -0.08852346      -0.56989792      -0.09676812       0.02541124      -0.10492988
Na      26.32627601      10.52841126      10.51921845       0.26890561       0.31103195       0.05364715       0.07513993      -0.02275547       0.03769874
Na      24.32636287       8.46132244      12.62013162      -0.08504866      -0.59043522       0.15641029       0.03888026      -0.06019909       0.01063196
Na      26.33665372      10.33859410      15.04438914      -1.34291651       0.02839707       0.08133646       0.03558617       0.04375254      -0.05346704
Na      24.55550961       8.05334931      17.08154856      -0.50453844      -0.78121348      -0.15768973      -0.03252507       0.14546967      -0.02145473
Na      26.39011865      10.27626155      19.02827110      -0.23149528      -0.35877413       0.26007360       0.01649493       0.11952124       0.00374787
Na      24.48773351       8.04501934      21.12316870       0.34360515      -0.11669393       0.17855881       0.14924023       0.04221650      -0.11229931
Na      26.57962272      10.13882657      22.90222339       0.59777356       0.22396719      -0.29385572      -0.04808630      -0.07520086      -0.08777389
Na      24.35705092      12.10603229       0.63048883       0.02700363       0.49531321       0.16189385       0.13793125      -0.07410866      -0.02131181
Na      26.61566739      14.17941900       2.33961381      -0.12813337      -0.80380459       0.51670857       0.08677079       0.04563014       0.02060924
Na      24.47874027      12.19624067       4.37903068       0.36359406      -0.89936239       0.34722667       0.04165843      -0.05775128       0.00640738
Na      26.61497716      14.47790824       6.19653620       0.32636568      -0.08307300       0.87856874      -0.01010470      -0.06871119       0.08918761
Na      24.38458609      12.40568252       8.36882300       0.52053395       0.08452351      -0.60810639       0.02114051      -0.02808317      -0.06133085
Na      26.52904263      14.32846087      10.34179605       0.25766432       1.14373975      -0.12092806      -0.04041405       0.05062551      -0.01535916
Na      24.48324047      12.57873834      12.74709477       0.04305810       0.45012982       0.33319197       0.01655479      -0.13996857      -0.04233103
Na      26.47519705      14.31548549      14.92987561      -0.87140709      -0.94870895       0.12059492       0.03097026       0.08186914      -0.05704436
Na      24.27097596      12.47677097      16.98697856       0.66120689      -0.18422578       0.99128505       0.11194556       0.03628915       0.02103580
Na      26.81304821      14.43158531      18.77028668       0.03730731       0.45360539       0.39183358      -0.16592806      -0.10580167       0.11883447
Na      24.35204110      12.28759825      21.18246460      -0.41459017       0.22377725       0.20402058       0.05814697       0.05052196       0.05214892
Na      26.73744790      13.99449391      23.22795346       0.43521395       0.04744645      -0.42770781      -0.01510564       0.09696576       0.06982620
Na      24.62050818      16.06624003       0.66654787      -0.16987375       0.49200469      -0.17323411      -0.11926810       0.07308929      -0.05195128
Na      26.56324446      18.27902908       2.17631363      -0.13203891       0.28901385      -0.32589345       0.11310736       0.02050284       0.06798551
Na      24.37102575      16.43769529       4.30731319       0.18340528      -0.23793585       0.49378465       0.03121322       0.03633924      -0.00173454
Na      26.67591184      18.23104935       6.40101008      -0.14415454      -0.02342099      -0.18994266      -0.04448113       0.07679157      -0.13355564
Na      24.26562344      16.42928733       8.14972710       0.27411250      -0.48575692      -0.58826854       0.07796973      -0.04582869       0.05145456
Na      26.40813947      18.24304998      10.28533043      -0.15725232       0.40002409       0.36415249       0.02447219       0.06105264       0.07743656
Na      24.37858092      16.44233350      12.41358491      -0.46787480       0.29939599       0.58420444       0.07681710      -0.00428675       0.10785090
Na      26.51120994      18.46873749      14.70381787      -0.38240460      -0.56779256      -0.38682906       0.02074034      -0.06063132       0.05793306
Na      24.50441935      16.49411193      16.93496412       0.33187733      -0.34970090       0.63248491      -0.06468835      -0.04399465       0.06054208
Na      26.54687503      18.17362668      19.05417491       0.73014084       0.04203110      -0.14799340       0.07318515       0.16386535      -0.10081034
Na      24.70598845      16.18493748      21.21240919      -0.03607402      -0.59693694       0.41419468      -0.01614407      -0.00561729      -0.00776843
Na      26.82912314      18.46455235      22.85712815      -0.26294040       0.65308273       0.22374904      -0.07541234       0.02861536       0.06440710
Na      24.35605065      20.26620082       0.71381247       0.32380456       0.22377038      -0.13050729       0.04727160       0.13078429      -0.05405583
Na      26.53092842      22.74634709       2.12247274       0.51135275       0.24324230       0.36202704      -0.02107251      -0.03325915       0.00895298
Na      24.61879769      20.43054989       4.21152280      -0.26271178       0.53099095       0.34314206      -0.00402144       0.00834281       0.06559247
Na      26.60759925      22.71742517       6.15601158      -0.22280821      -0.55586414       0.00355432       0.08701249      -0.10313912       0.04004615
Na      24.71201331      20.63388303       8.25205108      -0.75453267      -0.02204055      -0.19821270      -0.06817400      -0.04155752      -0.05541155
Na      26.57563928      22.39947608      10.57114468       0.56142309       0.52493171       0.15801739      -0.08810552       0.13209641       0.03927780
Na      24.64746251      20.58210491      12.84086859      -0.53895019       0.33524611       0.09782508      -0.06918583      -0.08063717      -0.13665750
Na      26.65052805      22.62763496      14.83938002      -0.44591047       0.45614110       0.17919703       0.00796708      -0.04937418      -0.06011543
Na      24.41253876      20.19494927      16.99479999      -0.20453475       0.59491618       0.18306790       0.06731960       0.14712182      -0.02252650
Na      26.66666968      22.46657376      18.57953594      -0.70711551       1.03173395       0.25324709       0.00304137       0.07826691       0.11134228
Na      24.75152100      20.63516168      20.94712205       0.05512868      -0.54661554      -1.23193889      -0.01726141       0.00198930       0.05769609
Na      26.74818274      22.70815896      22.99311727       0.04997612      -0.08360590       0.03715000       0.04407318      -0.04342389      -0.06631339
Na      24.61252822      25.16305800       0.59240987       0.24953664      -0.63090888      -0.55618276      -0.00981273      -0.05114241       0.02088062
Na      26.92441695      26.83493504       2.42374350      -0.20802307      -0.13424835       0.37688710      -0.04798506       0.04076722      -0.10523548
Na      24.69403822      24.99007322       4.35907444       0.52903569       0.73915256       0.62378359       0.01213473      -0.07097600      -0.07410137
Na      26.92884815      26.50652241       6.43844449       0.03077342       0.44451039      -0.24537961      -0.07547691       0.09333444       0.03731540
Na      24.72847667      24.52666650       8.34631804      -0.27341664       0.26940231       0.47231711       0.02141084       0.06378516       0.10475241
Na      26.47717359      26.34151452      10.88165650       0.45527417       0.20296049       0.14492896       0.02819888       0.12526379      -0.08324059
Na      24.34649178      24.62663708      12.80327287       0.01251624      -0.84792658       0.23289672      -0.02053486      -0.08957602      -0.05594575
Na      26.60900136      26.48830103      14.73278213      -0.23919881      -0.38038517       0.65060617       0.00286696       0.02718313       0.01569492
Na      24.50309396      24.44820382      16.75484977       0.09604319       0.46581589      -0.04083390      -0.00907628       0.05642065       0.06221231
Na      26.65261772      26.35081566      18.75157700      -1.23537225       0.21826469       0.03542331      -0.06365897       0.05761166       0.01197782
Na      24.47312764      24.75142008      21.15833707       0.49002590       0.17610726       0.05241481       0.11973944      -0.06939139       0.06522278
Na      26.69886114      27.09640402      23.13632607       0.63004555      -0.38549491       0.37521026       0.02280575      -0.12451741       0.12933954
Na      13.97474115       3.41327167      28.04031029       0.61768915      -0.15237093      -0.55470575       0.09932693       0.04094158      -0.17189303
Na       3.56772598      14.60795773      33.51327887      -0.26075198       0.05434249      -0.27479672      -0.13713595      -0.25373924      -0.00507846
Na       3.49292918      -0.05470421      27.87176010      -0.39974430       0.24237398       0.18123313      -0.02088201       0.24344355       0.12899887
Na      -0.15001975       3.28502983      31.64067576      -0.19915227      -0.06457013      -0.32325689      -0.04393285       0.09026101      -0.00241436
Na      13.97603825      14.41678387      28.07298832       0.25433291       0.50507210      -1.36339137       0.23869849       0.05350004       0.04505774
Na       3.59270687       3.72513427      27.30115796      -0.26467336       0.82188968      -0.95920638       0.14073088       0.08116022       0.20044941
Na       0.15663057       3.65901679      35.44274598      -0.89340948       0.19906899       0.29929263      -0.11845412      -0.01692852      -0.10599188
Na       3.66454788      -0.16771659      41.77529064      -0.26615898       0.12359445      -0.13881523      -0.21557127       0.13936239      -0.12630768
Na       3.60941278      -0.06467512      37.68250316      -0.46724755       0.12570977       0.61626084      -0.08976895       0.02258060       0.01391396
Na      -0.02704000       3.58562718      38.98844015       0.61158160      -0.07254199       0.56257951       0.13685329       0.01211239       0.07977265
Na       0.08519386      -0.03925174      38.59742819      -0.73560104       0.42742621       0.05112634      -0.03854566       0.02473181      -0.22300701
Na       3.47036945       3.73436701      34.92751636      -0.03082086      -0.00368413      -0.76541559       0.06448887       0.01139958      -0.06217110
Na      14.09878289      10.84999562      28.22641302      -1.09315955       0.29401887      -0.38659041      -0.11140207      -0.00035022       0.09400487
Na       3.50943095       7.44938181      33.97539277      -0.20343705      -0.38822748      -0.49109719      -0.05436494      -0.16073570       0.11221642
Na       3.34298048       7.46539352      30.33364880      -0.23247748      -0.63410728       0.54941723      -0.14682044       0.03672073      -0.10235253
Na      14.31680933      11.01080972      31.98346165       0.48397648       0.21681657      -0.24178050       0.19625757      -0.03305159      -0.03712291
Na      13.99401769       7.03351560      30.95997236      -0.61407097      -0.65127463      -1.10755986      -0.05398060       0.11049991       0.06407848
Na       3.73739946      10.31273623      27.43593752      -0.10930001       0.15468573      -0.70115741       0.18742016       0.15589230       0.13801650
Na      14.39330651      10.84663925      35.52413188       0.55241370       0.81509764       0.00210739       0.03364493       0.04457765      -0.01888522
Na       3.65542333       7.08169323      41.50102051       0.07330657      -0.61927405       0.36353259      -0.15122398       0.00710306       0.09518653
Na       3.55046967       7.22428314      37.93131844       0.30658242       0.90302350      -0.88198606       0.08452240      -0.04989515      -0.12215890
Na      14.31880140      10.60338199      39.21493225       0.28052443       0.23838156      -0.03767142       0.09546717       0.01990836      -0.04709047
Na      14.02062634       6.98137426      38.52706469      -0.26084395      -0.07377454      -0.24804535       0.08775649       0.17085107       0.01737584
Na       3.51749999      11.15689131      34.75913247      -0.03784763       0.00670675      -0.18697043      -0.01959602      -0.06523473       0.01694731
Na       7.45976118       3.51474481      27.97520789       0.24829786      -1.04370525      -0.56153501      -0.16784005      -0.17632134       0.02826232
Na      10.95173004      14.41508978      33.74334859      -0.10553190       0.62629443       0.31741338      -0.06982148       0.02123305      -0.02350372
Na      10.73992933      -0.14001129      28.02248215       0.08579380       0.19491001       0.34327584      -0.03408720      -0.07069814       0.21711627
Na       6.89798848       3.81780959      31.67313862       0.12073981       0.02770034      -0.89780602       0.34974291      -0.08289441       0.03397409
Na       7.90603598      14.55323264      31.10391832      -0.03808518      -1.07659822      -0.20190307      -0.15689311      -0.14020675      -0.09060713
Na      10.80947745       3.66613827      42.02886270      -0.44152176      -0.22292116      -0.76959992      -0.07804084      -0.12491212       0.12392356
Na       7.29187624       3.63947427      35.31011077      -0.53490070      -0.06190152      -0.11581910      -0.11284673       0.08418461      -0.06521519
Na      10.69622296      -0.05433636      41.32749806       0.05828900      -0.11049925      -0.05818894       0.04986623       0.04412409       0.08532204
Na      10.65413410      14.36770397      37.85671974      -0.61726109       0.28936269      -0.58846179       0.11189928      -0.02983166      -0.01218852
Na       7.19828589       3.51576304      38.79189650      -0.38021524       0.42088823      -0.76817788       0.01534957      -0.06092299       0.20721889
Na       7.10732820      14.18020308      38.55412239      -0.28489679       0.10562522      -0.33193703      -0.05115499      -0.01236317      -0.01283542
Na      11.13066639       3.43490061      34.69092033      -0.00873642      -0.57917740      -1.00770625      -0.22324593       0.06762183      -0.05008320
Na       7.13792118      10.74220518      27.99436606       0.61700072       0.58027350      -0.24728421      -0.00938487      -0.16179431       0.27622944
Na      10.79534935       7.05046443      33.50785109       0.34315631       0.04772277      -0.37595383       0.05726959       0.04658835       0.08591504
Na      10.69444184       6.97180767      28.83380513      -0.41565448      -0.14124485      -0.17636658      -0.03313154       0.01191921       0.05864214
Na       7.17952235      10.85321739      31.89978625      -0.19369389      -0.27459371      -0.54876547      -0.06826763       0.09273906      -0.14561439
Na       7.36787246       7.30468742      31.08813265      -0.63939087      -1.00000481       0.79197725       0.00040501       0.00228121       0.04118857
Na      10.76478583      10.73103506      27.56825612      -0.02052961       0.65597357       0.04749506       0.00854692      -0.01742736       0.07696519
Na       7.07747183      10.87717181      35.26731287       0.03172638       0.53953021      -0.54289828       0.17033446      -0.10468506       0.19527389
Na      10.75046752       7.12184246      41.55792149       0.43716381      -0.45147439       0.20958024      -0.03177925       0.17951052      -0.06792437
Na      10.67867923       7.03055616      37.65010114       0.53599704      -0.04788098      -0.21680950       0.03482241       0.30867418       0.00609518
Na       7.26940328      10.45875786      38.92729532       0.26166019      -0.57509137      -0.40693536      -0.17953174       0.18488076      -0.10559193
Na       7.18823526       7.01330829      38.51161813       0.22832932      -0.00867283      -0.92066732      -0.03251684       0.00233152       0.00372477
Na      10.97555161      10.65014184      34.99272965      -0.38194267      -0.20164504      -0.44013628      -0.09005717       0.02412922      -0.07609593
S        1.85883050       1.90044428      26.60054258       0.59115158      -0.16617190      -0.21081298      -0.24023766      -0.09065803      -0.07611969
S        1.26148202       5.67793450      33.37784728       0.68183092      -0.55824589      -0.77826064      -0.51539197       0.34469890       0.57618211
S        5.90688819       5.11821696      26.32111679       0.98057273      -0.30150535      -1.02821867       0.04299759       0.56127786      -0.21197477
S        5.89600424       1.58528051      33.47860664      -1.05954368      -0.15841003      -0.71889337      -0.15491575       0.11246435      -0.21015019
S        5.09619525       2.51461773      29.53352993      -0.19281377       0.00439643      -0.28404674       0.03891842       0.02220065       0.03673995
S        4.83625676       5.64750850      31.77813940      -0.00665116       0.70526616       0.22153853       0.19390767      -0.10966971       0.18235937
S        1.90414169       5.01798511      29.54465736       0.05838789      -0.46981631      -0.84506174      -0.16481482       0.05117997      -0.26246722
S        2.43434309       2.59240075      32.35741263       0.29871743      -1.10432772       0.18831982      -0.29664692      -0.18361034       0.41897684
S        1.61705892       1.30432702      36.00027169      -0.09363202       0.28917579       0.62240055      -0.17913742      -0.13518714      -0.09470058
S        1.25578714       5.62199846      40.79309670      -0.00143695       0.41190606      -0.36291974      -0.16831492       0.02095185       0.08233381
S        5.50324184       5.92740767      35.96952782      -0.88324249       0.76463629       0.04142937      -0.11856996      -0.09899746       0.18485114
S        5.87976080       1.45148742      40.83310956       0.27829068       0.47013625       0.15261635       0.09532782      -0.06831976      -0.04337722
S        5.05672776       2.34270814      37.11157590       0.42609129       0.84057223       0.55368216       0.17090478      -0.11524251      -0.10866828
S        4.89727494       4.93428741      39.83614839      -0.55768453      -0.46099881      -0.32891719       0.12303216       0.19422358       0.25378771
S        2.12440691       4.84107796      37.29341113      -0.72481698       0.18016120      -0.10318602      -0.20710723       0.03297330      -0.16894626
S        2.30321654       1.94687959      39.82887049      -0.08775947       0.80740876      -0.48325881       0.23701748       0.20496040      -0.19748258
S        1.72756373       8.74713120      28.15755588      -0.97424482       0.13164061      -1.32535571       0.03378797       0.08170764       0.05822307
S        1.42651483      12.85056189      33.50817781       0.24292715      -0.27904679      -0.45294315      -0.15857687      -0.08850568      -0.18610250
S        5.42221193      12.48710694      26.72374590      -0.12417241      -0.86237420      -0.27965195      -0.31672978      -0.14012873       0.14386631
S        5.83543506       8.90298316      33.56504980       0.27728943       0.18560644      -0.15899530       0.21396028      -0.21939201      -0.03865061
S        5.28125328       9.47575848      29.76684129       0.36591663      -0.75073883      -0.65376004       0.38133887       0.00822949      -0.48819971
S        4.98565283      12.56937541      31.94425047       0.17722863       0.53075331      -0.78615058       0.05290729       0.04535188       0.03055790
S        2.23139657      12.02393632      29.37990645      -0.41991950      -0.18645439      -1.67028511      -0.10969945       0.04366239      -0.25136533
S        2.46277821       9.43976090      32.17452161       0.03840755       0.80586660       0.14727143      -0.01699566       0.35491886      -0.00596589
S        1.49975191       8.44512560      36.06323797       0.90168110      -0.23331712      -0.37622041      -0.22592803      -0.12019971      -0.09390552
S        1.29734961      12.85811098      40.79259092      -0.51173184      -0.23796714      -0.93949493      -0.14879650       0.16253300      -0.07815846
S        5.46994312      13.05666975      35.96350592      -0.64229034       0.30223669       0.13865773      -0.02375821      -0.07002445      -0.03375356
S        5.92119417       8.63986656      40.76722735      -0.38639057      -0.61675263       0.89029178       0.30139056      -0.42200872       0.16213900
S        5.10005114       9.49755651      37.07315089      -0.84110630       0.19548116      -1.00957977      -0.11407018       0.04246780       0.06160869
S        4.94824723      12.11650218      39.83007330       0.30631504      -0.00592354      -0.51887660      -0.14706200      -0.01740662      -0.07840571
S        2.10421607      12.05828074      37.22073544       0.11706539       0.26510671      -0.49921092      -0.01538166      -0.24120354      -0.05022817
S        2.32937387       9.22821288      39.77853416       0.65112443      -0.28959209      -0.31927360       0.20407787       0.06846689      -0.15422174
S        7.83283249       0.64440481      28.10520995       0.33764883      -0.70930444      -0.09091331      -0.16889364      -0.16090401      -0.40336214
S        8.30630805       5.78858800      33.56185697      -0.67311913      -0.11366525      -0.17382690       0.04042140      -0.17988376      -0.29965603
S       13.37501672       6.11365525      28.19152659      -0.19265367       0.29090156       0.85605501       0.08745469      -0.10702385      -0.14836782
S       13.10759168       1.68950095      33.34750919       0.62809213      -0.49836346      -0.01607957      -0.06322508       0.03000224      -0.31482538
S       11.95643890       2.18140700      29.32989309       0.32528857      -0.50578685      -0.38946454      -0.11591443      -0.07514938       0.10476099
S       12.04057154       5.02564259      31.93926039      -0.69746439      -0.24694835      -1.04844744       0.06429187      -0.33338125       0.02415045
S        8.98527704       4.91005427      29.66196834       0.73917015      -0.82714429       0.38701433       0.31973788       0.11796563       0.02570732
S        9.24404979       2.22948502      32.20166669       0.43699415      -0.01285096      -1.68945044       0.16747576       0.20403980      -0.07866930
S        8.64882352       1.32045224      36.00539007       0.00593920      -0.65487668       0.00401808      -0.15639807      -0.07337606       0.06254310
S        8.45755404       5.58036294      40.88305274       0.30569981       0.40012430       0.20319786      -0.28620609       0.10005926      -0.20264174
S       12.69227054       5.94023230      35.92707599       0.25163315       1.01517522       0.96807261       0.02037071       0.03541599       0.01155628
S       13.14351466       1.59285105      40.69512978       0.34007809      -0.25976693       0.21475744       0.13959649      -0.18536200       0.22655289
S       12.32403234       2.34835618      37.02454542      -0.27403278      -0.67098186      -0.08055739      -0.28188542       0.17344059       0.40488980
S       12.08812720       5.05720938      39.69990490      -0.36715790       0.30192535      -0.60914805      -0.16645569       0.12827977       0.20702154
S        9.25100834       4.75991986      37.17004390      -0.34174419      -0.16754555      -0.02219911      -0.13375814       0.05151815      -0.16468971
S        9.53322155       1.98775803      39.74108176      -1.27785843      -0.23737653      -0.03220366       0.12386345       0.36788673      -0.18077800
S        8.15909827       8.03444241      27.68607503       1.02342423       1.34398874      -1.14079631      -0.11338946       0.12970822      -0.07678391
S        8.44164981      13.00198657      33.40327402       0.11065041       0.01336106      -0.68113012      -0.34323543       0.20823748       0.58115432
S       12.46598584      12.65839805      26.97292978      -0.01900896      -0.31991493      -1.40946430       0.10787575       0.01115886      -0.25357266
S       13.01838480       8.98066462      33.61510970      -0.50697174      -0.16235648      -0.07471728       0.16295952      -0.14511126       0.11467522
S       12.13243387       9.32826227      29.59095932       0.73655185      -0.14350826      -0.47277569      -0.36662204       0.12541465       0.42059453
S       11.78371156      12.00960907      32.46756627       0.91005472       1.19248629      -0.22876880       0.20114715      -0.00272291      -0.06677407
S        9.20336758      11.88288819      29.60278665       0.26511476       0.51822130       0.08778382      -0.08087751       0.06129976       0.10905944
S        9.29388067       9.15253920      32.32920134      -0.65027946       0.52801883       1.13437588      -0.00161731      -0.12931162      -0.12174273
S        8.49164380       8.50323954      36.30867240      -0.55289778       0.82177593       0.13521323      -0.14120643      -0.17300000      -0.13363444
S        8.34376098      12.72759635      40.81821154       0.16474351      -0.05683445      -0.92112217      -0.03683874       0.31287184      -0.05183382
S       12.76112518      13.14199829      35.85544305      -0.12964339      -0.45278162       0.27576756       0.04105556       0.08802307       0.07306045
S       13.08349318       8.71069806      40.91860899       1.16375470      -0.39849130      -0.29782279       0.03929574      -0.05215302       0.02594417
S       12.40059334       9.43629470      37.35446080      -0.56942449       0.16903732       0.52287204      -0.12324107       0.13247811      -0.13253376
S       12.01374597      12.30233346      39.81301019      -0.04493340      -1.35745376       0.22472410       0.12943107       0.06266687      -0.03487443
S        9.33587376      11.96307792      37.22909867      -0.07657970       0.07395086      -0.05922200      -0.12751683      -0.04003517      -0.37241165
S        9.54864865       9.26158139      39.89168014      -0.65028486       0.66927195      -0.42502468      -0.00333944      -0.18712759       0.19881011
Sb      -0.09848191       0.05744820      42.08871320      -0.29542198       0.07529301       1.34428319      -0.15877736      -0.14385000       0.07831422
Sb       3.62089139       3.83985035      30.84710071       1.46510953       0.42861111      -1.23535275       0.17772184       0.45243869      -0.85586084
Sb       0.07851971      14.35695688      34.72747781       0.22466602       0.09384267       0.63275417      -0.10138552       0.22013471      -0.00802435
Sb       3.59243724       3.48065744      38.54541487       0.85839225      -0.37634229       1.60077883      -0.30207350      -0.15412491       0.08588796
Sb       1.33005022       6.59416096      27.29587246      -0.57759936       0.55885718       1.34256424       0.15349833      -0.21059623      -0.04600594
Sb       3.76059237      10.92768283      30.83484190      -1.41984182       0.82092294      -1.88955347      -0.43525542      -0.01123044       0.40853004
Sb      -0.03717069       7.20984936      34.73726798       1.27465845       0.42373568       0.58237903       0.96794456      -0.36101810      -0.40877856
Sb       3.63566976      10.72471680      38.43450031       0.11126162       2.17345248       0.69787350      -0.21465149       0.06332488       0.38485569
Sb       7.30703248      13.81031913      26.19560541       0.62739250       0.05512098      -1.09806776       0.32104990       0.18595994      -0.05901421
Sb      10.60442229       3.52715589      30.76892404      -0.15685270      -0.85313254      -3.67135514      -0.12074259       0.12498980      -0.15242742
Sb       7.13623161       0.03281683      34.72947053      -0.53702436      -0.07485060       1.13899816       0.00581519       0.01603016       0.36717205
Sb      10.80538724       3.53717418      38.44346314       0.69295372       1.79143246       0.12720112       0.01703288      -0.53961145      -0.29320167
Sb       6.45672067       7.49418572      26.09972650      -1.01305370      -0.12563363      -1.09868112       0.02572950      -0.48799490       0.26644620
Sb      10.61978707      10.58584438      31.03436989       0.69898003       0.86893965       0.00710131       0.38993845      -0.11381344      -0.47599276
Sb       7.04625547       7.29755954      34.85272130      -1.45827798       0.18995010      -2.03948000       0.14212048       0.31930154      -0.01215981
Sb      10.81444656      10.71163537      38.55591391       1.50491862      -0.17964626       1.16023853       0.05740952       0.06024728       0.04823017
Na      14.36980373       3.56530285      42.53707947      -0.09754672       0.42562669      -0.45831677      -0.03627144       0.04677186       0.04675177
Na       3.57746288      14.47840276      48.86353191      -0.32071877      -0.54435878       0.91597705      -0.06666927      -0.31614019      -0.07431790
Na       3.51032644       0.08349608      45.41967512       0.88945963      -0.33220068       0.73728051      -0.08827638      -0.26458375      -0.00751642
Na      -0.11048959       3.37570354      46.05606726      -0.50895083       0.20991632       1.21487973       0.16331736       0.13176160       0.04243695
Na      14.34271933      14.16419749      45.66058715      -0.52321214       0.10883657      -0.35220057      -0.04954700      -0.01824311      -0.04544025
Na       3.49611840       3.40952514      42.05534401      -0.43272839      -0.51059881      -0.43346593      -0.00092861       0.03031105       0.10867613
Na      -0.10845856       3.50648969      49.56229371       0.60237335       0.74963493      -0.16893111       0.07274260       0.11579670      -0.06124474
Na       3.66494331      -0.08560909      56.02283181      -0.17850478      -0.36574156       0.52984243       0.01131764       0.10197172       0.03041829
Na       3.78431730      -0.01974943      52.61043839       0.07296810      -0.49937257      -0.27397239      -0.07267096       0.13565199      -0.16096502
Na       0.00045021       3.56108222      53.08943309       0.94145809      -0.01413674      -0.09895794       0.08419557       0.09262459       0.00813814
Na       0.00824742       0.17096291      52.85558305      -0.21074544      -0.74192305       0.23560529       0.06780188      -0.04605237       0.05803581
Na       3.72473054       3.60546609      49.22207160       0.02147231      -0.09858984      -0.34788550      -0.10184908       0.01568301       0.04483995
Na      14.57377216      10.75552109      42.64307457      -0.11876493      -0.46175567      -0.13956513      -0.21944185      -0.03727313      -0.01444348
Na       3.64490413       7.04797305      48.82091596      -0.18975366      -0.32563418      -0.31749886      -0.06250775       0.05438527       0.05600093
Na       3.61752949       7.21939842      45.29396546      -0.85931962       0.45989858       0.29821275      -0.24019453      -0.15254589      -0.13961273
Na      14.18863812      10.68533931      46.12011427       0.54638150       0.52437878       0.27278279       0.01974632       0.05735193       0.08463631
Na      14.12018688       7.12589185      45.76529758      -0.29833837       0.40920069       0.08318226      -0.07001031      -0.06607517       0.00218854
Na       3.43764641      10.65686104      42.07634163       0.45393620       0.50705663      -0.38772854       0.13303616       0.00171312      -0.04205263
Na      14.58482127      10.75211328      49.77584997       0.42126983       0.16585872      -0.48420008      -0.20888910       0.28601229      -0.06711790
Na       3.65118589       7.17719958      55.84664589      -0.14427246      -0.37787573      -0.24809392       0.17025701      -0.10444818      -0.18070667
Na       3.61713447       7.22055806      52.46461431       0.16879438      -0.16936005      -0.29104403       0.06259999      -0.12675014      -0.13042953
Na      14.35061828      10.98242345      53.35729541      -0.66792198      -0.09143315       0.33892924       0.02237028      -0.02396556      -0.04277068
Na      14.13734112       7.30592278      53.08978255       1.24544569      -0.73155568       0.15819835       0.07818779      -0.02511936      -0.29293647
Na       3.48359933      10.56996891      49.21629230      -0.37002602      -0.05657294       0.57524573       0.23677717       0.14314112       0.09018718
Na       7.10221609       3.57057243      42.55211500      -0.28377100       1.09942575      -0.12101911       0.01673194      -0.13862451       0.04802682
Na      10.66486504      14.40854821      48.81919729       0.24773824       0.55873012       1.14260401       0.24593997      -0.12299938      -0.08788379
Na      10.78016101      -0.05304577      45.28777745       0.04413572       0.39799585       0.57163239      -0.18080347       0.06369000      -0.14927166
Na       7.15082830       3.65139831      46.19955602       0.32793653      -0.06501433       0.32550172       0.10750601      -0.15251434      -0.15550468
Na       6.91462570      14.30724533      45.62928543      -0.41812551       0.53354761      -0.12165746       0.12389869       0.17908874       0.11054016
Na      10.85053874       3.76389895      56.55108896       0.70293723       0.43112803      -0.30993274       0.16769130       0.02234496      -0.07538603
Na       7.33856244       3.66233550      49.70619768      -0.48942533       0.23532064      -0.63909960      -0.08502525       0.06626637      -0.16971220
Na      10.66926270       0.26035346      56.08919241      -1.27519822      -0.44889020       0.02428654       0.11597240      -0.01509429       0.10114560
Na      10.87287085      14.38485672      52.31627303       0.20006099      -0.74138687      -0.50293963      -0.05599186       0.13868440      -0.01088036
Na       7.20561040       3.73618605      52.84833041      -0.82580438      -0.26307920       0.62109896      -0.00409774      -0.04899203       0.25692203
Na       7.16158879      14.37773660      52.75275529       1.23228106       0.00565528      -0.21079716       0.11009891       0.08597896       0.05506473
Na      10.89777885       3.66125249      49.36055799       0.12584743      -0.68955460      -0.13600433      -0.03107143      -0.02350350      -0.09787347
Na       7.22647806      10.71760797      42.48410542      -0.44623463      -0.13107886      -0.08614310      -0.04815431      -0.04305864       0.08030007
Na      10.63595415       7.23924239      48.68208003      -0.06053912       0.45770236       0.42875595       0.07452779      -0.08011635       0.01396436
Na      10.53210227       7.13457077      45.14799326       0.17188813      -0.35876619       0.13877098       0.11290238      -0.02303577       0.10083058
Na       7.14353820      10.97274535      46.09071393      -0.38693225      -0.02908160       0.12220412       0.03916887      -0.13957365      -0.05559445
Na       6.86581788       7.35283611      45.66395612      -0.07976646       0.92522848       0.18617205       0.25216381      -0.02483822       0.07405459
Na      10.88035615      10.97586760      42.06869996      -0.12431955       0.16118856       0.28298758       0.05629894      -0.18638094       0.10042816
Na       7.32389874      10.86799575      49.79695276       0.10234533       0.30272094      -0.00486955      -0.10970438      -0.08626873      -0.19469918
Na      10.70636167       7.33477150      55.84996715       0.23119215      -0.42070268      -1.67221507       0.12189242       0.05003373      -0.02673541
Na      10.75741096       7.44601740      52.09999029       0.66081763      -0.52673731       0.00510447      -0.02037766      -0.22926638       0.28519466
Na       7.25074030      10.84521134      53.15307910       0.37748610       0.43720700       0.40815242      -0.09484670       0.03930237       0.14839631
Na       7.27833867       7.34086473      52.79036105      -0.34904696       0.17241242       1.24284797      -0.05951241       0.02605108      -0.02152086
Na      11.00576913      10.72596146      49.19247279      -0.79664700      -0.44855634       0.27195290       0.00539885       0.03525471       0.08121653
S        1.38824792       1.26827801      43.48285103       1.09853498       1.16971677       0.03983151      -0.07240066      -0.18752487      -0.02401784
S        1.24405683       5.68845165      47.89438033      -0.86476089       0.06451119       0.53122893       0.12372281      -0.23430583      -0.42385454
S        5.64399759       5.93727099      43.51252738      -0.11656930      -0.37130228      -0.14775914      -0.18126523      -0.25741380      -0.11268907
S        5.96284031       1.50138946      47.93420286      -0.32178267      -0.47421486      -1.08448098      -0.09137557       0.29774124      -0.18152992
S        4.95252929       2.19371400      44.35398329      -1.24271362       0.06290395       0.03805037      -0.02452759       0.43621686       0.09722023
S        4.91444038       4.99068999      47.03502715       0.21020952       0.17155898       0.87564931      -0.17183736       0.32057104       0.00011843
S        2.06526904       4.84095161      44.36488845      -0.33265590       0.60491940       0.28810789       0.10902701       0.02605724      -0.03158301
S        2.28910610       2.14886229      47.10459673       0.06818955       0.17887380      -0.29888751       0.17940557       0.12208512      -0.11229794
S        1.52090377       1.38047227      50.52471312      -0.33547854       0.83490072       0.15121365       0.03791588      -0.00787649       0.57833526
S        1.40459049       5.56790606      55.08666299      -0.77385878       0.50891370      -0.14097231      -0.27268363       0.20254774      -0.00540332
S        5.77569725       5.99692987      50.69962852      -0.80590308       0.20067585       0.51186834       0.21495706       0.09349410      -0.45940485
S        5.92203080       1.58389045      55.17675066      -0.64771271      -0.21353341      -0.14703064      -0.01427707      -0.12048127      -0.16939426
S        5.09784729       2.39833958      51.39832381      -0.87762148      -0.14843800       0.70115471      -0.02631319      -0.10283269       0.19176962
S        5.01649887       5.04183038      54.15572656      -0.22067430       0.25900120       0.11033512      -0.39369904      -0.01294211      -0.12073448
S        2.20289192       4.89389200      51.30629784       0.44405249       0.74586397       0.01696509       0.25467642      -0.22176961       0.66310413
S        2.39812301       2.12831782      54.10298933       0.38984609       0.66593070      -0.00661069      -0.10990488       0.01964338       0.14358501
S        1.50856642       8.45753141      43.37527166       0.36953097      -0.42836306       0.11472462      -0.18646270      -0.19406869      -0.00568934
S        1.15994732      12.93383175      47.86472415       0.76046570      -0.12489734      -0.28271849       0.33445715      -0.08444052      -0.13882593
S        5.64909461      13.02441534      43.51858402       1.14651885       0.46574536       0.08914174       0.13185770       0.13113261      -0.27934641
S        5.98228613       8.87279104      47.98044407       0.84419870       0.37690810      -0.00617077      -0.21526952      -0.31193643       0.00216405
S        5.15054537       9.43702314      44.36502803      -0.22514125      -0.44831452       1.22462632      -0.20290510       0.17028875       0.04126825
S        4.75729960      12.22078079      47.02260737       0.14249128       0.37099201      -0.50588166       0.15532579       0.12698352       0.19557389
S        2.09963412      11.92672739      44.38374496       0.04853170      -0.69961839      -0.39840994      -0.11158299      -0.12478623      -0.21475509
S        2.33714621       9.26651805      47.07190842      -0.77158300       0.37930708      -0.13569600      -0.08193206      -0.29274520      -0.10487423
S        1.55465256       8.38561518      50.49407128      -0.22265496      -0.89352166      -0.32232483      -0.12922709       0.20243845       0.23633967
S        1.23296762      12.84488139      54.97654336       0.92612739      -0.28428022       0.23219707       1.66824044      -0.40986746       0.41321528
S        5.69449034      13.13025724      50.65295216       0.26685099      -0.34470549       0.11647748       0.04061336      -0.12036205       0.03376529
S        5.95915707       8.77770557      54.98452759      -0.36824791       0.02314067       0.70164465      -0.01228316      -0.17791168       0.43002023
S        5.03358667       9.52018196      51.46118385       0.52408476      -0.32491942       0.01555842       0.53104887      -0.47145708      -0.34629507
S        4.76823158      12.17097195      54.12611857      -0.19828839       0.40356226      -0.61005929       0.04699158       0.27788758       0.22472778
S        2.17935596      11.96551849      51.33972903      -0.89523861       0.04913479       0.36991006      -0.13796092       0.09037691       0.19507974
S        2.27505426       9.24427389      54.15301752      -0.15873078      -0.29920783      -0.39861304      -0.19591145      -0.06114189       0.29459165
S        8.69587907       1.15835912      43.44194181      -0.10553376      -1.07030978      -0.40396936      -0.10305343       0.05891955       0.01987355
S        8.40462646       5.75933175      47.83368650      -0.37977374      -0.66996609       0.03156724      -0.26862011       0.23439205       0.19642376
S       12.64918977       5.81129049      43.28596741       0.27990332      -0.20654980       0.60782623       0.07798142      -0.10718483       0.39901840
S       13.11942622       1.54141854      48.00185398       0.16520361       0.57709928       0.27148661       0.09943436      -0.20534116       0.11336833
S       12.18119516       2.32524013      44.40944945      -0.22048136      -0.04061713       0.30902372      -0.08526438       0.12660996       0.07432862
S       11.99812102       5.21833985      46.95489210       0.35203051       0.16665501       0.03166223      -0.16619856      -0.32413773       0.04711551
S        9.10788052       4.78544707      44.38548963       1.41335993      -0.31552582      -0.05539048       0.55606669      -0.35277711       0.28925312
S        9.50900417       2.16116549      47.13011337       0.69941658      -0.49535563       1.21101555      -0.16412602      -0.22794999       0.38086354
S        8.69116878       1.37113148      50.75426717       0.57920059       0.23691684      -0.52641743      -0.11713309      -0.04399046      -0.24903709
S        8.35898138       5.84951029      54.90717240       0.40601069       0.78039013       0.09474025       0.38882071      -0.18417863      -0.06555594
S       12.74754237       6.03823366      50.63189630      -0.92737014       0.41545031      -1.10821378       0.04162236      -0.22638857       0.17997060
S       12.94639821       1.71534113      55.32498572       0.17885864      -1.07276303      -0.76424566       0.20455365      -0.16279689      -0.30536615
S       12.32177493       2.45226256      51.67805148      -0.48431520       0.62200891       0.00929008      -0.14470418       0.06299779       0.10176735
S       12.06502936       5.38141604      54.28517045      -0.07713930       0.11750744       0.56214660      -0.40354217      -0.75000682      -0.48455715
S        9.40472160       4.96632981      51.46700346       0.70222892      -0.28870275      -0.58992249      -0.21986744       0.13993408      -0.25860009
S        9.47649461       2.36772776      54.24761144      -0.37250089      -0.83300235       0.59944148      -0.14169552      -0.13906563       0.22838389
S        8.64395217       8.31885631      43.50620465      -0.44880518      -0.53134990      -0.31992309      -0.09750431       0.36346772      -0.11440762
S        8.36339606      12.90145788      47.83389468      -0.52170464      -0.16735868       0.02774935       0.29767015      -0.35718641      -0.20028384
S       12.83569257      13.06690442      43.48063626      -0.89209174      -0.20689314       0.59269959       0.14920264       0.04930327      -0.27926051
S       12.92773869       8.64631142      47.96490505       0.67885949      -0.22668700      -0.45881249       0.41225982       0.02749253       0.02923667
S       12.20094238       9.46596409      44.47679500      -0.06017590      -0.20335377       0.97199188       0.31671606      -0.32919654      -0.51736672
S       11.96311725      12.34368505      46.93065038       0.25557558      -1.52794595      -0.11494962      -0.10123824      -0.12271563       0.14966314
S        9.33198182      12.02683215      44.24648402       0.19491803      -0.17297944       0.50809724      -0.32908947       0.06592730      -0.14095577
S        9.42757340       9.41145706      47.04272166       0.86410183       0.68715919       0.47804334      -0.31265110      -0.32938114       0.32953275
S        8.68933811       8.51161858      50.57627355       0.13562466       0.34875043      -0.18022472      -0.10839392      -0.05879049      -0.18564295
S        8.50595346      12.96510457      55.06416640      -0.14658675      -0.55535781       0.19263959      -0.11770348       0.01426195      -0.09730017
S       13.06729904      13.13177390      50.75461757       0.35503498      -0.09675987       0.38703584       0.06035583       0.17912480      -0.30470622
S       13.23187934       8.77956378      55.26382792       0.56054437      -0.11735085       0.37081777      -0.11737709       0.01065814       0.01957880
S       12.37924478       9.61952050      51.66996960      -0.17129011      -0.31850496      -0.05184475       0.22977070      -0.02569820      -0.18169967
S       11.86353290      12.43378753      54.17763852       0.02062788      -0.10402123      -1.02994822       0.58632216       0.38001937       0.46258626
S        9.45386465      12.04050446      51.37230066       0.39162712       0.21554572       0.69296759      -0.54163206       0.32572778      -0.39399266
S        9.52916455       9.38983294      54.21885608      -0.19429584       0.02105401       0.18562572       0.03066386       0.19871484      -0.21746449
Sb       0.08003180       0.03489046      56.51601482       1.31979396      -1.85709178       0.17428774      -0.32970115       0.06937846       0.06635889
Sb       3.54920968       3.58665558      45.69427190      -0.32393048      -0.95448221       0.75199191      -0.03839007      -0.34869150      -0.09335338
Sb      -0.00527910      14.42839330      49.24171521      -0.87743419       0.52821467       2.05752463      -0.55290031      -0.58595029       0.27920444
Sb       3.64218575       3.65828862      52.79658667      -0.22844287       0.34095602      -0.86096206      -0.16979168       0.16184128      -0.50024887
Sb      -0.02714882       7.15147583      42.08919742      -1.36357233      -0.42102935       0.42030865       0.84464415      -0.18652349       0.45566290
Sb       3.61504138      10.66629326      45.68641637       0.46204762       0.94149777      -1.67685318      -0.04112096       0.20816120      -0.11969655
Sb       0.01222219       7.15655051      49.20328684       0.36887366      -1.09938760       0.83714860      -0.29635437       0.07604586       0.07131373
Sb       3.55191246      10.69145021      52.77375509       1.29786734       1.24063589       0.06178016      -0.59828789       0.47234881       0.15971402
Sb       7.11787845      14.30367639      42.11943135      -1.26167640       0.05380284       0.28315723       0.03775789      -0.48637441       0.21131145
Sb      10.70156430       3.61131740      45.76207032       0.33775834       1.16703080       2.08031714       0.15944159       0.48531559      -0.81765430
Sb       7.27007258       0.13617961      49.30325056       0.77897435      -0.46930780       0.98835954      -0.31099339      -0.41113993       0.71878167
Sb      10.79444753       3.79232209      52.93733259      -0.87955177       0.10899312       1.74636669       0.93254328       0.40689348       0.33124140
Sb       7.15339021       7.11516162      42.15325527      -1.07177540       0.24589852      -0.42984234       0.11878458       0.12286763      -0.31553581
Sb      10.69527363      10.76771486      45.66355859      -0.16615857       0.78161008       0.62038115       0.33209613       0.63828721       0.21233604
Sb       7.17086427       7.25845733      49.21576470       0.95607034      -0.77552726      -1.60251816       0.18394042      -0.13852213       0.44610684
Sb      10.79286336      10.87689647      52.86394794       1.16842931       0.75461769      -1.74131793      -0.06340731      -0.75728992       0.16829096
Na      14.22453070       3.55574636      57.07848298       0.38375531       0.54514439       0.79841056       0.06193926       0.19364421      -0.01133362
Na       3.49713706      14.76824457      62.24881154      -4.72547953       8.90457358     -17.32081416      -1.09373356      -0.18270704      -1.51258071
Na       3.65347667       0.03886102      59.65334834      -0.01473126      -0.08581339       0.90346470      -0.00049595      -0.12526623      -0.22285138
Na       0.07796267       3.29917491      60.80512863       0.02922974      -0.15206160       0.45145423       0.12796647      -0.33722388      -0.41361291
Na      14.19229418      14.33295717      60.17948734      -0.20002696      -0.50768389      -0.45184495       0.01574091       0.01502233      -0.05664260
Na       3.87525785       3.51409020      56.40079512       0.79650039      -0.30748420      -0.14590593      -0.00230330      -0.09308778      -0.01189620
Na       0.03002482       4.19466183      65.44533374       0.89357452      -2.93103655       5.00673716       1.45992225      -2.08259951       1.16891596
Na       3.91654206       0.03071423      70.09558346      -1.25938478      -1.05614336      -0.85389106       0.99903026      -1.89694206       0.34939090
Na       3.61639065      -0.00506315      66.64243623       0.51409360      -1.61182767      -0.12029133       1.14900336      -0.99429808      -0.35021236
Na      -1.34315520       5.70980591      65.66760917      -4.74644517       6.21555267      -0.73152337      -1.76665443      -2.40575367       6.57120890
Na       0.28686205       1.01654105      68.25689934      -3.08952609       0.38258084       0.51470194      -4.89671811      -0.75628805      -1.53519815
Na       4.02657254       3.48632853      63.90473795      10.93551156      -7.38649158     -10.00261046      17.15824084     -14.72124148     -15.05653637
Na      14.23187402      10.88391104      57.07239533      -0.29812634      -0.17725635      -0.01926073       0.06430659      -0.02871393      -0.09083075
Na       3.76302550       7.02271119      64.16389366       3.19447328      -2.12404681       7.24641192       1.45566403       0.33835674      -5.05183512
Na       3.74155110       6.95356175      59.31652337       2.83244568      -1.18489272      -7.18926843       5.65581874       2.89603691     -24.36089775
Na      14.34459690      10.58375738      60.64741597       0.14243661       0.20546864      -0.26588443      -0.08324120       0.12665485       0.10353419
Na      14.91572916       7.20624318      60.17563669      -0.03531621       0.49511646      -0.24552446      -0.30802523      -0.19558955      -0.07207225
Na       3.62171440      10.73401720      56.30669180       1.29117517       0.36694512      -1.33055813       5.55613590       2.25980341      -5.56986740
Na      14.41799602      10.59498612      64.40560461      -0.69724408      -1.14596362       0.49917654      -0.23852194       0.25284157      -0.05569254
Na       4.19346542       9.88018215      69.14237974      -7.98563474      -1.32663779       4.26472810       1.06636253      -2.00863289      -0.31287602
Na       1.26946176      11.18118997      65.82006077      -4.04299984      21.14599324     -16.73227448      -0.30906437      -0.16203511      -0.72184998
Na      14.34175194      10.93330198      68.29326368      -0.09287693       0.30983805       0.10821393      -0.19672089       0.09954207       0.09413529
Na      14.65656399       6.97323562      67.47365258       0.03526014       0.52465414       0.32399554      -0.12246312       0.03094172       0.29584125
Na       3.28540264      10.69672934      64.19484651      -3.65714253      -2.81379233      -1.11935554      -0.39409658      -1.62673281      -3.70938385
Na       7.51189380       3.70502213      56.50486745      -0.31579710       0.02931713       0.22869475      -0.15368730      -0.13447377       0.03291412
Na      10.78773249      14.33615820      62.98094575      -0.64034177      -0.55865801      -0.23375277      -0.08909716      -0.08095370      -0.08282647
Na      10.79763292       0.00467042      59.73246843       0.05070444       0.81882955      -0.52904563      -0.14881528       0.07911712      -0.15959285
Na       7.20081884       3.64609815      60.18274365       0.78510600      -0.61883720      -0.14600248       0.18856916      -0.19171041       0.07924212
Na       7.05085764      13.89708533      60.04456136      -0.04905613       0.05447749       0.29338745       0.18847129       0.17713931      -0.17503374
Na      11.60700738       4.23551113      70.81776848      -0.10126514      -0.18754737      -0.10479070      -0.12323497       0.19872900      -0.12763410
Na       7.37512677       3.48366423      64.08664383       0.73594099      -0.81389644      -0.06793099       0.35351858      -0.10745775      -0.14072904
Na      10.88385598       0.62361978      70.87868966      -0.00503122      -0.81300731       0.49198955       0.14479599      -0.14522455      -0.04243907
Na      10.83716963      14.53090572      66.73212431      -0.03253945       1.33534445      -0.40384934       0.53694131      -0.34079630       0.32017616
Na       7.33328488       3.53671916      67.48290522       1.94622119      -1.41210518      -1.58803071       1.34431041      -0.67099025      -0.63665270
Na       7.16760076      13.57439871      67.69591509       9.09762768      -8.43188016       0.58195160       0.31238200       0.00139533      -0.06256844
Na      11.01340438       3.68402272      63.76719816      -0.73265520       0.38604922       0.36699660      -0.02974138       0.18814245       0.00425617
Na       7.04891905      10.65206296      56.97097579      -0.02070852      -0.45051788      -0.12289579       0.15645544       0.15938663       0.02890262
Na      10.74638852       7.21394305      62.86567212       0.54018976      -0.44386740      -0.79287757       0.78188213      -0.93679056      -0.71929899
Na      10.98362043       7.11820021      59.37271846       0.14024085      -0.25029438       0.45280179      -0.09278166       0.18144988       0.13323283
Na       7.25861061      10.78101887      60.77658881       1.01143383       1.95579940      -0.31336651       0.36142183      -0.32648904      -0.18639292
Na       7.21679630       7.08313976      60.05399423       0.28915791      -0.57588966       0.16848282       0.32735725       0.11281366      -0.15183405
Na      10.57730687      11.18051897      56.44454465      -0.08329423      -0.09864777       0.30537378       0.03012026      -0.08180086       0.07613143
Na       6.49456800      10.72364958      64.40927222      -0.98161345       0.84909907      -1.60133695       0.43875160      -0.01868422       0.03743179
Na      11.69853899       8.78908098      70.13297846       0.05252002       0.65326845       0.01063437       0.07044750      -0.19149298       0.15262134
Na      10.81702848       7.21168651      66.59093296       1.07580429      -1.14483627       1.42718979      -0.11345021       0.07587757       0.21415792
Na       4.12376884      11.40992548      68.09675240     -12.18073051       8.33694021      -1.36624913       3.76715964      -0.87405203       0.86700680
Na       5.93727776       6.69409998      67.24752085      -6.52029335      -4.18011807       3.42672711      -0.16107715       0.71085160      -0.14661526
Na      10.47938766      11.15228432      63.79883323      -0.39564638       0.70700090      -0.46790299       0.08152296      -0.29856437      -0.08194662
S        1.63792087       1.26220121      57.75142118      -0.09471672      -0.46553289      -0.05711829      -0.03228807       0.22491870       0.26273671
S        1.63980940       5.13617591      62.14891428       5.02631057      -7.69970488      -6.31947316      -0.46583824       0.80327371       0.74990928
S        5.82171369       5.86257043      57.71125745       0.34254512      -0.02098268      -0.34414016      -0.04110946      -0.08348656      -0.11254593
S        5.92927532       1.47301173      62.66226182      -0.68362679      -0.52268295      -1.03144700       0.05712194      -0.01145438      -0.12529597
S        5.13209707       2.37147793      58.85664935       0.16642514      -0.73257824      -1.43451923      -0.51846545      -0.00735078       0.05238626
S        4.94359993       4.99274841      61.34592857      -0.30077427      -1.20871512       1.22217554       0.27278119       0.14958715       0.57116782
S        1.95942776       4.75568715      58.89974130      -0.23333308      -0.65641799       0.09339945      -0.21460087      -0.26173356      -0.14339371
S        2.38930561       1.93127561      61.48217409       0.63432406      -0.79593768      -0.13034709      -0.05735716      -0.71355396       0.01886764
S        1.58129191       1.01044570      65.47645087      -0.80468385      -0.44555839      -0.99625428      -0.58834224       0.50558764      -1.09150289
S        2.42063374      10.22229093      57.48406749      29.17448744     -11.85264895     -62.00210163      -5.65216949      -1.89596524       3.37738403
S        5.83631337       5.51634857      64.91727657       0.40498831      -0.19457264      -1.43384909       0.37858244       0.30270918      -0.76406092
S        7.43403278       1.29699530      70.02106364      13.67863231       7.71714833     -13.99147904      -0.58939483       1.40787609       0.55495590
S        5.43272291       1.88988632      66.65834704      -0.39939333       0.24427609       1.60979230      -1.40364694       0.47838121       0.17841869
S        5.84991922       4.75441525      68.80160823       0.93842078       0.18146324      -0.70045367      -0.85243273       1.10009790       1.99155206
S        3.16462629       4.23008913      64.65228780      14.34837236       3.90923026     -16.57970651     -17.27283375      15.26225011      15.54985843
S        2.19808143       1.51082630      69.00680694     -17.11302619     -25.91187352      -8.42331108     -12.14827322     -11.71828362       5.73297142
S        1.59466069       8.31395643      57.62925133       0.56123490      -2.18570444      -1.54380101       0.57948676      -0.43001828       0.63440916
S        1.39368009      13.37174787      61.33703393       2.18338196       0.68869096      -5.66751626       1.47000939      -0.84505435      -0.66069646
S        5.64247173      13.11015954      57.58569938      -0.15511944      -0.72685610      -0.52388595      -0.33052610      -0.22349221       0.12377678
S        6.10990195       8.63102759      62.20831833       0.65798361      -0.85110178       0.91754663      -0.61399521      -0.02170627       1.04607492
S        5.20231262       9.30294629      58.71239780       0.78777698      -0.90158140      -0.12346429       1.03403604       0.07977376       0.09484925
S        5.00922582      12.21000546      61.15835675       1.39974531       1.18356933       0.60313254       0.25144407       0.46378685       0.96641717
S        2.27303796      12.31304638      58.58596725       3.05055348      14.68511751      -3.57532303      -0.32433626      -0.33646629       0.06358977
S        2.41780691       9.03130104      60.50246623      -2.59909379      -0.74668010      -5.16707672      -2.76290924      -1.07745985       2.73257948
S        3.42900894       6.78788936      60.63904310      23.43466245     -25.58058299     -26.91358304      -4.86540382      -2.39904885      24.44196199
S        3.46200954       2.38495374      69.68604041      29.13648436     -61.50009553      32.13288653      17.29770225      12.51737200      11.22394115
S        3.91507510      11.55380817      66.08239415      -8.81155497      -6.95364268       4.80409923       0.56095009       1.46957468       0.10592367
S        7.23721996       9.27468018      73.03260063       5.42013493       3.38075216       0.39751841      -0.06674049      -0.33007153      -0.65934923
S        7.88147989       8.57908737      66.34340564       6.84108123      -3.52546298       7.52833340       0.43111433      -0.07503304      -1.27608837
S        3.13521647       7.01536684      66.04367151      -5.95429973     -32.73442177     -25.44525978      -1.70463230       0.32262836       4.71307846
S        4.73703471      13.94298061      63.77674904      22.68878947       4.61301156      -7.38888034       1.93829672      -1.37801692       2.85717054
S       -4.44974991      16.76539166      57.64919598     -60.97785247      42.92388486     -89.01843209       2.13555963       0.67470533       3.82749389
S        8.50349323       1.33964412      57.93556176       0.53785600      -0.67722990       0.05684084       0.60738410       0.49333794       0.58889307
S        8.43839893       5.58660188      62.40846638       0.87662108      -0.07204686      -1.59402169      -0.35542084       0.24057866       0.06774498
S       12.95405692       5.92654362      57.87448476       0.65715946       0.15959046       0.74810367       0.47532662       0.34241794      -0.14991739
S       13.07658159       1.49556675      62.64073242      -0.63538673       0.69783190       0.33769168       0.31367405       0.12580311      -0.02738163
S       12.27311490       2.28622180      58.90812263       0.65278651      -0.33366582      -0.52194500      -0.16297474       0.20511556       0.24823682
S       12.06787352       5.21069589      61.47628099      -0.46455013      -0.22449146       0.52927164      -0.12333213      -0.53089832      -0.41097854
S        9.33243625       4.79269589      58.75221136      -0.24309963      -1.12535141       0.11083240      -0.07888943       0.39040686      -0.32285933
S        9.45227747       2.31251080      61.55646345      -0.61001068      -0.48672542       0.72264340      -0.11776801      -0.43423483       0.31113382
S        8.68258919       1.24985453      65.38742523       0.11199783      -0.16001487       0.18532309       0.35594138       0.05440444       0.09381833
S       10.00289407       5.28927472      72.81077579       1.88052889      -4.65145769       0.05153464       0.67639438      -0.92662470       0.05037476
S       12.88147720       5.84378353      65.23736783       0.52493174      -0.01982100       0.50076831       0.38725700      -0.34089548      -0.27692674
S       13.27695748       2.17500674      71.42257583       0.17620965       0.54712328       1.29812534       0.04417885      -0.00935538       0.08543378
S       12.59003548       2.22174095      66.90036213       0.53738163       0.16432182       0.19628534       0.04105723       0.16960372      -0.15157735
S       12.17338682       5.68453986      68.65309938       0.44710590       0.26513132      -0.47763727      -0.06373745      -0.09689403      -0.08076839
S        9.56699187       4.85098579      65.99023733      -0.28494796      -0.15271663       0.18850174      -0.08373311      -0.60258662      -0.11189413
S        9.53885952       2.61831530      69.22247378      -0.92518136      -0.56943383       0.21077777      -0.38895416       0.02591215      -0.26902523
S        8.71376969       8.33280187      57.74996537      -0.15134911      -0.27943410       0.49148825       0.12872765       0.26450008       0.09207420
S        8.32852408      12.83348576      62.77738526       0.70093895       0.56186097      -0.73969753      -0.13048451       0.12889481       0.03682739
S       12.66245371      13.18535526      57.79501557       0.29814349       0.80963416      -0.28042619       0.07058735      -0.07177141      -0.12312836
S       13.09835238       8.64559599      62.70066312       0.53672986      -0.63017361      -0.84214190       0.30113857      -0.06354615      -0.31613626
S       12.33835489       9.64383556      58.75583774      -0.10726113       0.19252461      -0.60653172      -0.01961673      -0.28315380      -0.03014221
S       12.01522911      12.17330567      61.55008166       0.40339724       0.46109644      -0.09497120       0.16771584       0.23683204      -0.00764737
S        9.22814456      11.99296865      58.92045040      -0.01972113      -0.85669155       0.07447059      -0.02350785      -0.00736456      -0.01101210
S        9.60689545       9.19833051      61.47715376       0.00054201      -1.24661766       0.50502106      -0.14984090       0.13367308      -0.28057816
S        9.45933542       8.38525905      64.54922422      17.87806646      -2.91645698     -14.50766731      -2.32005870       0.93306474       1.77023053
S        7.83529561      13.68173368      70.33932878      -1.76619397      -1.95738348      -1.93288765      -1.16580207       0.65477700       1.25402486
S       12.82936522      12.90770552      65.13964628      -0.85140031       0.71779962       0.45778209       0.11421944       0.45479842       0.03893779
S       13.18284099       9.52855687      72.64495855      -0.32092155      -0.44932958       0.68664647       0.06393067       0.05264681      -0.00115576
S       12.28201805       9.36380357      67.46994304       0.23760417      -0.41681110       0.37040556       0.34947581      -0.13758751      -0.27098335
S       11.93975333      12.71198179      69.05108206       0.01033709      -0.14789307      -0.29861692       0.22929719      -0.37462447      -0.02099035
S        9.67863210      12.11569625      66.28826636       0.42195671      -0.07533697      -1.02951977      -0.96366848       0.29015543      -0.50110682
S        9.20418449       9.89770727      69.58960077       0.75915124       0.83132104      -0.64517386       0.02141029      -0.00934745      -0.04750344
Sb       0.46413471       0.17764906      71.83092133       2.33226043      -0.55537958      -0.02715130      -0.12128631      -0.18184581       0.31292264
Sb       3.51149557       3.52894554      60.17319707       0.70097424      -1.78012434      -0.44666447       0.54334357      -1.18208601      -0.87858716
Sb       0.53320742      14.80150168      63.95698950      26.18624429      30.84863940       4.12827844      -0.70412257       4.74959090       0.70082569
Sb       3.86102352       3.77396247      67.71045232      18.90049123       4.63820289     -13.20499329       2.84323768       2.02120597      -2.86563264
Sb       0.09679519       7.05013995      56.37951296      -0.08786511       0.26240045      -0.22045085      -0.18251760      -1.27320170      -0.42244500
Sb       3.78976843      10.75326104      59.85016629      10.69155959       7.61399263      -6.11757613       0.62703794       1.72510530      -0.87059870
Sb       0.41576802       6.62732245      63.69548509      -0.35951050     -10.43589344      -2.21539967       6.08106161       2.45473200      -3.16197613
Sb      -2.48695788      11.36767933      68.22352652    -130.43772335      45.19760678      -1.06425849      -0.79922073      -0.22690368      -0.04842215
Sb       7.13487425      14.39554434      56.33926319       0.15090174       1.82481754      -0.17160511      -0.00217272       0.03934328      -0.11677358
Sb      10.77234259       3.63394155      60.17643805       0.87686188       1.05258448       0.90227647       0.75989974       0.35096522       0.15034539
Sb       7.21972870       0.04142865      64.01250072       0.47328980      -0.25841124       0.76659580       0.03228806      -0.39750935      -0.27808084
Sb      10.96197605       3.87187447      67.62638464      -0.20368973       2.22035683       0.55447636      -0.05585465      -0.05190511       0.35620187
Sb       7.18079236       7.24868090      56.35354576      -0.14113554      -1.35386829       0.21091497      -0.23993210       0.00274034      -0.07128959
Sb      10.80431675      10.70499951      60.17412526      -0.82299010       0.94378223      -1.57291918      -0.17395172       0.17999044      -0.32465081
Sb       7.25031295       7.15825286      63.73695180       2.56749937      -1.36047363      -1.12799995       1.15372499      -0.29033835       0.09921915
Sb      10.59321124      10.90291497      68.02123072      -1.80302198      -0.90524398       0.59249398       0.17673640       0.51642369       0.75148483
Na      13.88422114      17.94913649      28.30926051       0.22856213       0.15462099       0.16159361       0.10068492       0.13450643      -0.05711192
Na       3.39084019      28.96434197      33.46739018      -0.37859028      -0.23190556      -0.63204322       0.12111293      -0.19426460       0.02536120
Na       3.74504850      14.40103683      28.58853765       0.15147512      -0.74328137      -0.49634825       0.03185280      -0.08535662       0.08883958
Na      -0.04327500      17.39632559      31.38614343      -0.01195381       0.83117536      -0.13666539       0.04059007      -0.03693984       0.15980589
Na      14.40764494      28.65383213      28.29006760      -1.00317421       0.02329392      -0.93770274      -0.32358345      -0.30193248      -0.16161598
Na       3.60762371      17.63308111      27.32371914      -0.28830834      -0.40116920       0.05704469       0.18863214       0.29875852       0.15537919
Na       0.23014807      18.08981356      35.25743786      -0.30576347       0.46110948       0.12695191       0.03428121      -0.23393295      -0.05649403
Na       3.58583235      14.29582771      41.77728609       0.18407253       0.03704901      -0.31705573       0.03042278      -0.08411322      -0.12307628
Na       3.63963918      14.32295076      37.84354679       0.00163167       0.39612485       0.29583109       0.00880294       0.02940695       0.03816776
Na       0.11754912      17.86947422      39.00783783      -0.54224208       0.20131486       0.27176727      -0.13300971       0.06479920      -0.16410440
Na       0.11694576      14.30444394      38.39113043       0.44359364      -0.65740685      -0.73082411      -0.01413695      -0.02281424      -0.04642907
Na       3.92706314      17.80794236      34.94754260      -0.20560614       0.23869122      -0.30538026      -0.07405022      -0.04400669       0.08300379
Na      14.32736749      25.04555795      28.13730165       0.03772606       0.23265375      -0.72432210       0.15963944      -0.02452358      -0.04235913
Na       3.60163931      21.41656636      34.36140776       0.51393634       0.49750817       1.14142440      -0.10974865       0.12229573      -0.16276978
Na       3.21525028      21.77402913      30.63949989       0.10223345       0.89022778      -0.35323216      -0.03341379       0.22008824       0.12217994
Na      14.29475164      25.25971598      31.94177678       0.40457590      -0.25284850      -0.24140799       0.17546927      -0.07085251      -0.03442954
Na      14.22712805      21.22337030      30.93536633      -0.61219691      -0.10923120       0.35347309       0.09075575      -0.02105464       0.07429954
Na       3.61795993      24.59174398      27.64995098      -0.31710934       0.14344010      -0.13299826      -0.28548392      -0.04116667       0.02889200
Na      14.39527151      25.20313141      35.56849027       0.25299438       0.20624218      -1.03428599       0.08338112       0.06776984      -0.12161267
Na       3.64381706      21.52361718      41.66410236      -0.74042064      -0.65203570      -0.43713724      -0.14544060      -0.15044285       0.00064498
Na       3.54587381      21.42299772      37.88753771      -0.08710467      -0.16962034      -0.05055857       0.10855499       0.13226803       0.12388850
Na      14.34281074      24.89677153      38.82884908       0.63835140      -0.35183194      -0.06775744      -0.02831296       0.04325673       0.14832602
Na      14.16545633      21.25105950      38.47029242       0.08040978      -0.54455481      -0.21842207      -0.08482970       0.04662016      -0.02807015
Na       3.70421223      25.34910199      34.91152087      -0.00004213      -0.13589234      -0.39329907      -0.04068198       0.00906737      -0.07671441
Na       7.26819545      17.81819638      27.97208173      -0.32089635      -0.68976096      -0.07913086       0.02995579      -0.00716677       0.08034988
Na      10.78190765      28.87173273      33.19469006      -0.55691336      -0.30534732      -0.26311065      -0.02092502      -0.24776777      -0.00788122
Na      10.64283240      14.17556251      28.37199925       0.48329033      -0.52111682       0.10811771      -0.20288646      -0.22839734      -0.02723685
Na       7.00933303      18.06501335      31.74687718       0.10405086       0.45739442      -0.26983220       0.21568667       0.01337013      -0.00477837
Na       7.14904432      28.72825526      30.98248464      -0.46481093       0.19735594      -0.39321598      -0.03524161       0.13401123       0.02450989
Na      10.67453159      18.10941820      41.97661496       0.77497454       0.43970010      -0.37003513       0.09208333      -0.02581991       0.05310546
Na       7.31373636      17.96300623      35.37638630      -0.77755314       0.43208447      -0.43832193       0.06297653       0.05699062      -0.00836491
Na      10.61952386      14.31987012      41.54481824       0.13097182      -0.02029623      -0.27603451       0.15265768       0.07779103       0.04717897
Na      10.58731327      28.67369137      37.56735082       0.36360304      -0.23467142      -0.11563793       0.22504114       0.01239987       0.00021732
Na       7.28417085      18.11577673      38.85667211       0.16328901      -0.62325400       0.44898113      -0.10468018      -0.21148172       0.11932971
Na       7.00599245      28.70612030      38.37050454      -0.32384379      -0.01797882       0.13030292       0.08650016       0.00228119       0.13312319
Na      11.05585729      18.13402346      34.68330145       0.52868276       0.02921959      -0.03859217      -0.03618189      -0.11712987      -0.03093044
Na       6.95474774      24.82487294      27.99885142       0.55745344      -0.00015209      -0.00789483       0.12211628       0.24375739      -0.03614711
Na      10.70630083      21.56381421      33.69158707      -0.25415272      -0.11579346       0.03241942       0.14427951       0.06335454       0.13691019
Na      11.19472995      21.03173017      29.61767040      -0.67153661      -0.12034967      -0.71482179      -0.08306298       0.27907662      -0.14268020
Na       7.23212004      25.22250726      31.65115581      -0.38288200      -0.02995579      -0.22763188      -0.24724533      -0.02839270       0.03012791
Na       7.47611746      21.46962402      30.82284869      -0.32710668       0.35751592      -0.23766783       0.00158219       0.02083758       0.05477491
Na      11.13424009      25.05750415      27.48688105       0.06597444      -0.43205350       0.17986716      -0.17559093      -0.00321788       0.03821331
Na       7.27063787      25.11430711      35.13566860      -0.31869800       0.96901389      -0.75951226       0.07692862      -0.08310798       0.14164377
Na      10.77980164      21.70635487      41.49715882       0.33176963       0.75791128       0.51114277      -0.10025482      -0.14502647      -0.00208040
Na      10.68128237      21.56294211      37.78448164       0.48495202      -0.52946520       0.51448445       0.01918503      -0.04013905       0.00320863
Na       7.02718433      25.18557385      38.80924780       0.47494383       0.18791658      -0.05516547       0.28107508      -0.04753217       0.04522060
Na       7.14198854      21.66044730      38.27392534      -1.19221263      -0.74185885      -0.06885405      -0.03853335      -0.00141239       0.10354308
Na      11.10191798      25.45354001      34.86586178      -0.11851995       0.24069419       0.54225606      -0.06565529      -0.08475563      -0.11537283
S        1.76251879      15.93337177      27.56305589       0.61833227      -0.09046788      -1.10025839      -0.27551322      -0.13948775      -0.05793370
S        1.23887447      20.18957080      33.36669711       0.24923301       0.24292267       0.47080650      -0.20996976       0.34837741       0.32311942
S        5.67828482      19.13327093      26.17087020       0.45596347      -0.15936556       0.38526018      -0.07389148       0.07103603       0.03456003
S        5.88257786      15.95996290      33.41426588      -0.52180768       0.61941429      -1.41045566       0.28462117       0.08590577       0.22770560
S        5.15258307      16.90111163      29.66955328       0.38498382       1.18264210       0.19326215      -0.15491857       0.05830770       0.14845589
S        5.00600360      20.03668971      31.81944561       0.78329117       0.71286141      -0.64677616      -0.36969155      -0.45836496       0.03553077
S        1.78793447      19.32467607      29.80345775      -0.29825463       0.13646084      -0.41059979      -0.09973800      -0.08905526       0.17192174
S        2.44564503      16.99083619      32.57640772       0.07487258      -0.03306216       0.26981405       0.08850042       0.00971507       0.12052721
S        1.58819109      15.49644973      36.10543171      -0.17603978       0.38325498       0.31628757       0.16620239       0.46085705       0.01327041
S        1.08631911      19.98847435      40.71403830       0.41200726      -0.42697674      -0.74740025       0.32133100       0.27709914       0.24756317
S        5.63727607      20.23862874      35.92147490      -0.68402032       0.57956309      -0.53000401      -0.01625093      -0.06250274       0.08214876
S        5.84824240      15.73744787      40.76101105      -0.22229131      -0.09245914       1.44462118       0.11017532       0.08597239      -0.04706186
S        5.28035737      16.66013099      37.32928784      -0.32416540       0.92160356      -0.23279756      -0.13852045       0.16464814      -0.17958247
S        4.79349260      19.47517696      39.82048691       0.32777251      -1.08895282      -0.30007503       0.01312061      -0.12480446      -0.07993538
S        2.19846453      19.14529520      37.11166616      -0.28962383       0.81647358       0.48258690      -0.13938765      -0.11758405      -0.15777659
S        2.40032710      16.39505334      39.84348947       0.64505590       0.07365397      -0.06127088      -0.08582785       0.00594009      -0.08056380
S        1.41953774      22.83252711      28.61306148      -0.74204660      -1.01028023       0.50903542       0.18564303       0.65608084       0.34944634
S        1.24244589      27.20298414      33.51686078      -0.02434837      -0.23075862       0.90623124       0.45142797      -0.36728001      -0.20215585
S        5.15870944      26.75708479      26.63635947      -0.39200912      -0.53681797      -0.67587705       0.44271014       0.15360087      -0.11804531
S        5.81653367      23.08900969      33.42617280      -0.14313316       0.42867667      -0.38882890      -0.14100462       0.30105613      -0.25655452
S        5.13716909      23.83606486      29.78711913      -0.42114155      -0.64559441      -0.13002534      -0.08089011       0.10417085      -0.21870662
S        4.89087015      26.92665403      31.93029448       0.24497961       0.11971526      -0.60691995       0.41091160       0.40635156       0.12755815
S        2.04973595      26.44147978      29.25174956       0.33395175       0.34269819      -0.17445722       0.22677208      -0.26894001       0.28651383
S        2.49259300      24.02004852      32.47848568       0.19262669      -0.20733811       0.49523272       0.02380553       0.14270289      -0.43861519
S        1.39887400      22.77673167      36.17874048      -0.00249056       0.35563086       0.38663699       0.56087391       0.36589093       0.50019217
S        1.14821795      27.13259399      40.84886997       1.24681960       0.12151038       0.32787636       0.09552951       0.08931407       0.03466849
S        5.71939223      27.33755149      36.10766993      -0.94472331       0.27890442      -0.15233314       0.21197593       0.15233398      -0.29071441
S        5.90932834      22.89089543      40.71787989      -0.81843281       0.59061903      -0.45922565      -0.07655287       0.09407787      -0.10789239
S        5.13174794      23.83079057      37.13887120      -0.35700699      -0.30414216       0.18360196      -0.50178852       0.17780733       0.25572437
S        4.81707460      26.51074382      39.89194100       0.06532895       0.79900662      -0.36263235      -0.36446812      -0.24880605      -0.27770181
S        2.05326853      26.28391517      37.15454456      -0.84412219       0.34630199       0.05775731       0.35751766      -0.24527823       0.44159491
S        2.31627652      23.49836957      39.83036973       0.42737358       0.38929291       0.34377332      -0.27469323      -0.19385188       0.17955598
S        7.88697366      15.08787187      28.13301675       0.21729122       0.58144083      -0.12365935      -0.01170096      -0.03459641       0.01955381
S        8.41983130      20.04300297      33.39233161       0.71749825       0.59920900      -0.27071703      -0.15227774      -0.15330650      -0.13361289
S       13.51836883      20.69761101      27.93009956       0.04157561       0.24454484      -0.41113622       0.32226274      -0.02908273       0.00578669
S       13.38534145      16.03141100      33.42818876      -0.11062522      -0.20333510      -0.51561603      -0.40975187       0.27997338      -0.38990446
S       11.91284529      16.34813656      29.43472702       0.18545455      -0.86273197      -0.03540042       0.27228941       0.12678091      -0.12674844
S       12.01556033      19.41345930      31.78285852       0.83503630      -0.36009080      -0.25034411       0.25442036       0.00419055       0.22229958
S        9.08589032      19.22252813      29.54263113       0.65576876      -0.51516031      -0.51363865      -0.09197239       0.00131422      -0.24805312
S        9.43713153      16.61181927      32.33230673      -0.80548659      -0.92475904       0.19715447      -0.08162301      -0.11398095       0.27723652
S        8.37426471      15.54535896      36.30665482      -0.54615908      -1.03953479       0.06504710       0.25810415       0.04337698       0.03988992
S        8.47843286      20.08759224      40.56621916      -0.03574100      -0.46372977      -0.42193922       0.19701335      -0.06735951       0.11705683
S       12.55457062      20.20271928      35.87392582       0.18165160       0.03825271      -1.41014951       0.38283942       0.14139965      -0.08419772
S       13.05694268      15.72790417      40.72790194       0.38411781       0.77481291       0.43758548      -0.03738830       0.31431155      -0.32141680
S       12.22823781      16.60902062      37.11853248       0.18511721       0.34681958      -0.30934429       0.46657384      -0.16078924      -0.48855406
S       12.17879791      19.42674231      39.72797579       0.17336652      -0.28833238       0.68932951      -0.13611673      -0.05056409       0.04698731
S        9.36400068      19.17110272      37.20440045      -0.60296003      -0.09495550      -0.42342772      -0.28479628       0.10587229      -0.45787526
S        9.60675276      16.41436956      39.82956338       0.17100911      -0.38419597      -0.65238088      -0.04068604       0.36853595      -0.18537855
S        7.53787798      22.13057563      27.79481318      -0.39882382       0.64462745       0.69970820       0.09165593      -0.01619156       0.24023761
S        8.43245110      27.26139083      33.39172638      -0.27456437       0.87333546       0.13704143      -0.04681001      -0.25636336      -0.26792818
S       12.73685666      26.96685801      26.73428026       0.13797921       0.13220937      -1.74900894       0.14019755       0.09690038      -0.09302070
S       13.03943694      23.25094495      33.58355291       0.53445225      -0.03036759      -0.81712521      -0.11604478       0.05272409      -0.13866530
S       12.31614667      23.73958198      29.59535761      -0.26582993      -1.01416161      -1.29573186      -0.22110816      -0.38823684      -0.00527446
S       11.85492773      26.40886259      32.18819911       0.89528040      -0.09550863       0.87982277      -0.00227301       0.22811295       0.08659351
S        9.24182572      26.18846511      29.29801870      -0.14081809      -0.68253588      -0.36664438       0.07632337      -0.29476412       0.27907819
S        9.31548832      23.47428786      32.17690038      -0.20585941      -0.70195414       0.08711523       0.19621394       0.33479562      -0.70179337
S        8.63972737      22.72937576      36.03177483       0.27589536      -0.21859199       0.09078822      -0.25216472       0.01641838      -0.21244695
S        8.28468572      27.04054629      40.81054386       0.31857040      -0.29656787       0.39825423       0.06874785       0.15271439      -0.06576351
S       12.88514725      27.55928991      35.95800503       0.39257171       0.02135621       0.40878940       0.08709863       0.03791745      -0.22698171
S       13.09500811      22.95345446      40.66558419      -0.43126158      -0.43781061       0.08513321       0.16166133       0.02029068       0.36884069
S       12.26188847      23.77990840      37.06682798       0.17719782      -0.25979097       0.57278583      -0.34530008       0.46652893       0.39745489
S       12.03829478      26.70815850      39.51458315      -0.40367362      -0.04291520      -0.61887009       0.05394173       0.01599978       0.22285911
S        9.25029599      26.28101198      36.97939403      -0.99363020      -0.23883454      -0.18430427      -0.10474120       0.03281968       0.02822981
S        9.45856463      23.69034689      39.79410969      -0.55161567      -1.22697607       0.22352307       0.20558935       0.23909500      -0.24540886
Sb       0.00389589      14.39761902      42.07354863      -0.97306539      -0.16772301       0.98595248       1.25294767      -0.35938504       0.24175923
Sb       3.64971113      18.22090384      31.01057508       0.19127559      -0.27988643      -0.25756276       0.34757004       0.26285247      -0.57892717
Sb       0.00594291      28.70598705      34.76184798       0.40293918       3.37905333      -0.23709207       0.21559723       0.58349748       0.24338329
Sb       3.63013796      17.89020211      38.50178172      -0.96395816       1.08619260      -0.05958884       0.33840043       0.06958617       0.24636775
Sb       1.56154573      20.70498548      27.64683769       1.34553408       1.53406241       0.38395411      -0.09169531      -0.47350473      -0.63001784
Sb       3.59107381      25.35743572      30.83825448       0.68994073       0.66103316      -0.87388953      -0.20977967      -0.19522700       0.11725669
Sb      -0.02792891      21.62235312      34.80201490      -2.28216010       0.62969102      -0.20324098      -0.58459519      -1.16175330      -0.87699469
Sb       3.54184816      24.98082775      38.54490549      -1.75420845      -1.94948750      -1.01774044       0.49298334       0.68350511      -0.53817669
Sb       6.73528287      28.56917106      26.08579764       0.10298257      -2.81320287      -0.71718790       0.13489454      -0.02626785       0.45185871
Sb      10.60376734      17.84509528      30.73114657       1.15906012      -1.95066300      -0.18386359       0.17618317       0.09601511       0.01752557
Sb       7.02300347      14.37392436      34.80779989      -0.74901782      -0.29023652      -0.91457733       0.29629812      -0.00286612      -0.72243270
Sb      10.88521980      17.91298615      38.45974529      -2.21814631      -1.38485367       1.19783689      -0.48383743      -0.13151691       0.54461530
Sb       6.76266968      21.26172596      25.75190908      -0.27949792      -0.12856936      -2.02876946       0.05404182      -0.00852343      -0.05285763
Sb      10.65598297      24.94278306      30.82551130       2.27606811      -0.11907569      -1.02563888      -0.16068298      -0.07897420       0.17548507
Sb       7.11136389      21.58577104      34.62188176      -0.10126336      -1.36189940      -1.24606661       0.51724566      -0.39518703       0.57482798
Sb      10.75197820      25.11767507      38.36725017      -1.05088457       1.24489183       1.38754359      -0.01352385      -0.48625655       0.05401652
Na      14.50988968      17.88475188      42.52695733       0.38514563       0.20531492       0.27122191      -0.28670067       0.02707370      -0.15512281
Na       3.58792855      28.91444485      48.98862647      -0.37868633      -0.14631991       0.57689081       0.16571698      -0.22739374      -0.04159582
Na       3.37456133      14.18607430      45.29512346       0.20187727      -0.22447723       0.72488192       0.15403473       0.23198289       0.03367372
Na       0.01226907      17.90946042      46.05398758       0.07645394      -0.45033272       0.45624324       0.06743138       0.10699767       0.05953140
Na      14.12305026      28.53617573      45.51628006       0.05283490      -0.53549177      -0.56434037       0.09408464       0.05741176       0.30844537
Na       3.62538608      17.78088593      42.15654737       0.22685485      -1.01677325      -0.32943889       0.06187055       0.06243546      -0.18471632
Na       0.01201562      17.89524917      49.60162294       0.89221382       0.62598308       0.56684461       0.08698494       0.18308090       0.08925230
Na       3.50595226      14.31595901      55.92945361       0.59283495       0.17768986      -0.13123430       0.26198717       0.12158524      -0.01005904
Na       3.56694025      14.37801505      52.42583981       0.90278361       0.74963107      -0.13668743       0.02255120      -0.07099421      -0.01917092
Na       0.02570898      17.94853781      53.30432229      -0.12236912      -0.42668901       0.62045802      -0.07143619      -0.03726812      -0.11891982
Na       0.02514921      14.31466590      52.89338833       0.38404296       0.26391461      -0.21409475       0.19836257       0.53393856      -0.50587296
Na       3.66585032      17.67020326      49.35416743       0.30428717      -0.71733472      -0.44574121      -0.06338310       0.19097677      -0.19593701
Na      14.50975884      25.07702183      42.43243487       0.37216691      -0.02911309       0.08020329      -0.03648472      -0.03324782       0.00992117
Na       3.56188699      21.46176454      49.12208592       0.00255837      -0.07240460       0.10761732       0.00126659       0.00142742      -0.14033430
Na       3.44957571      21.42664844      45.35871715      -0.13856590       0.18605425       0.20967868       0.05863326       0.05350496       0.05411100
Na      14.45845994      25.00751552      46.00279296       0.35839367      -0.20099768      -0.57721880      -0.20164047       0.00921358       0.02299269
Na      14.13492054      21.36153360      45.76466358      -0.43853084       0.09036628       0.22129114       0.01913664      -0.05954838      -0.26172544
Na       3.44574826      25.16373638      42.19977221       1.16901437       0.40478513       0.81466839      -0.01641498      -0.10679325      -0.04266300
Na      14.15922135      25.10722261      49.66638936      -0.15793805       0.46630436      -0.14149220       0.13882908      -0.09434316      -0.06889366
Na       3.57464524      21.62335109      56.06273945       0.26913055       0.01427073      -0.23569183      -0.09016495      -0.04007979      -0.11516083
Na       3.49183040      21.37862876      52.54507062       0.15550346      -0.43968876       0.32449282      -0.06397093       0.28062739      -0.01603786
Na      14.24679320      25.13157985      53.23865983      -0.01821826       0.31589429       0.50857318       0.18972312       0.12767523       0.03077487
Na      14.14636189      21.55150528      52.78350802       0.79181777       0.03734750       0.64088095       0.01220318       0.04432202       0.01621548
Na       3.53178762      25.09845291      49.33628021      -0.23909504      -0.17633942       0.03951266      -0.05972933       0.03489086      -0.01100768
Na       7.15406696      17.81198293      42.42740593      -0.87243825       1.29757571       0.98912509       0.06369315      -0.00252994       0.00707614
Na      10.86297447      28.73221472      48.74336623      -0.52264159       0.13967084       0.00772889      -0.09801100      -0.05014964       0.11131993
Na      10.72494965      14.42060286      45.20342726      -0.36691955      -0.23692640       0.42998776       0.00582937      -0.07293547      -0.02733927
Na       7.19430991      17.94594415      46.02034669      -0.19357278       0.89477659       0.20071075      -0.00957142      -0.11603033       0.05466756
Na       7.05021968      28.58011289      45.75456643       0.08434809       0.03144202      -0.26862876       0.07976844       0.04164713      -0.08527483
Na      10.63610353      18.16518352      56.40109172      -0.79919157      -0.21096151       0.10651539       0.03844921       0.02104780       0.04275405
Na       7.26125121      17.95150667      49.61319692       0.34858723      -0.41741963      -0.77227286      -0.02585580      -0.06674813      -0.03424265
Na      10.60995387      14.71010203      55.90724306       0.36508839       0.09045548      -0.76206370       0.14687481      -0.11605808       0.03928589
Na      10.75511926      28.79472245      52.44620233       0.20685637       0.78942872       0.50564240       0.04118479       0.20958452       0.01660754
Na       7.28738232      17.94833663      53.25636270       0.17003818       0.60467124       0.24834131      -0.17918244       0.13037102      -0.03868676
Na       7.16893516      28.64923231      52.96787325       0.25240594      -0.73606456      -0.61339709       0.05200402       0.15982129      -0.09896792
Na      10.75956286      18.12410678      49.21390507      -0.27748971       0.65129355      -0.24719180       0.01001098      -0.15414075       0.01039200
Na       7.00842149      24.91317245      42.43683289       0.41048791      -0.36370820      -0.48774588       0.02732944       0.21867217       0.00989299
Na      10.80582067      21.54721048      48.69614503      -0.28709293       0.19049392      -0.03142569      -0.13279314      -0.10633044       0.00491235
Na      10.56277684      21.51990731      45.12131409       0.49052269       0.43958980       0.46390465       0.08729939      -0.01119515       0.02767484
Na       7.24484616      24.98456031      46.02605980       0.45206961       1.37753349      -0.29855853      -0.18109098      -0.07101650       0.00901242
Na       6.92952594      21.35494391      45.63693076      -0.13630700       0.41144140      -0.84741253       0.08151730       0.06281932       0.04333604
Na      10.75166133      25.18091714      42.10376845       0.31633826       0.29947811       0.23022447      -0.03979535       0.06363083      -0.16219976
Na       6.92167708      25.24286742      49.50084230       0.41257885      -0.81495004       0.26367829       0.08227204      -0.17307912      -0.02761753
Na      10.67865283      21.63075835      55.80339280       0.40253213      -0.15235481       0.86197885       0.05435816       0.05501903       0.01881291
Na      10.59284387      21.69344141      52.13723273       1.20906406       0.21780547      -0.16031552      -0.00341315      -0.14099501       0.13688685
Na       7.23772021      25.31687129      53.02996727      -0.21939200      -0.31343347      -0.14071667      -0.02581233      -0.10243182      -0.09943638
Na       7.03952872      21.66584778      52.90192498       0.15598278       0.10269160       0.20022737       0.03572087      -0.04431219      -0.10022306
Na      10.61617261      25.24463118      49.26170096       0.53077207      -0.44950611      -0.05113579      -0.03938297       0.00021188       0.04324236
S        1.52188242      15.60870059      43.44283687       0.62031165      -0.61130527       0.71200437      -0.14491975      -0.05239225      -0.02128639
S        1.28512341      20.19061855      47.80453419       0.48666372      -0.04831291      -0.38077339       0.04776404      -0.24675431      -0.03749127
S        5.75407411      20.05601692      43.40690655       0.76619294       0.04086500      -0.37311333       0.06224179       0.32698143      -0.35587144
S        5.89052937      15.81227661      47.94921460      -0.11337105      -0.35611228      -0.31380675      -0.17382568       0.18140936      -0.15719874
S        5.10731476      16.57791228      44.35271466       0.28843913       0.00904511      -0.07763457      -0.06985739       0.01825568       0.11206396
S        4.83238063      19.32587718      47.09090560      -0.00925564       0.85096155      -0.56717593       0.08290811       0.15241378       0.01227137
S        2.20849821      19.12824815      44.25084345      -0.28310406       1.02825650      -0.04301427      -0.03485597       0.13095088       0.09835100
S        2.27376310      16.45506111      46.99158126       0.00296292       0.06521210      -0.12936858       0.21611499       0.10466294      -0.04225197
S        1.49549835      15.61160816      50.58154551       0.04452629      -0.61964535       0.17564194       0.30299681       0.28532223       0.37328532
S        1.18408957      20.01794707      55.04720362      -0.08774556       0.03371555       0.15284610       0.44876646      -0.20072064      -0.17622375
S        5.80817268      20.22636924      50.65838301       0.16640739      -0.11807636      -0.27197694      -0.21319163      -0.03486095       0.11409988
S        5.92185980      15.89467009      54.95777019      -0.13519535       0.58021509      -0.55658164       0.06745551      -0.18260250       0.27472956
S        5.18990886      16.71392705      51.52781354      -0.41955720       0.70922063      -0.12651681      -0.25411991       0.01432338       0.11761228
S        4.84271796      19.46083596      54.24252215      -0.18216937      -0.15391610       0.76590578       0.11997978       0.09947116      -0.09365310
S        2.07529081      19.18592041      51.54195196      -0.82741211       0.59606566       0.45269013       0.35053070      -0.20035271      -0.05520546
S        2.32138291      16.54842501      54.26745531       0.20492560      -1.55347827      -0.11525821       0.39786378       0.00573164      -0.38832542
S        1.59973614      22.68222473      43.47580830       0.48075313       1.07545844       0.21320055      -0.42643892      -0.01257707      -0.28038580
S        1.41072427      27.14751000      48.03511251       0.02299936       0.22657800      -0.21588166      -0.29101163       0.09956999       0.18797219
S        5.66965495      27.33556689      43.56602701      -0.38910243       0.11880390      -0.42041445       0.06208027       0.13378591      -0.17670500
S        5.85552313      22.93502948      47.87455388      -0.44977093       0.00198285      -0.23355583       0.04475430      -0.14633250       0.19531290
S        4.95329976      23.78088620      44.36043114       0.05310834      -0.08221825       0.38472741      -0.30185865       0.11222189       0.14276807
S        4.87574455      26.48510705      47.06888534       0.46340207       0.11670710       0.62488439      -0.24183770      -0.17217683      -0.02853091
S        1.96315330      26.36300503      44.47265605      -0.27330275       0.48264567       0.43919209       0.32387689      -0.14255506       0.07310337
S        2.19984076      23.54367962      47.08502732       0.72333438      -0.18744330       0.60227526       0.27044141       0.09851277       0.05284815
S        1.34594213      22.70361894      50.68222785      -0.09770036       0.65165688       0.34814745       0.15163327       0.16076950       0.05030349
S        1.26626508      27.18241206      55.19984210      -1.08737674      -0.10966474      -1.38397320       0.27371369      -0.25499148      -0.32797143
S        5.72186924      27.50919494      50.62892643      -0.00737257       0.56889811      -0.48517664       0.21176517       0.12225050      -0.00667523
S        5.88725337      23.02430311      55.13290742       0.48859589       0.75069195      -0.32341626       0.06147079      -0.13487121       0.12243587
S        4.96050710      23.80425046      51.56772322       0.14323318       0.80902300      -0.91247506       0.06974052      -0.07312365       0.07969327
S        5.03488353      26.48719271      54.34822157       0.62751004      -0.39674426      -0.94790002      -0.37065253      -0.02640747      -0.17887220
S        2.19763028      26.38292341      51.63838706       0.49286172      -0.23743756       0.86899237       0.01990137       0.17475848       0.08648857
S        2.25998000      23.75425493      54.39175374       0.18517805       0.06609977      -0.53582170      -0.07384971      -0.33900246       0.13068780
S        8.66917651      15.55410322      43.38680633       0.30417368      -0.44944850       0.16945426      -0.17797922       0.02207134       0.02280529
S        8.45254021      20.03044509      47.85737385       0.25208144       0.29245906       0.02481623      -0.19030720       0.25497047       0.29008700
S       12.78819503      20.12812802      43.41222223       0.22048028      -0.22230013       0.52377891       0.32159162       0.43374535      -0.26859090
S       13.12789736      15.79865848      47.90453117      -0.39123335       0.31038942       0.44688754      -0.28037060       0.25130315      -0.26303441
S       12.06934887      16.76705776      44.14512524      -0.34952363      -0.63128620       1.03988985       0.17712760      -0.13832633       0.25481046
S       11.97034104      19.40847225      46.99014871       0.44124976      -0.65255001      -0.27302401       0.15557969       0.06939827      -0.03405796
S        9.21779132      19.16970020      44.30100032       0.20906488      -0.14560358       0.24201817      -0.34857272       0.11639854      -0.00177389
S        9.55179708      16.40289000      47.08011573       0.16881833      -0.15373647      -0.85154944      -0.02765144       0.48270006      -0.35676679
S        8.72834580      15.64979667      50.45982058      -0.22917737      -0.23600409       0.54394793      -0.39743323      -0.41679026       0.09786935
S        8.41010524      20.04868341      55.11494403      -0.75248936      -0.03733541      -0.45521007      -0.08979082       0.25025888       0.19045548
S       12.89390415      20.20284097      50.51730133      -0.00001011       0.10515401       0.44502633      -0.32139496       0.12101777       0.38255526
S       13.04260090      15.96576685      55.03643697      -0.48226756       0.43222100       0.18859397       0.31861186      -0.42670615       0.41459535
S       12.31678462      16.78982844      51.52093033      -1.09069997      -0.14263033      -0.01235840       0.06670825      -0.11064080      -0.18970585
S       12.10038096      19.56410949      54.16619445       0.24647586      -0.41773758      -0.21830712      -0.46726363      -0.20425402      -0.19094448
S        9.28200805      19.25031861      51.45748600      -0.93966583      -0.62463274      -0.78924488       0.07977208       0.08256468       0.02725560
S        9.50750344      16.53149058      54.05072022      -0.38337715      -0.09403938       0.43889619       0.11813801       0.12555311       0.20020520
S        8.48063641      22.72699387      43.46474651       0.36247636       0.02139688      -0.55489211       0.29390757       0.05844902       0.02614589
S        8.44581509      27.25983692      47.97961533      -0.22871434      -0.55519352       0.60078250       0.20346343      -0.09122532      -0.17188494
S       12.64510573      27.46831667      43.27425490      -0.16762076      -0.26327770       0.74801232       0.29732313       0.03330524       0.00619522
S       13.07527371      22.88828906      47.90801478      -1.21701141       0.33745626       0.18040581      -0.07350068       0.54740232      -0.26353748
S       12.26285568      23.94171086      44.23607953      -0.64870010      -0.32770411      -0.67384136       0.11064805      -0.46929161      -0.06182622
S       12.00192477      26.49481952      47.03441249       0.18858747      -0.35549149       0.13224370       0.28948564       0.22583931       0.04520239
S        9.24167927      26.25886596      44.41168119       0.53707323       0.13210316      -0.76648231      -0.28963449       0.22320943      -0.29507811
S        9.57490792      23.58913138      47.14417383      -0.51094339      -1.17397403      -0.60482190       0.02938053       0.16158392      -0.47068423
S        8.54450798      22.89632656      50.51957256       0.00340773      -0.28681056      -0.03201949       0.39541707       0.33831382       0.40048646
S        8.55322587      27.41536057      55.18696222      -0.70695991      -0.43345108      -0.22012909      -0.05209785      -0.29015508      -0.29702752
S       12.81817232      27.39494057      50.62842465       0.22050367      -0.28622715      -0.46177820      -0.03827519       0.18763664      -0.05712145
S       13.04433216      23.18983643      55.09063281      -0.06649442      -0.28443277      -0.40453050      -0.01905145      -0.06711515      -0.05268315
S       12.16906227      23.93053338      51.57089857      -0.46003137      -0.02974567       0.23516382       0.42845565      -0.39412617      -0.40284049
S       11.99602867      26.84364758      54.16162199      -0.34372200      -0.21075989       0.52585779       0.13948406      -0.38570159       0.27323808
S        9.40371312      26.60527150      51.53955803      -0.46039126      -0.57136827      -0.22461523      -0.34912045      -0.42442061      -0.17188327
S        9.36563162      23.83759958      54.19941261       0.30448617      -0.60892863      -0.28033412       0.36737851       0.11136472      -0.06357293
Sb       0.02047084      14.33645471      56.35741172       7.86205536       3.71341590      -8.97601387      14.91286995       0.02195587     -13.93635605
Sb       3.63920691      17.89626635      45.65996784       1.78137427       1.62823909       0.90533660      -0.23459197      -0.48315839       0.17438747
Sb       0.08563071      28.63765603      49.33852839       0.24654904      -0.63888935       0.07047355       0.04692384       0.11970496      -0.76113819
Sb       3.66537538      17.96691890      52.85194489       1.06064912      -0.17826267      -0.94938603      -0.62018755      -0.29929919       0.09028418
Sb      -0.02032144      21.53039041      42.14372668      -0.82308031       0.04992022      -1.08343816      -0.00586796      -0.16317632      -0.00906020
Sb       3.47941883      25.03061200      45.78127036      -0.02842868       0.17845381       0.94968750       0.37321025       0.21337741      -0.29722119
Sb      -0.04991915      21.57712957      49.14784857       0.34350336       1.08330628       1.26601581      -0.07886832      -0.33259716       0.80261096
Sb       3.60266543      25.08355040      53.02859716       0.81207793      -0.21492966      -2.36391954       0.40985592       0.25072807      -0.32306711
Sb       7.13110788      28.60950972      42.17004986      -0.78015418       1.06528680      -0.35292880       0.09810701      -0.23972223      -0.04020267
Sb      10.69127401      17.94891046      45.66045101      -2.08263660       0.05183403       0.21112194       0.25257067      -0.46657284      -0.07817440
Sb       7.14872119      14.29360021      49.22427246       1.23068518      -0.34569126       0.32927604       0.24635398       0.92004061       0.47152778
Sb      10.81377354      18.06103972      52.80367451       2.15407789      -0.70715303      -0.66374281       0.15440788       0.12563331       0.21496407
Sb       7.17666943      21.40064942      42.01148621      -0.49056420      -0.45696862       1.17742217      -0.29113153      -0.19236899       0.45035189
Sb      10.76712699      25.03370095      45.66020896      -0.32228004       0.71431449      -1.69072004      -0.02815673      -0.11040149       0.59909474
Sb       7.17825832      21.51082982      49.24925624       0.51063371       1.17458314       0.00407198      -0.17514368      -0.14879973      -0.74268050
Sb      10.79170764      25.25659087      52.88798710       1.76241357       0.54548866      -0.64879092      -0.75847324       0.38100078       0.40350130
Na      14.23311079      17.88492352      56.89821775       0.09019282       0.18405453       0.57238367      -0.06751102       0.19423137       0.02290616
Na       3.75680097      28.50774853      63.04977884       0.05120551      -0.16103042      -0.48828706      -0.09145381      -0.16794662       0.00517125
Na       3.57871195      14.29391156      59.46610269      -0.03760065       0.61243329      -0.41667587       0.27423494       0.50100192      -0.12364728
Na       0.01608592      18.00776116      60.63318838       0.99715609       0.79446569      -0.35541703       0.01271524       0.39098914      -0.28780950
Na      14.31920077      28.70576884      60.11045435      -0.82062181       0.38674352      -0.31770360      -0.02001127       0.01903487      -0.02965952
Na       3.59106733      18.02375798      56.35683648       0.25796301      -0.79707345       0.07109457      -0.10035062      -0.08129979       0.23689251
Na      -0.16228345      18.19174471      64.25747579      -3.37551079       4.51629494      -0.71154274      -0.52619138       0.78543476       0.14203129
Na       7.09858668      15.78044215      65.43867652      26.06449492      21.88357873     -42.51048546      -5.38019317       4.39937364       4.22076996
Na       2.78055050      11.79680643      68.67518282       6.82937942      -4.86681384     -11.63545845      -1.18183886       6.93191290     -16.13326421
Na       0.20147923      17.33204577      68.20894886       1.56978919      -1.29423319      -1.41553610       0.53557420       0.18354847      -1.23078692
Na       0.31617832      10.89028824      67.72742162       1.31947628     -15.02025390       1.16945188      -1.17283089      -0.33927774       0.80458753
Na       3.64104357      18.00409657      63.57329345      -0.90251724       0.11453155      -0.34299323       0.19401499       0.21690901       0.13932715
Na      14.61108045      25.12537463      56.76480246       0.06081256       0.04367067      -0.34808600      -0.20282854       0.17294181       0.04333062
Na       3.33663879      21.56703736      62.94463709       0.01227941      -0.95131764      -0.20807892       0.03297635      -0.09957172      -0.05283378
Na       3.44295194      21.51569556      59.35778586      -0.24883919       0.27464732      -0.59542500       0.02336287      -0.19114042       0.13962375
Na      14.33353121      25.10331196      60.47207542      -0.07288952      -0.14258241       0.15083705      -0.03350275       0.05388428      -0.05216437
Na      14.19801854      21.56162672      60.00373331      -0.13065091      -0.30179803      -0.09791272       0.00931664      -0.04684055       0.10469995
Na       3.36743682      25.15480441      56.62755364       0.41497301      -0.70483278       0.33160187       0.11820676       0.08751090       0.07074173
Na      14.74279446      25.08168680      64.08428697       0.31443917      -0.72423397      -0.33511869      -0.18154627      -0.14597068      -0.07750884
Na       3.58162771      21.86239387      70.20578686       0.51234381      -0.28369681       0.98384208      -0.06819951      -0.18511413      -0.27368501
Na       3.18653551      21.25843073      66.45098183      -0.17051260      -0.14743876      -0.29154431       0.36283634       0.15773023       0.12603207
Na      13.75325309      26.09757002      67.25737503      -0.20636054       0.16476954      -0.72369977      -0.03436419      -0.25632039       0.23361483
Na      14.47179010      21.43034259      67.43214262      -0.17532705       0.79388958      -1.05907988      -0.15369567      -0.03257359       0.16384938
Na       3.91175687      24.97069412      64.07011790       0.38421471      -0.20646364       0.10649190       0.02476549      -0.03474394      -0.17207729
Na       7.02574075      17.94327056      56.91153527       0.08999658       0.58847624      -0.43089086       0.12028908      -0.14117551      -0.04286336
Na      10.74733244      28.91915512      63.13157966      -0.59476064       0.57036077       0.10281862      -0.16517325      -0.21646273       0.12811896
Na      10.68031854      14.31625061      59.49769840       0.04215660      -0.25063558      -0.89042020      -0.04201308       0.12413737      -0.03012597
Na       7.07075312      17.76066408      60.44991263       0.06644212       0.48931604       0.16917252       0.00776056       0.13004305      -0.14404018
Na       7.01023471      28.45932991      60.24096461      -0.66870848       0.15311544       0.48920512       0.12104142       0.03762851      -0.07047345
Na      11.56188095      18.27930312      70.93015607       1.11282992      -0.10670184       0.59657091      -0.08317741       0.05876047      -0.08090241
Na       7.21758050      18.00127578      64.39086141       0.02244697       0.74300812      -0.03719141      -0.13886178       0.73835754      -0.26763874
Na      10.66077713      14.76441816      70.23871175      -0.07695509       0.54250952      -0.60897070      -0.19320756      -0.64161221       0.09910697
Na      10.98702955      28.57184527      66.90294173      -0.11557820       0.13505882       0.27530002      -0.31095613      -0.04624018      -0.05154722
Na       7.14999417      17.83548479      67.85197884       0.34758803       0.38682842      -0.39360444      -0.17828514       0.39649594       0.48794268
Na       7.00594896      28.59686438      67.34501259       0.00615089      -1.41724729      -0.36839619       0.58227476      -0.19160995       0.47064470
Na      10.77014259      17.93218254      63.79934375      -0.41449336      -0.60982813       0.00295580       0.20673709       0.20496129      -0.13555185
Na       7.15128526      25.19697432      56.49012360      -0.54848977      -0.04129268      -0.75731126       0.01362066      -0.00299833       0.06741758
Na      10.68593813      21.53496023      63.04418731       0.16066452       0.48459939       0.21350961      -0.18936378      -0.05350828      -0.01828824
Na      10.76858117      21.58378498      59.45599328       0.09447089      -0.34798833      -0.25164910      -0.11763432       0.01223113      -0.03602708
Na       7.29266841      24.70685047      60.03092619       0.10552013      -0.74494984       0.29481318      -0.13546789       0.16969204      -0.02019700
Na       6.94696139      21.26096228      60.15249850      -0.28998973      -0.13773671      -0.20394856       0.02538263      -0.00907467      -0.06369611
Na      10.75341486      25.25661226      56.52431524       0.69623595      -0.03347621      -0.23790541       0.08981639       0.04970552      -0.04568723
Na       7.35027590      25.05801899      63.69532328      -0.41114113      -0.39133565       0.77977566       0.11007934       0.01630318      -0.12028158
Na      10.78556375      21.91504345      70.34592730      -0.09198742       0.06834243      -0.48907022      -0.18199628       0.26784269       0.06331398
Na      10.59056206      21.49829521      66.54123924      -0.11626980       0.27051977      -0.38512605       0.11840486       0.18024763      -0.00556322
Na       6.98370466      25.11922707      67.07067741      -0.15648474      -0.80928392       0.18185110      -0.14160407      -0.04170325       0.16333616
Na       6.86519443      21.35235715      67.23023469       0.24612290       0.00454486      -0.81707668       0.09771198       0.12065366       0.18589600
Na      10.98962046      25.26082236      63.65390144      -0.39584027       0.27736382      -0.00779508      -0.10059371       0.00123304       0.09595078
S        1.48261302      15.52939581      57.73016495       0.64501903       0.03824151       1.18425280       1.92804077       0.85579453       0.42869575
S        0.96544163      20.00556778      62.41936866       0.08716997      -0.48849459      -0.39238668       0.46407684       0.15400030      -0.06888469
S        5.66055241      20.20292548      57.76892447       0.36301480      -0.30187955       0.48705531      -0.14350108       0.20221999       0.10894935
S        5.91161580      15.86257017      62.71016897       0.53327794       1.30492190      -0.17399681      -0.13445525       1.06993728      -0.25134372
S        4.86385844      16.65539115      58.75450051       0.13851754       1.97322842      -0.48759636       0.44682305       0.22986672      -0.12174914
S        4.80242841      19.49532327      61.39085356      -0.18601251       0.26155498      -0.23934198      -0.18770856      -0.04225578      -0.32447464
S        1.87053029      19.17752467      58.70844321       0.13817149       0.13817864      -0.06885733       0.42008414      -0.12015137       0.26869934
S        2.33203345      16.61894482      61.47328411       0.14524255       0.28447456      -1.71642751      -1.45750963       0.78875441      -0.17093895
S        1.67353546      16.74006411      64.73712138       1.47274705       2.88618584      -1.09259389       0.54417563      -1.69513251       0.92777775
S       -0.02628044      21.66829655      70.49646555       0.59635027       1.72441191      -1.12314931       0.27284740      -0.04597055      -0.69246568
S        5.50502771      20.19998330      65.18647904       0.63407847      -0.18318015      -0.01785893      -0.02105375      -0.36877717      -0.24702225
S        6.36928479      14.46173406      71.99217420      -0.04895846      -1.34040395       3.46815263       0.99392856      -0.50162510      -1.07325171
S        5.09208112      16.80574924      66.49629473       0.05200210       1.25691551      -0.82982796       1.26183099      -0.65151606      -1.07743617
S        4.83004951      19.36566715      69.37896352       0.88643185      -0.34560383      -0.12646290       0.46366093       0.35868621      -0.01729305
S        2.05143202      18.92876379      66.58545206      -1.68561388       0.91979527      -0.26641049      -0.39696382       0.18667430       0.08046858
S        2.59943648      16.29320343      69.39879788       0.50351375      -0.30513455       2.77589682      -0.11981358       0.07520537      -0.41151324
S        1.37986446      22.71667038      57.85530183       0.27340481       0.41041266      -0.06959397      -0.22643991      -0.12709303      -0.23902621
S        1.27596011      27.23928321      62.68896146      -0.18346811      -0.12673395       0.39495218       0.52389128       0.01300013      -0.43368470
S        5.72880249      27.37445887      57.79225391       0.40797250      -0.30971754      -0.42147259      -0.02816722       0.03463264       0.05202482
S        5.75618457      23.02856293      62.48583858      -0.54277489      -0.59355195      -1.15165220       0.29635171      -0.35029706       0.32978551
S        4.90133668      23.83788363      58.75044190      -0.62489812       0.35197233       0.00943671       0.00345815      -0.26529645      -0.08892657
S        5.11349065      26.41697455      61.47560528       0.52070311      -0.01812463       0.53630450      -0.05040747       0.08137903       0.11895852
S        2.06131912      26.37731296      59.07478046       0.93461493       1.25921158      -0.87368310      -0.03149222       0.10737296      -0.33503089
S        2.21657976      23.82347185      61.75475220      -0.25064582       0.10619765      -0.27659715       0.16086391      -0.15744480      -0.15005924
S        1.34059122      22.71302983      65.16650208       0.04390314      -0.65742769      -0.43766873      -0.13241079      -0.04494179      -0.02592438
S        1.40738133      27.24898356      70.22508073      -0.90052563       0.22193302       0.22345525      -0.61081478      -0.03548267       0.01559454
S        5.81067318      27.26313328      65.31722270      -1.48858330       0.23405080       0.43349395      -0.08540310      -0.29425938      -0.40745522
S        5.13414473      22.41738444      72.34641946       1.87261029       0.88670777      -0.90591846      -0.45478268       0.60849724       0.03077188
S        4.85154248      23.52231569      66.71150550       1.13165830      -0.26313952       0.97876664      -0.20443655      -0.08151425       0.06354929
S        4.92279921      26.26866321      69.20486315      -0.86491863       0.27941756      -0.46615291      -0.19304957       0.45314485      -0.15906146
S        2.30986188      26.32113856      66.11653211      -1.20880957       0.47662393       0.47352980      -0.00696615      -0.06934601       0.37777696
S        1.83468661      23.76409542      69.12679719       0.17377877       1.37967443       1.09451387       0.00333630      -0.02958577       0.07843338
S        8.50846832      15.58563213      57.83087019       0.93860090      -0.70778942      -0.24488734       0.11412406       0.20821907       0.08548255
S        8.26239511      19.99739708      62.42051490      -0.60940428      -0.06450807      -0.32529272       0.00402502      -0.14704777       0.27457807
S       12.75123234      20.37993085      57.71249919      -0.25725272       0.01502303       0.41980183       0.19183267       0.07039811      -0.23844234
S       13.06408192      15.73846667      62.56001244      -0.11776195       0.74705600       1.43491333      -0.05052411       0.22400518      -0.09055523
S       12.17840164      16.68956675      58.79387009       0.78580355       0.73820177      -0.28061868       0.01985821       0.02510577       0.05748720
S       11.94669250      19.47956674      61.41210790      -0.46028260       0.06531520       0.35420953      -0.02972992       0.09322529       0.19135953
S        9.26457052      19.24054842      58.77180353       0.26764156       0.06944134       0.37829734      -0.22110310      -0.03861986      -0.02215008
S        9.41464591      16.51667771      61.44672505      -1.28869164       0.02481460       0.94314680      -0.16356171      -0.34097703       0.46375628
S        8.84691160      15.69999450      65.30788222       2.99120652       2.34229324       0.85048514       6.23989994       1.02166324       0.00277250
S        9.58057173      19.19900570      72.74421556       0.85059743      -1.16325602       1.19485742       0.52446662      -0.49401353      -0.09476993
S       12.64412717      20.23682612      65.06597329      -0.67017589      -0.07594608       0.17835302       0.27230041      -0.10662283       0.13977212
S       12.88679696      15.78640694      71.24596678      -0.02844449      -0.24532019       1.05062282       0.07785281       0.48632314      -0.04927904
S       12.32945594      16.82898909      66.43542586       0.15698006       0.33616500       0.76866636      -0.01802086       0.01346584       0.11238811
S       11.91998368      19.97897230      68.69882660      -0.01188633       0.61700457       1.26946922       0.09418915      -0.17145917       0.43468019
S        9.13615850      19.26690037      66.30108454       0.04754568      -0.40748524      -0.54479631      -0.54333745      -0.06696259      -0.24547035
S        9.32877536      16.53500141      68.89620362       0.33138892       0.29476399       0.27638353      -0.07199734       0.20362480       0.00968850
S        8.59171933      22.86586097      57.85108646       0.48709972      -0.02247523       0.39043785      -0.28606200      -0.22164511      -0.15764233
S        8.49793460      27.34677359      62.56506836      -0.01684260      -0.68023156       0.16634910      -0.00488736      -0.01992412       0.05490222
S       12.85738983      27.52473825      57.88116479      -0.12644598       0.00821464       0.47891571       0.01272843      -0.19865541      -0.06926686
S       12.95724468      23.04769636      62.67997635      -0.14545864       0.33985723       0.53662975       0.26104493       0.29562779      -0.25085805
S       12.30272491      23.94412121      58.78833152      -0.12814437       0.47749147      -0.14004412       0.02389167      -0.26028105      -0.06189843
S       12.08211612      26.59471809      61.39686269      -0.50376732       0.56057118       0.05631224       0.36706666       0.69194823       0.55030517
S        9.28441977      26.40252431      58.75513760       0.01647198      -0.09143501       0.14048502       0.16632452      -0.08113486       0.17410204
S        9.47624236      23.77408060      61.48074052       0.92241363       0.76591660       0.29009525       0.19063212      -0.14637433       0.12793450
S        8.49853867      22.76013953      65.06567612      -0.50110632      -0.21777511      -0.68868094      -0.25772726      -0.05393759       0.06252165
S        8.20350502      28.14997943      70.00713644       2.46782575      -5.41070461      -2.25462064       0.37696865      -1.49960857       0.32323508
S       12.81940337      27.28545717      65.00279439      -0.42147647      -0.25461943      -0.24503572      -0.31264643      -0.30001286       0.30454930
S       12.62871596      23.18129317      72.56427564       0.71377433      -0.45992531      -0.98219619      -0.42196209      -0.18967332      -0.28170349
S       12.15860091      23.58513905      67.26724224       0.57278746      -0.29742802       0.08662090       0.42647679      -0.20896274      -0.18405734
S       11.72276737      26.58888245      69.18793147      -0.28975011      -0.24019851       0.70778646      -0.12432939      -0.01994421      -0.15128883
S        9.23741867      26.12596008      66.25312795      -0.07971703      -0.66795090       0.09625751       0.59606494       0.17395117      -0.06751710
S        8.75772276      23.64913596      69.24006184      -0.84653875       0.01438252       1.16862461       0.24460591      -0.06628625      -0.21165809
Sb      -0.09298054      13.60968589      71.44535620       0.69051709      -6.13453299     -21.46530322      -0.12077631       1.04007140      -0.46921856
Sb       3.43582007      17.99431681      60.08700664      -0.23240345       0.45674695      -1.53331087       0.77405273       1.18848588      -1.17389923
Sb       0.05542648      28.61202396      64.10073806       1.91367198       0.43919774      -1.56115638      -0.97859711      -0.84692070      -0.98282449
Sb       3.67080122      17.81579584      67.96620370      -0.56716627      -1.12392787      -0.28596768      -1.19743677       0.25356886       1.39067399
Sb      -0.05854894      21.41629804      56.40410051       0.07698844      -1.08459549      -0.53453469      -0.86772653       0.60572029       0.53311717
Sb       3.59297327      25.06179918      60.27318685       0.54194211       0.39989506       1.13009920      -0.10550237       0.27291680       0.19143718
Sb      -0.19450676      21.45357354      63.84386532      -0.91966533      -0.55674289      -1.52169791       0.34227394       0.69173044      -0.32816108
Sb       3.36380461      25.04513211      67.79341631       0.71925010      -1.58499023      -2.17394513       0.23194117      -0.23085006      -0.02360560
Sb       7.18179438      28.77003717      56.52614954      -1.29015433      -0.74791585      -0.70245192      -0.75766413      -0.32867841      -0.09344072
Sb      10.70319023      17.95387633      60.12521013       0.73075863      -0.27925346       0.30297127      -0.03166449       0.22076573      -0.48992547
Sb       7.11570630      14.36051146      64.16070927      -1.12458918      -3.52883080       3.24651428      -0.49009213      -7.19748088      -4.49278999
Sb      10.71594428      18.11862953      67.64431023       0.35642338       1.85597059       1.04373800       0.16249980      -0.13261015      -0.08382040
Sb       7.13783518      21.54078894      56.48587546      -1.50148305       0.46438125      -1.72072280       0.31298295      -0.02027183      -0.04831492
Sb      10.81036144      25.17911478      60.10989389      -0.20738359       1.40454244      -1.51359479      -0.79349732      -0.35289845      -0.55823486
Sb       6.97796984      21.42351196      63.79109741      -0.90064343       0.11005549      -0.57178274       0.12168378       0.76644998      -0.34185523
Sb      10.38798705      24.94285010      67.94121090      -2.83452010      -1.73827524      -0.79229834      -0.34287037       0.59852695       0.72279264
Na      28.54898816       3.65180084      27.74258107      -0.46352603      -0.47604016       0.25382928       0.03352127      -0.32226110       0.19100966
Na      17.83617137      14.87035906      33.75142410       0.61825182       0.43362217       0.22056789       0.01581437      -0.05151573      -0.02988500
Na      17.72030347       0.15370492      28.30971944       0.24548331       0.14952505      -0.02088842       0.32535327      -0.00791861      -0.07149941
Na      14.46034201       3.32931229      31.56183031       0.23314850       0.63251467       0.46424887      -0.37058065       0.13013844       0.03904230
Na      28.75332703      14.17097261      28.47028599      -0.84415987      -0.36794993      -0.62397597      -0.11558945      -0.13249963      -0.01322785
Na      17.72923600       3.51472677      27.51454762      -0.42971258       0.45250057      -0.50639085       0.19663353       0.18179352       0.01112942
Na      14.34054326       3.73678859      35.27875448      -0.63771569      -0.06544696       0.01813489       0.14826443       0.00016253      -0.06595056
Na      17.82939748       0.05532394      41.62765788      -0.94068491       0.36110693      -0.42426739       0.25876846       0.00870369       0.03132701
Na      17.96725042       0.32037081      37.70801376      -0.37971246      -0.42343811       0.21106098      -0.19696351      -0.42150371      -0.03507767
Na      14.33351838       3.59731253      38.92598718      -0.74854454      -0.37318835      -0.22024551       0.16589162      -0.16078587       0.03829393
Na      14.32931939       0.05588267      38.39391608      -0.59859600       0.09791631      -0.01391727      -0.03348608      -0.08835200      -0.05607947
Na      18.07308640       3.51720569      35.05185056      -0.02651890       0.71060586       0.06049079      -0.07035176       0.10597820      -0.18622335
Na      28.35148952      10.69257058      27.93817597      -0.90381544       0.18776543       0.16264417       0.00917118       0.02555401       0.17016906
Na      17.82889599       7.29117264      34.09933764       0.29910143      -0.64863031      -0.27415458       0.33072580       0.16570297      -0.01927960
Na      17.70410102       7.66665040      30.36940506       0.05393435       1.12729959       0.11355811       0.12311426      -0.00465472       0.08617041
Na      28.95208545      11.10148604      31.71826066       0.82425560       0.34646781       0.33533976      -0.12197610      -0.04152928      -0.04767793
Na      27.92858730       7.11644378      31.00538084      -0.71195862      -1.12494271       0.07941401       0.00356342      -0.07828357      -0.09158877
Na      17.56936399      10.74784800      27.76080167       0.27056325       0.04454187      -0.03168489       0.25790246      -0.00669464      -0.02592082
Na      28.54588001      10.69546019      35.32066760       0.62772264       0.03224987      -0.05050054       0.08033052       0.22063584       0.06800540
Na      18.05633199       7.30093188      41.63705598       0.35259284       0.61066661       1.01097333      -0.17556910      -0.03349303      -0.02917039
Na      17.82279922       7.16169412      37.78009056      -0.44978387      -0.12441208       0.38901776       0.05595828       0.07205220       0.14414734
Na      28.66074986      10.71961934      39.02812474      -0.78369016      -0.11070904      -0.04540720       0.08472365       0.04367168      -0.14826605
Na      28.73693303       6.98053956      38.49596379       0.24372223       0.04733851      -0.08759722       0.01933633       0.12377854      -0.06263618
Na      18.12696066      11.37521776      34.81224266      -0.58349414       0.25136302       0.47322465      -0.11550733      -0.08184008      -0.13188965
Na      21.53165952       3.44665761      28.13894379      -0.10320530       0.38250817      -0.52333410       0.07287260       0.10581514      -0.14814268
Na      25.24484148      14.46710806      33.23378318      -0.06987273      -0.53391833       0.04803195       0.03793680      -0.11342186       0.01098298
Na      25.01251998       0.02162457      28.29265254      -0.26959506      -0.52300369      -0.23748527      -0.02386864      -0.12278073       0.13593628
Na      21.55093101       3.78865804      31.71325886      -0.23743680      -0.04148645      -0.61172761      -0.01570580       0.15122871       0.05697978
Na      21.87168227      14.68816094      31.13596360      -0.66273751       0.07160177      -0.00397002      -0.11594559      -0.04365831      -0.00625686
Na      25.02879247       3.79289017      42.02443144       0.13543722      -0.06428634      -0.23998213       0.06769827       0.02445702       0.20627193
Na      21.76111430       3.67589277      35.48928292      -0.10480913      -0.35236766      -0.09792139      -0.22137641       0.15843521      -0.16460987
Na      25.11669088       0.28755845      41.60699667       0.00468944      -0.30456430      -0.72065509      -0.12960219      -0.12349597      -0.10687004
Na      25.11635046      14.47128552      37.84913676       0.22974397      -0.01777376      -0.10515734      -0.03272413      -0.09681978      -0.11171195
Na      21.48380700       3.66432595      39.01215292      -0.42127073       0.33070731       0.50963153       0.09949095       0.04485771       0.06695644
Na      21.46528075      14.09290866      38.61951674      -0.30199951      -0.20608576       0.60449205      -0.04049038       0.10655898      -0.47452225
Na      25.20169702       3.38783308      34.85376061      -0.66895196       0.53038612       0.54283911       0.05488449       0.01624841      -0.09824054
Na      21.40138133      11.02445767      28.24277622      -0.17868508       0.08065019       0.21167475      -0.14139780       0.04971179      -0.07163874
Na      25.19993490       7.26089335      33.83676838      -0.80729685       0.09466864       0.08531679      -0.24180497      -0.11610680       0.01524999
Na      24.93022206       6.96815390      28.30305673      -0.00390323      -0.75605346      -0.66003035       0.01032665       0.03374251       0.16553933
Na      21.51560017      11.07990657      31.84606459       0.31320700      -0.30349998       0.48817199      -0.05139248      -0.11921430       0.07789479
Na      21.89581746       7.32869693      30.95773507       0.01323297       0.82979469       0.01030216      -0.01371985      -0.02915898      -0.01995603
Na      25.09719534      10.93847865      27.65512838      -0.27289173       0.15514900      -0.39017781      -0.07490840       0.00316603      -0.03417622
Na      21.41417515      10.68597047      35.70973602      -0.12656214       0.74798311       0.09180419       0.13254599       0.02596702      -0.29824741
Na      25.06721801       7.30764891      41.71279075      -0.10777046      -0.49827557       0.06700494       0.03564092       0.05669218       0.02020092
Na      25.21004270       7.29612377      37.89046648      -0.59325601      -0.12868636      -0.34405672      -0.12070171      -0.17920762       0.00352064
Na      21.51896420      10.59097540      39.03147299      -0.08673836       0.30712495       0.27085802       0.08106667       0.17955713       0.01874641
Na      21.51878133       7.13732831      38.31101805      -0.37226868      -0.43750809       0.38775278       0.02129640      -0.02082410       0.12380335
Na      24.80751984      10.88455645      34.61707828      -0.44647813      -0.12518216       0.01759918       0.06917631       0.09195017       0.10268472
S       15.91672129       1.70658513      27.03716857       0.92822922       0.16677797      -1.36741287      -0.21372612       0.24362842      -0.12104087
S       15.51819220       5.97168401      33.47907434      -0.43278927      -0.43801436      -0.17823828      -0.30739269       0.04991844       0.07667598
S       19.87768052       5.42644643      26.98427625       0.06644273      -1.04350970      -1.38851281      -0.18632732      -0.29820539       0.11329402
S       20.33908539       1.79461371      33.43350327       0.10905206      -0.55178200      -0.24043330       0.40073042      -0.40330572       0.54856711
S       19.51683498       2.45645075      29.66303247       0.69315534      -0.28892545      -0.21260944      -0.40340215       0.14459997       0.08514602
S       19.37014775       5.75054226      31.83274070      -0.14874936       0.54783042       0.08361270      -0.14499900      -0.08785599      -0.20669565
S       16.14987373       5.05719767      29.63560203       0.03670288       0.34020099      -0.34593789       0.16497171      -0.05582142      -0.02421375
S       16.87946391       2.84266129      32.56134290       0.81323188      -0.96055069       0.18815960       0.28673290       0.14047297      -0.25347720
S       15.81292303       1.42598344      35.78272178       0.48252104      -0.69656460       0.25397324       0.34978052       0.09993517       0.30297215
S       15.56594838       5.83164878      40.78520358      -0.43134719      -0.15893745      -0.14135069       0.21596003      -0.32617209      -0.03907723
S       20.00326574       5.98372812      35.98132888      -0.47698541       0.71194148      -0.64301699      -0.10020755      -0.13884705       0.21055592
S       20.33957473       1.59142341      40.83666000       0.41000202      -1.43425942       0.06945966      -0.18265376       0.15102776      -0.28951338
S       19.48696855       2.50651320      37.20721444       0.48508767       0.62933134       0.68117662       0.53839918      -0.23719594      -0.34528519
S       19.17696529       5.21354284      39.78517767      -0.19806943       0.13560321       0.65204288      -0.13431318      -0.10587439      -0.04205996
S       16.34292440       4.80405530      37.21345126      -0.60176439      -0.56597941       0.98885505       0.24795104      -0.10360879       0.05013954
S       16.79140969       2.00060656      39.82955981       0.13549733       0.06282081      -0.18756212      -0.08708857       0.46112529      -0.23048641
S       16.01073762       8.67865617      28.34681255      -0.38765673      -0.41576882       0.22084797      -0.21283206      -0.30300779      -0.05425770
S       15.81140754      12.88008876      33.52247305      -0.09366035       0.87344768      -0.43373697      -0.23666780       0.11165979       0.13045547
S       19.35560828      12.70270550      27.11496623      -0.11137197       0.23931881       0.11378429       0.22760180       0.14362544      -0.05069066
S       20.31966333       8.79984092      33.46341148       0.41773708       0.77227752      -0.49728671       0.03725348      -0.15734491       0.05096982
S       19.49544725       9.84638341      29.72079724       0.20993327      -0.67524106      -0.05034113      -0.10774063      -0.20742872       0.01580512
S       19.24035866      12.67004220      32.15408750       0.44712298       0.22600376      -0.87546349       0.46122616       0.75166443       0.35634844
S       16.23637088      12.23009293      29.74286274      -0.11380988       0.11300977       0.33826819       0.05706466      -0.35544914       0.03558757
S       16.79532692       9.56671085      32.48887088       0.36287774       0.94926698       0.03224066       0.35558120       0.47951995      -0.62987556
S       15.69994139       8.49438856      36.38754837       0.20697913       0.35781088      -0.30372201       0.00728059      -0.07397439       0.02423403
S       15.62016683      12.79598580      40.80280935      -0.67342590      -0.38753329      -0.20585383      -0.04983796       0.00914385       0.00410656
S       20.13447309      13.14314232      35.98849795      -1.08081346       0.73952519      -0.07158606      -0.21487133       0.10246259       0.21662603
S       20.36309975       8.78782083      40.80261434       0.22485742       0.35889905       0.87436945      -0.02825284      -0.50837138       0.27899762
S       19.35686428       9.54371352      37.11414723       0.15894552      -0.30543264      -0.14537903      -0.01544541      -0.12568119      -0.19069729
S       19.27814533      12.31608976      39.70750347       0.47575290       0.14276252       0.32275328      -0.27511085      -0.16326874      -0.24263023
S       16.41656488      12.13400506      37.13226267      -0.13909399      -0.52278768       0.00660506      -0.05648013       0.03763742      -0.08403143
S       16.82298002       9.33114687      39.89354266      -0.55133003       0.39980560       0.21269330      -0.15932294       0.21961168      -0.32590303
S       22.14362441       0.69091229      28.08757257       0.37059288       0.01828081      -0.40715168      -0.11872577      -0.13265820      -0.46867578
S       22.79124735       5.70695900      33.44173110      -0.69251265       0.98642889       0.03373360       0.27727487      -0.24732512      -0.16296136
S       27.73560639       6.25515418      27.87446017      -0.09470713      -0.02767181      -0.96894347      -0.23704630      -0.04161348       0.00323851
S       27.39445042       1.60368784      33.56725170      -0.35566076       0.70090793       0.29752206      -0.26818981       0.27529466      -0.12340185
S       26.40736662       2.30727805      29.23450501      -0.38912015      -0.23848956      -1.83520141       0.16316056       0.21828365       0.08622817
S       26.22321040       4.95280105      32.08873712      -0.18647993      -0.56354620      -0.63024634       0.43720747       0.16832234       0.22769390
S       23.41677314       4.92588113      29.52387485       0.08017590      -1.11308222       0.04493910      -0.04600879       0.13825022      -0.05588744
S       23.72973140       2.06252579      32.00296926       0.25173767       0.25195015      -0.85356443      -0.00677061       0.11647903      -0.02808046
S       23.12269364       1.36121797      36.03865452      -0.22397192       0.45561541      -0.53910910       0.19633604      -0.05494642       0.11882381
S       22.79437080       5.72005573      40.80690361      -0.34323690      -0.67102886       0.37553047      -0.04555743       0.13783622      -0.08390339
S       27.15432873       5.93236910      36.05984063      -0.35409204      -0.97786094       0.83322097      -0.13679663       0.06117182      -0.07602733
S       27.40450769       1.61106091      40.64829862      -0.27301597      -0.04664464       0.03181977       0.28151914      -0.53781568       0.54659926
S       26.63549619       2.36228800      37.23361643       0.77026705       0.24902227       0.11450667       0.04461755      -0.09157362      -0.06207944
S       26.28407651       5.15474853      39.85124807       0.11325033       0.63284377       0.20264485       0.29003079       0.09725075      -0.02169514
S       23.71040054       4.82708820      37.17835493       0.56598925       0.08994297       0.32544625      -0.30436478       0.27789506      -0.25906046
S       23.73645601       2.21947470      39.95099064      -0.28241660      -1.25082107       0.67396027       0.24991600       0.11243982      -0.30350703
S       22.34152675       8.18523002      27.87123911      -0.55969334       0.15872445      -0.57000823       0.14716419       0.26906290       0.31838503
S       22.89230088      13.05041572      33.43738149      -0.18081379       0.43443650      -0.07084970       0.01623095      -0.13363494      -0.14069457
S       26.85792613      12.80892192      27.11297846      -0.84223057       0.83653605      -0.99523482       0.12673267      -0.15497669      -0.04143324
S       27.50952532       8.75862592      33.33555264      -0.33188744      -0.16828527      -0.25311292      -0.15552479       0.06048556       0.12311883
S       26.25933117       9.19350370      29.51042495      -0.04160674      -1.27904072      -0.41117447       0.03133496       0.19557072      -0.12185786
S       26.37160498      12.08125131      32.18608230      -0.07188418       0.57213615      -0.45835482      -0.06473973      -0.35194515      -0.11810420
S       23.50593534      12.07965877      29.71753410       0.09204927      -0.10256246       0.18280637      -0.16412283       0.08824236      -0.30267833
S       23.64481349       9.31456234      32.26158162      -1.47574889       0.32023838       0.86896635      -0.25869507      -0.28202121       0.44034428
S       23.09637201       8.43459113      36.02357872       0.59088328      -0.33780069      -0.42309805       0.06743500      -0.00984223       0.24261651
S       22.80177036      12.97423150      40.71681068       0.14233399       0.90283174      -0.71339716       0.02357083      -0.22295136       0.20960994
S       27.21806866      13.16176915      36.01755267       0.86067650      -0.28843886       0.69911434      -0.24798339      -0.37620527       0.16279616
S       27.49104301       8.65164037      40.76402400      -0.95798224       0.17883362       0.78257744      -0.50002414       0.35264337      -0.51942721
S       26.54503956       9.62642168      37.14104124      -0.50374371      -0.10567990      -0.46572048       0.27206564      -0.13390123      -0.19817512
S       26.33237941      12.37510246      39.77038537      -0.39453971       0.13210110      -0.27078418       0.16322349       0.08537691       0.06577338
S       23.46980709      11.97562951      37.19315358      -0.01329371      -0.23785501      -1.06548869       0.13914248       0.12529643       0.08669744
S       23.94841147       9.31127955      39.88666106      -0.24662255      -0.73731968       0.45778823      -0.11137045       0.02138187       0.02169143
Sb      14.30320195       0.05882666      42.10743391      -1.74583441       1.03672018       0.36084836       0.08824946       0.11116971       0.00358310
Sb      18.08208885       4.01080957      30.87113792       0.93530498      -2.62086869      -0.65937785      -0.01208109      -0.23236841       0.33845286
Sb      14.42386317      14.38800577      34.70632789       1.23213194       1.46962063      -0.10631453       0.22641474      -0.31207527       0.17059602
Sb      17.94229581       3.62376692      38.52426240       0.61820609       1.52002038      -1.01576878      -0.52484322       0.44053599       0.55522522
Sb      15.60642119       6.48994265      27.45659690       1.57152935       0.52716661       0.20996270      -0.13084774       0.26910718       0.18299987
Sb      17.99056745      11.12770680      31.03949294       0.72147136      -0.96782751      -0.06571346      -1.20053962      -0.94681659       0.11775115
Sb      14.26097073       7.40038501      34.90626816      -0.34314605       0.31934131       0.82135169      -0.21588570      -0.34048306      -0.68506836
Sb      17.90211239      10.85469053      38.39930871      -0.64074894       2.57829492      -1.29374411       0.31797223      -0.13014004       0.99995754
Sb      20.78114579      14.41083507      26.23818040      -0.99233934       0.10985862      -3.01652449      -0.08554335      -0.01639810       0.21220004
Sb      24.98333639       3.57238705      30.68173349      -0.93321788      -2.64392803       1.71501208       0.02860095      -0.57991353      -0.34492422
Sb      21.58836819       0.14564654      34.75917604      -1.00490068       1.00151305      -0.30828259      -0.59748484       0.33218583      -0.47821285
Sb      25.12097222       3.57676613      38.55365334      -1.71320435      -0.54406769      -0.02622062      -0.25636612      -0.16272618       0.29074069
Sb      21.42182454       6.94522975      26.09659289      -1.31691882       1.41559053      -2.14369167      -0.14859723       0.07905015      -0.44023460
Sb      24.97652740      10.64158378      30.92757424      -0.34296933      -0.26083029      -2.73939206       0.76184232       0.31587830      -0.04767250
Sb      21.56172977       7.21966192      34.71751874       0.94902539       0.70822589      -1.85332960      -0.36655560       0.41861496      -0.27124727
Sb      25.08778706      10.83996961      38.49552046       0.41877492      -1.56896250      -1.15131098      -0.36886027       0.01062202      -0.08003768
Na      28.60736163       3.51891854      42.62861721       0.14514515      -0.00491080       0.22780227      -0.02125497       0.24419301      -0.10107906
Na      17.98197421      14.11558893      48.82502188       0.14443004      -0.43200972      -0.46334072      -0.02359076       0.04494395      -0.02653347
Na      17.90080679       0.02532332      45.21937284       0.06998397      -0.24241405      -0.29110433       0.07112498      -0.07242562       0.00090575
Na      14.37230324       3.44527716      46.13207327       0.30120115       0.36547200      -0.03427126      -0.05214303       0.03424031       0.00366493
Na      28.63942297      14.34521034      45.68242853       0.10833150      -0.26553669       0.53036066      -0.08427529       0.11073799      -0.01202316
Na      17.89844044       3.84209794      42.09728561      -0.19231990      -0.21390078      -0.06204559       0.10037297      -0.08214204       0.08451453
Na      14.14876893       3.64345969      49.79306176       0.02220847       0.70530375       0.12172220       0.21011743      -0.03972035       0.02965118
Na      17.97573700      -0.11838510      55.97331602      -0.11078840       0.35110846      -0.11020599      -0.09271144       0.12921312       0.04241671
Na      17.89351093      -0.12872719      52.49110819      -0.60460894       0.08749696       0.14926695      -0.08773341       0.10264075      -0.12827233
Na      14.49974564       3.70796630      53.35120300       0.36879094       0.03303506       0.44282337      -0.29751359       0.03870985       0.01468820
Na      14.16323247       0.07096012      52.91491349      -0.48908903       0.16656162      -0.38852869       0.04034020       0.05682826      -0.01675424
Na      17.66493095       3.27493773      49.31945952      -1.11320772       0.27533848      -0.31254790       0.08691671       0.09311162       0.00087090
Na      28.69502017      10.89274924      42.41215220      -0.12034684      -0.01051062      -0.18180625      -0.00374383      -0.32764753       0.18816245
Na      17.75538903       7.07483193      48.84304572       0.44976559       0.47354099      -0.90150933       0.18265090      -0.08511407       0.07135915
Na      17.70972063       7.21178513      45.30505435      -0.13418721       0.93256431      -0.35477169       0.17398024      -0.04564859       0.08795865
Na      28.66607343      10.81539298      46.22223425       0.28137417       0.12073379      -0.03616344      -0.05417744      -0.02397805      -0.18223157
Na      28.64910278       7.22616926      45.56051382      -0.93869911      -0.00734712      -0.64345450       0.05569509      -0.04289173       0.16467156
Na      18.11266835      10.77886546      41.96528832       0.31336812       0.08720503       0.18247752       0.01851142       0.10631643       0.14587507
Na      28.76291223      10.74217030      49.59415377      -0.12388771      -0.39077350       0.34777522      -0.00097110       0.11336363       0.13348514
Na      17.95620270       7.12368001      56.01680320      -0.26971221      -0.27906322       0.47980076      -0.05805445       0.03639725      -0.11148669
Na      17.93664565       7.02774087      52.45622553       0.56017500       0.35781244      -0.25533454      -0.15385544       0.16691089       0.01166650
Na      28.56076826      10.64669003      53.38786499       1.93874067      -1.98069358      -0.61739823       4.42251001      -6.12635096      -2.38626639
Na      28.74725892       7.25378423      52.74116505       0.02824937       0.01128376       0.75054233       0.03788775      -0.17809568      -0.12264396
Na      17.93325929      10.53122080      49.36910241      -0.00096814      -0.51649628       0.90228758       0.16162573       0.07741767      -0.04618513
Na      21.70835023       3.62750972      42.53485163       0.44307355       0.22310767       0.39192223      -0.13130168      -0.07608028       0.12460411
Na      25.05304943      14.24997881      48.84317489       0.70185364       0.04793522      -0.27097426       0.11057116       0.10722739      -0.05625739
Na      25.02021292       0.11070933      45.06014765       0.23791243      -0.12297774       0.44115616       0.10242916      -0.31839196       0.22648777
Na      21.56546901       3.45252598      46.27986032      -0.09684822       0.24118654       0.44997106      -0.09954733       0.07213309      -0.16965009
Na      21.33450957      14.16392158      45.51310896       0.87420009       0.36788840       0.17474073       0.08158970       0.15887074       0.22399696
Na      25.11215850       3.54810981      56.52335907       0.41156339      -0.38065726       0.00999509       0.18716946      -0.40334432      -0.52637244
Na      21.29579356       3.51713306      49.64695241       0.16236733      -0.31956801      -0.32278663      -0.02406855      -0.13115764      -0.01465931
Na      25.16853181       0.01806514      55.75388753       0.28923752       1.11507594      -0.45256356      -0.10610553      -0.04117993      -0.00471421
Na      25.09106860      14.20670154      52.40270988       0.18308264       0.86374334      -0.83831231      -0.07357753       0.39378284      -0.34433738
Na      21.52658990       3.44838486      53.12928657       0.11639375      -0.04345549      -0.55324470      -0.12999698       0.05506231       0.07276295
Na      21.47860539      14.44282286      52.75336862       0.55086378       0.26095455      -0.52508142      -0.01138332      -0.03090542       0.03466475
Na      24.85248058       3.54546731      49.38693179      -0.38367368       0.23319664      -1.13752303       0.11444752       0.00050934      -0.26040088
Na      21.55691317      10.77300051      42.57333585       0.67179452      -0.44744298       0.15890653       0.04007543      -0.06325925      -0.05960016
Na      25.01061245       7.39074949      48.89286871      -0.08911408      -0.71056802       0.28337880       0.04294902      -0.16205643      -0.07886167
Na      25.01968365       7.25591282      45.40717018       0.10924080       0.46958123      -0.13372100      -0.03798079      -0.13339103      -0.04135768
Na      21.40055592      10.72469550      46.01303081       0.03577649       0.00457873       0.45184567       0.06057545      -0.10343524       0.10011793
Na      21.33565962       7.11483000      45.79446078      -0.30674227       0.39163757      -0.09011355       0.03514774      -0.08379820      -0.08819321
Na      25.07710413      11.03699459      42.09100861       0.33524935       0.09723160      -0.50540674       0.01532155      -0.12023764      -0.00871748
Na      21.64261172      10.59861638      49.65556425      -0.22966904       0.10866657       0.35682596      -0.15962176       0.28003939      -0.15195371
Na      25.04934618       6.88351574      55.87105411      -2.09269141      -4.06065401      -3.46256124      -5.12220121     -19.40921340      -9.56966972
Na      24.96286039       7.02313950      52.32184107       0.52725113      -0.56329384      -0.02113686       0.11257462       0.05749038      -0.11576035
Na      21.46393673      10.63279565      53.22147339      -0.50746077       0.08034818      -0.14250320       0.08787174       0.07698627      -0.12929561
Na      21.28232503       7.05703276      52.92422644       0.89888118      -0.71608318      -0.23537987       0.10410908      -0.01105081       0.03915306
Na      25.23649972      10.77054338      49.30884213      -0.75429554      -0.67854917       0.00515299      -0.01788264       0.11081268      -0.22224695
S       15.78731882       1.28010382      43.58219271       0.38273482       0.07931151       0.70719840      -0.51616940      -0.31585150      -0.45554823
S       15.50311559       5.62829306      48.03412933       1.15624143      -0.07398717       0.80795582      -0.10236660       0.17494969      -0.04738504
S       20.07075985       5.85184964      43.47090988      -0.22484753      -0.59070203       0.14704712      -0.37141520       0.04854988      -0.06346132
S       20.26231864       1.33634456      47.86020232      -0.14399794      -0.46071185       0.02750520       0.14192181      -0.12133098       0.20171654
S       19.37882299       2.38464737      44.31455553      -0.19043258      -1.42791507      -1.10219593       0.21504548      -0.09552130      -0.16562589
S       19.20224394       4.94228115      47.19724678       0.80877501      -0.60340076       0.68310228      -0.04885863       0.11780815       0.01155796
S       16.48395323       4.87943831      44.46257240       0.10125716       0.00725959      -1.10371936      -0.30463972       0.03106924      -0.20303128
S       16.68553806       1.98588847      46.99853882      -0.05721435      -0.33081748       0.00283828       0.12015880       0.32127498      -0.13906786
S       15.78590070       1.15335937      50.73436099       0.10334653      -0.23480155       0.49081296       0.17847706       0.28990876       0.03915930
S       15.65345020       5.61611453      55.21788519      -0.13370029      -0.13149300      -0.67292194      -0.06068717       0.48794368       0.19504760
S       19.91612179       5.75837910      50.73922943      -0.42077593       0.24893993       0.42230984       0.29848044       0.25099333      -0.20147028
S       20.24761973       1.43332104      55.03061698      -0.15379362      -0.53723317      -0.38835795       0.02805665      -0.09736320       0.15319309
S       19.39365627       2.11723582      51.44548435      -0.65393654      -0.17465200       0.24993042      -0.23300524       0.21185241       0.45037641
S       19.21554383       4.81550788      54.32441375      -0.13232152      -0.80003703      -0.01646316       0.16531631       0.12814489       0.04218851
S       16.58582244       4.74358947      51.54328732       0.45543725      -0.09503546       0.11235950      -0.17833973      -0.05906609       0.02114848
S       16.55277336       2.03265972      54.21824654       0.33184712       0.54311787       0.30947620       0.36102436      -0.13791531      -0.08514504
S       15.72523760       8.35152114      43.65001820       0.54419271      -0.36792436       0.38491625      -0.14193515      -0.06936233      -0.08323473
S       15.53497255      12.77205236      47.83595784      -0.48030524      -0.04749245      -0.94081696       0.07896160       0.18215397       0.21629071
S       19.91726032      13.05503963      43.25849237      -0.07485169       0.30732442       0.33937230      -0.02834508      -0.02747366       0.22961231
S       20.14562038       8.46954654      47.97792613      -1.24305740       0.22530792      -0.59773292      -0.03188403       0.20665950       0.06877319
S       19.22564788       9.51567436      44.44944353       0.25250001      -0.73601556       0.38115055       0.33651674      -0.41119986      -0.38810656
S       19.28270638      12.15522765      47.11103170       0.51840265       1.63013907      -0.52323533      -0.69866593      -0.32452780      -0.40475722
S       16.40813187      12.03930129      44.38982801      -0.08256857       0.14052677      -0.64241204       0.04349247      -0.07718006       0.07759345
S       16.48860175       9.31914254      47.21136972       0.22570559      -0.31464996      -0.36171839       0.22801297       0.05260798      -0.23838537
S       15.78171964       8.49647607      50.65896391      -0.05304154      -0.02953771       1.21845069      -0.04413760      -0.54036543      -0.01220852
S       15.48272550      12.88654884      55.13888749       0.65912526       0.06110833       0.20147020       0.17557878       0.18335717       0.18931749
S       20.06010910      13.05529421      50.58394934       0.13493314      -0.49344107      -0.84885252       0.17874879       0.04512287       0.15690687
S       20.24612041       8.52395452      55.20922165       0.15452284       0.33982166      -0.49691450       0.00554092       0.12534659      -0.25407296
S       19.50132740       9.38320236      51.59574809       0.49847676       0.43801042      -0.11262644      -0.03987607       0.16300618      -0.11572897
S       19.27532693      12.17611333      54.25171217      -0.65680611      -0.05368009      -0.37125045      -0.01793040       0.14105693       0.18556875
S       16.62131872      12.18244660      51.48955224      -0.68898852      -0.77391086       0.00419272       0.25695444      -0.52088285       0.20189836
S       16.68643259       9.31411490      54.11037609       0.27803976       0.00680784      -0.20059669       0.01758242       0.05199218       0.12245762
S       22.99517541       1.21593255      43.54069147       0.25488140      -0.17323027       0.31393213      -0.05822657       0.28638120      -0.34350093
S       22.65865419       5.63775747      47.97244836       0.02060971       0.37769993       0.59610386       0.35452297      -0.05837016       0.05301529
S       27.11018031       6.00123546      43.48057734       0.05529164       0.15317364      -0.23550757       0.06720700      -0.07588650      -0.11193925
S       27.45563930       1.37443663      47.92193914       0.19952885       0.49456974       0.23464820      -0.04607560      -0.07012409      -0.07224990
S       26.50000490       2.31700672      44.23939456       0.91989024       0.01798577      -0.09507311       0.03329620       0.15655730       0.13679751
S       26.33492715       5.07978090      47.01764620       0.14499886       0.26408322      -0.32256944      -0.06101174      -0.34792301       0.09803206
S       23.65010571       4.87835075      44.45388655       0.27535158      -0.57187232      -0.07515597      -0.37741379      -0.00125490      -0.20869765
S       23.88174460       1.96309008      47.03967508      -0.12232823       0.56093332      -0.51923530       0.10614754       0.33047369      -0.10972539
S       22.95132281       1.19808200      50.66499273       0.01321753      -0.75186415       0.75872957      -0.14922230      -0.01609443      -0.36940438
S       22.80132640       5.50445021      55.29733770      -0.58440855       0.10694543       0.14477985      -0.40657167       0.19071923       0.17271698
S       27.24220230       5.81781107      50.56813101       0.28161115      -0.37259918       0.50242435      -0.10860607       0.40840978       0.04404725
S       27.41309894       1.48954581      55.17494376       0.44470585      -0.45783658      -0.32937881       0.22886908       0.04210262       0.07640847
S       26.48517173       2.18492014      51.59846739      -0.65475069       0.16055377      -0.09413282      -0.03593283       0.43374161      -0.16055146
S       26.35594605       5.01464122      54.18054304       0.33891193      -1.13350707      -0.62378016      -0.13881915      -0.07356725      -0.01635180
S       23.47263534       4.74839945      51.50898853      -0.37814585      -0.13059768      -0.72714047       0.09281484       0.20214532       0.02114332
S       23.76819788       2.09105320      54.18484046       0.22909401       0.41083829      -0.35809262       0.05027859       0.02160477       0.24587527
S       22.87026422       8.38828543      43.61822412      -0.27672990      -0.27466553       0.13003423       0.18757124       0.16207509       0.04234359
S       22.75724150      12.93948646      47.77434199      -0.21651152       0.99508902      -0.34307110      -0.14658685      -0.03477131       0.15745685
S       27.29867871      13.10191571      43.45004606      -0.20051680       0.40158926      -1.08203517      -0.65710458      -0.08476085       0.20945395
S       27.44960455       8.73514093      47.86717222      -0.96597488      -0.11314293       0.30726324      -0.09788513      -0.34812423       0.25196144
S       26.30354170       9.49017672      44.30951326       1.06828189      -0.18910666       0.13274713       0.36395048       0.32163788      -0.10124656
S       26.28280867      12.33936329      47.02527043      -1.62773009      -0.97098083      -0.53737176      -0.04089383      -0.25251522      -0.31439046
S       23.49752335      12.05014575      44.31637069       0.74774655       0.11228219      -0.44754232      -0.24132330       0.42038784      -0.23941741
S       23.74508431       9.40226554      47.04507590       0.46289653       0.79774880      -0.69985909      -0.19085518      -0.20720704       0.46021824
S       22.82874397       8.37314783      50.72711145      -0.87627334       0.52815969       0.56728599       0.32637962      -0.18416724       0.06227795
S       22.71076727      12.83691002      55.00477632      -0.00083120      -0.26914317      -0.59775120       0.37240873      -0.03466110       0.32088851
S       27.19971456      13.13178153      50.61500215       0.68483308      -0.04567069      -0.04885928       0.03478678      -0.03650146      -0.03624567
S       27.43295321       8.55613036      55.09690670       0.06843264       0.29061759      -0.07847238      -0.47076513       0.27600214      -0.15503118
S       26.61752442       9.51015531      51.46228752      -0.29639246      -0.19189211       0.52375657       0.09668734      -0.53306732       0.08299776
S       25.79146605      11.94690121      54.02459374     -48.69275973       0.15487265     -27.05878860      -6.55961400       9.89993400      11.00752600
S       23.68721583      11.95724327      51.45395795       1.00116511      -0.00133993      -0.06913939      -0.40952659       0.00344549      -0.18960186
S       23.72329402       9.11939411      54.11137771      -0.46643218      -0.25660858      -1.06738593      -0.19299087      -0.29026178       0.12987806
Sb      14.26768941       0.12638793      56.48463089      -0.87715817      -0.62478627       1.09290476      -0.01944262       0.10948825       0.30197604
Sb      17.97239623       3.58304714      45.73764945      -0.21607420       0.51622072      -0.78097608      -0.28286328      -0.47156151       0.36900376
Sb      14.40288537      14.34828200      49.19800299      -1.49622831       1.09152905       0.78088783       0.18551017      -0.40316341       0.46725827
Sb      17.98493292       3.39310504      52.90729893      -0.44203267      -0.30376586       0.32321310      -0.19832214       0.07475537      -0.46820835
Sb      14.26056461       7.14083474      42.23154674      -1.87892566      -0.90006705       0.31402759       0.10998614       0.46323903      -0.35842364
Sb      17.78189511      10.73858636      45.80539809       0.91626007       1.39860304       1.92651536       0.29219595       0.64905757       0.49558145
Sb      14.27657061       7.21542669      49.30890837      -0.01275104      -2.87537742      -0.40199112       0.04576681       0.23591275       0.02615041
Sb      18.03691289      10.76950182      52.83315466       0.07757361       0.82347832      -1.29554024      -0.51411267       0.04994546      -0.05730737
Sb      21.42248857      14.38588974      42.01017729      -2.60931427      -0.06565939      -0.33158887       0.50007186       0.58467888      -0.11401373
Sb      25.09219611       3.53729020      45.71131500      -0.94977635      -0.80560943       1.39362516       0.15327805       0.15257507       0.16722352
Sb      21.54568174      -0.13629667      49.24543089      -0.85730128       0.04583815       0.34833488      -0.25966953       0.50056190       0.12198870
Sb      25.01237358       3.57784142      52.85329105       0.51999561      -0.24362688       0.13895370       0.45593851      -0.47173642       0.10060114
Sb      21.51249642       7.16574942      42.16394299       0.69740124       0.91654012       0.32122531      -0.09852094       0.28518648      -0.26908533
Sb      24.97321247      10.86612733      45.68484520       0.39890590       1.16197292       0.51471209       0.51438679      -0.19509697       0.21793830
Sb      21.40298975       7.04154654      49.37776484      -0.60657189       0.54786979      -0.87574278      -0.30940575       0.02531005       0.10704168
Sb      25.03349759      10.59772022      52.82752959      -1.46086014      -0.58461418      -2.06078224      -6.84129792     -10.50291699      -9.75507858
Na      28.74686514       3.55371511      56.72748164       0.79191077       0.87330491       0.01418791       0.16108979      -0.14553645       0.12613382
Na      17.92187218      14.19652063      63.22207360       0.07332144       0.01719006       0.25584030      -0.21192808       0.05177409       0.02949428
Na      17.91913072      -0.04770819      59.53875540      -0.03221385      -0.94992796      -0.31430276       0.06748920      -0.01917046       0.01115096
Na      14.27650779       3.53899193      60.72252550       0.87362366      -0.32474255      -0.04888565       0.04479497       0.10038195       0.00706885
Na      28.60963546      14.73142845      60.01427166       0.13502056       2.83069114      -1.76134975      -0.55677194       0.91969759      -0.23679457
Na      17.61019156       3.53476879      56.36567376      -0.35025359       0.43926509      -0.61252905       0.00698276      -0.03353215       0.21833998
Na      14.52626694       3.54828281      64.53021500       0.42130762      -0.03952802       0.30620992      -0.14105958      -0.04401225       0.09674122
Na      17.24684435      -0.89561967      70.43454501       0.17200216       0.89403418      -0.26934884       0.14862253       0.12467569      -0.11239936
Na      17.84921447      -0.24766093      66.94699137      -0.54591229      -0.72547515       0.20485268       0.04258745       0.13147340      -0.07267574
Na      14.44722057       3.93029434      68.28544243      -0.54281386       0.31950113       0.06689698      -0.02827477       0.03032416       0.12911762
Na      13.95230890       0.74187901      69.14105464       0.73106931      -0.35058448       1.52001740       0.03330617       0.06095789      -0.04399898
Na      18.07176077       3.40510680      63.91613943       0.11916179      -0.09758620       0.23451015      -0.06883827       0.02136708       0.23329672
Na      28.66084125      10.57273395      56.99167029       1.18511440      -0.56968463      -0.71335547      -0.47784727       0.41291502      -0.08871719
Na      18.24764475       6.88327121      62.55056132       0.18472091       0.25181695      -0.17860349      -0.08355859       0.31149492       0.37076772
Na      18.14687097       7.05266980      59.34067194       0.32641389       0.34079240      -0.16976265      -0.00831053       0.28300079      -0.16519356
Na      25.54092327      13.50285339      57.73350957     -47.62896626      25.53680689     -25.85621640      -1.79354478      -1.65640580       0.57249208
Na      28.96990358       6.86025976      60.70374061      -0.92066143      -1.74550756      -0.42882280      -0.72692565      -1.12374177      -1.25350744
Na      17.73822296      10.86479304      56.51560865      -0.12117218      -0.73490038      -0.16315202      -0.01043787      -0.07264883      -0.28036951
Na      29.28095580      12.78429271      63.32349190       2.13084824      10.95446219     -10.61826210      -0.80277822      -4.37678643       0.11394536
Na      18.09417275       6.80350875      69.63896664       0.55601396       0.19949066      -0.93897128       0.09432310       0.17693022       0.20024770
Na      17.86192740       6.89214936      66.06661333      -0.24712241      -1.45302685      -0.77929859      -0.11351317       0.05858487      -0.10404031
Na      24.94933955       6.85171122      67.21159971     -18.77515874     -24.75966274       8.53541311      -0.30377784       0.79603419      -2.09953095
Na      30.58667752       1.56037797      67.57020924       7.00531039     -44.90056703      20.76444457      -3.00858280       1.20886506     -11.68046440
Na      17.93841387      10.44227210      63.62317206       0.02241537      -0.63789028       0.32217503       0.01701705      -0.08205398      -0.04498750
Na      21.31890432       3.49498844      56.73592338       0.45574556       0.36243599       0.11553295      -0.24427849      -0.02667766      -0.23414220
Na      24.93240171      13.80148086      62.85348042      -6.75250615      -1.96106532       4.69995951      -1.16201942       0.90774553       2.08817675
Na      25.02079165      -0.15810391      59.12643265      -0.15029434       0.22944942       0.23361146       0.24879540       0.00693191      -0.02517096
Na      21.58389723       3.33978930      60.21014625      -1.10378903      -0.46570206      -0.77051913      -0.77663984      -0.43510984      -0.55198219
Na      21.61242760      14.39319605      60.11613092      -0.86456697      -0.23057108      -0.39289219      -0.28962679      -0.14213496       0.27073226
Na      24.09496431       3.90307882      69.62160402      -3.69267008       5.53718419       3.60504267       0.80179553      -0.16731284       0.91654971
Na      21.86587713       3.39670081      63.55515243      -2.71131196      -0.48273136      -1.53265374      -1.41419210       0.09512284      -0.32228276
Na      25.02080713       0.29923462      69.89253696       1.16391476       0.09962776      -0.38479349      -0.00740314      -0.24478368       0.20419318
Na      25.87387847       6.68698619      69.09494452     -16.34476719     -51.42720771      14.34308585       0.79211251       1.98685485       2.97860730
Na      21.78663932       4.00006564      67.43211905      -3.37292308       1.33160496       7.24760536       0.61320798      -1.06556246      -1.16188931
Na      21.52926527      14.19889729      67.56453623       0.41563160       1.79304590      -0.22134828      -0.40433070       1.55566103       0.11085361
Na      25.70069542       4.01917810      64.52963681      -0.01288933       0.90918664       3.82401181      -1.35423899      -1.12864811       1.05317398
Na      21.34578334      10.87228007      56.59262109      -0.20650439       0.23085979       0.44706739      -0.08556604      -0.15048934       0.22848596
Na      25.59993160       7.16165118      63.01590719       4.72410887       4.29766355      -0.97439455      -0.24473867       0.39857948      -1.06429602
Na      24.88797268       5.54043750      58.95737109      -4.65028462     -19.88116199      -3.80863726       5.14652316       7.88021940      -1.16053883
Na      21.52752591      10.61903602      60.50586601      -0.76749743      -0.37251232       0.55625674      -0.28184945      -0.05192922       0.07124180
Na      21.89531784       7.17277669      59.95964616       0.10184341       3.92759864      -5.17589372       1.59950766       2.58306487      -2.52485698
Na      24.99854936      10.42144509      56.57768990      -0.60178456       0.02020776      -0.40866597      -0.73607229       1.05113434      -0.20359554
Na      21.86532321      10.79282861      64.39144619       0.59881564       1.03314405      -0.32349838      -0.07018179       0.17159751      -0.31102228
Na      24.70093308       7.84994861      69.03647974       6.33651696       6.13713848      -0.67424951      -0.09069739       0.81280133       1.25567277
Na      24.09076932       4.33485894      61.38988253       9.38960887     -17.59188332     -16.70864002      -4.66736926       7.34741640       6.57222785
Na      23.01037878       7.88330485      68.15790758      -5.30284172     -26.20067415       2.81472573       1.81344251       2.45929511       3.63483967
Na      22.06236186       7.39478176      67.09957211       2.03681349      -1.24692546      -3.09694242      -4.23192614      -1.09591863      -2.74950937
Na      25.58503400      12.33780888      62.65588860       8.54943534      21.28350100     -26.31691537       0.04017004      -1.26747007      -0.17854835
S       15.80002378       1.34827913      57.82297359       0.59449042      -0.48039346       0.07138150       0.07896059      -0.18556519       0.07995821
S       15.74600198       5.50205541      62.67920190       0.22850433      -0.13837659       0.44869364       0.16847364      -0.18697789      -0.20394746
S       20.22466080       5.82226845      57.99666983       0.22473256       0.23160514      -0.25749311      -0.08425542      -0.15195530       0.08214704
S       20.47871484       1.19241605      62.39756121       0.34680520       0.49835484       0.76595812      -0.09389263       0.38533597      -0.07270082
S       19.31449979       2.25254253      58.64320542       0.03449987      -0.08643013      -0.26230407       0.17139248      -0.09650347       0.14164621
S       19.37930145       4.72598431      61.41881892       0.61722741      -0.42816071      -1.06641577      -3.27191465      -2.60515084       1.69634406
S       16.45153069       4.80749679      58.84361748       0.50608945       0.55274887      -0.58756252      -0.04005007       0.19311325       0.12828439
S       16.67525569       2.06545536      61.50726251      -0.10722135       0.54816556      -0.57195048      -0.01536066      -0.23617773       0.39911985
S       15.94139043       1.23886744      65.14174805       0.89921835       0.40664558       0.07525009      -0.00002622      -0.46639309      -0.13166030
S       15.33531077       5.76485340      70.16554185      -0.02563716      -0.50709369      -0.37195850       0.38254784       0.31576836       0.06802771
S       20.11808611       5.77247004      65.11148905      -0.27395760      -0.77903371      -1.14124428      -0.00885493       0.14264390      -0.19516584
S       20.77014561       0.30643641      70.58719601       0.84423981      -0.94561406       0.12468949       0.72965935      -0.36209051       0.19968952
S       19.44457968       2.10845240      66.36061981       1.10309390       1.28170409      -0.55121967      -0.06840641      -0.23732112       0.01865941
S       20.12282863       4.78270205      69.00143869      -1.24776015       0.14941583       0.29703944      -1.60363000      -0.11620068       0.98588198
S       16.62082729       4.72624224      66.71107595       1.17380273       0.40566314       0.17048287      -0.05649775      -0.30114443      -0.19472217
S       16.77476822       1.87073150      69.19546222       0.16389228      -0.38030381       0.16819518      -0.05822158      -0.45034056       0.07483159
S       16.02498771       8.51106993      57.81803664       0.29273527       0.14141921      -0.67578122      -0.15020010      -0.33924788      -0.10034470
S       15.61194020      12.79085202      62.56529012      -0.14747447       0.79022465      -0.16869392       0.45290980      -0.51580222      -0.52535489
S       20.00970808      13.19445459      57.92359948       0.21285562       0.06432344      -0.09409185       0.13589653      -0.08650168      -0.07555819
S       20.23482931       8.81976275      62.49171323       0.15257382       0.40276036       1.04022776       0.27099707      -0.04807372       1.16269347
S       19.50106794       9.53236696      58.60194729       0.69113302      -0.36720732       0.09662067      -0.24078307       0.15212117       0.21130807
S       19.13297870      12.05482006      61.42267123      -0.31828375      -0.00486674       0.52241658       0.21729943       0.33686510       0.28307259
S       16.45823840      12.04608600      58.76029619       0.01098979      -0.90411780      -0.48205036      -0.17887867       0.11598342       0.02159597
S       16.70142115       9.09837147      61.31474074       0.27504459       0.26021541       0.21898349       0.22894308       0.09235645      -0.02697065
S       15.69596067       8.40732460      65.29057460      -0.15355807      -0.10448772      -0.14291698       0.33388561      -0.33930495      -0.15469584
S       15.62945809      12.90256305      71.05338867       0.38864857      -0.30959861       0.30815946       0.07895321       0.40528691       0.04569185
S       20.05946333      13.06202661      65.33683006       1.60264709      -0.04118948       0.76804594       0.20910616      -0.27625016      -0.61814238
S       20.54499323       8.33725814      70.76562819      -0.74872365       1.02873870       1.94086276      -0.10072985       0.02400721      -0.29880177
S       18.90584887       9.28487609      66.35923203       0.41541317      -2.17322059      -2.26047089       0.10478706      -3.82554604      -1.95866750
S       18.79507702      12.51971325      69.08358748      -6.78457246       6.01687797       3.33974460       1.20422960      -2.09130036      -1.47895887
S       16.22015498      11.93065654      66.48726794       0.60542782      -0.00304332       0.16342261      -0.29047977       0.17356374      -0.33795345
S       16.40666539       9.20299705      69.22472382      -0.40957605       1.15681229      -0.62195009       0.34016660       0.22837283      -0.33321681
S       23.00002805       1.29276671      57.72085697       0.08109892       0.28889823       0.33012992       0.11251761       0.41355890       0.56180341
S       20.82540415       5.93662871      61.39273631     -37.17241058       2.99177420     -14.80099274       2.71371075       0.51398230       2.41239055
S       27.40198236       5.79238479      57.84249481       1.03933060      -0.98578720      -0.01498473      -0.01005292      -0.44817806       0.16635146
S       27.48914571       1.34465024      62.66828312      -0.64198900      -0.16594597      -0.60146278      -0.54975978       0.22948308      -0.10289520
S       26.65873402       2.13828726      58.79282222       0.47948250      -0.74527684      -1.93498828      -0.08475435       0.10558051       0.20914895
S       26.57502205       5.01390165      61.11624598       0.43786106       2.81023334      -1.06506430       0.70106786       1.39935234       0.42701601
S       23.61950978       4.66131683      58.74441043      -3.31498685      -2.48130119      -0.82489943      -6.30263397      -2.96289650      -1.49254853
S       23.79311710       2.16407751      61.41001549      -0.39309452      -1.07984793       0.04742145      -1.40536292      -4.08562004       0.92812311
S       22.95591653       1.09553740      65.23629661       0.88920433      -0.73737024       0.99107907       1.03068702       0.33335356       1.02488866
S       22.93063985       4.46188991      72.51928298      -2.38333642      -3.68758666       2.87677326       0.21714960       0.09008175       0.32742977
S       27.49762684       4.24519558      63.01852790       0.19331052     -10.55900200     -24.32307873       0.44185185       0.47302230      -0.97643633
S       27.45218084       1.35750845      70.69399439      -0.37700313      -1.13405152      -0.53383630      -0.19481812      -0.03172290      -0.12896544
S       26.22555037       2.13191198      66.63978271      -2.45253423       4.18802523       2.77899886       0.37852593       1.16802237       0.54377450
S       34.87885852      19.72426059      72.03531067      42.96635363      81.96142531      10.81837174      -1.56828767      -4.41343190      -0.81849155
S       23.57063212       3.05681697      65.27233641       0.41742141     -10.98321719      -3.86104435      -0.49867729       0.53591239       0.47296746
S       23.56106796       1.79466848      68.23088272      -3.19833505      -7.54112905      -5.51331340      -0.21005856       0.20804574       0.30899713
S       23.04104514       8.40455498      57.79149951      -0.16593875      -0.28391415      -0.34784751       0.76969109       0.36775875       0.19193370
S       22.63896559      13.00604599      62.33385093       0.23957069       0.31689576      -0.77768844      -0.31705444      -0.90158166       0.14497607
S       27.42778843      14.35938359      57.53547361       6.19415482      40.06742411      -4.62461626     -13.97353223      -2.75855043      14.89071235
S       28.90616689       9.23714728      61.05581275      12.44807852       4.11706384      -5.32675561       0.64736898       1.75737964       0.05183634
S       26.76800702       9.41465345      58.51581906       1.23117858      -0.92152535      -2.96731368      -1.28519604       0.31114095      -0.17319959
S       26.15516334      14.46546211      61.14446541      -2.58173594      33.90711258       1.82712884       2.77515772       0.02567897      -0.26918809
S       23.50247554      12.02049605      58.89718231      -1.48949045       1.14587955      -0.92350899      -1.08437004       0.62953795      -1.63321325
S       23.79211287       8.94590486      61.04661016      -2.45812774      -2.06200627       0.70635897      -0.68339550      -0.91740906       0.10076479
S       23.32238428       8.53605980      65.02350636      -7.13922851     -11.24284841      -0.35439911       2.06699659       1.07056881       1.75309091
S       21.59419157      13.61054784      72.36619074      -5.62271136       4.15043421       3.55517243      -0.32631531      -0.09813729      -0.77996677
S       24.85146849      16.36158995      64.89595463     -19.20588104      19.09568718       5.40740524       0.25934863      -6.92885224       2.29630780
S       27.54615910      11.99762832      53.84746318      52.84642934       2.51788188     -96.61646859       8.40122096       5.58599557       0.84019882
S       25.37255608       8.10313515      56.44435269      -6.14354476       6.11492339     -62.61958574       6.13008347      19.43687917       9.55107524
S       36.89803717      -2.49966034      73.48240669      60.53955784     -90.20837985      52.90897184       0.02213761      -0.32896183       0.27268157
S       25.23543644       9.39573189      64.17580968      15.46763891     -18.26088252     -22.12295395       0.92782236       1.00033872       0.60571035
S       26.40523346      18.65840044      74.05887513      22.58382905      69.36716995      43.51800044       0.41855551      -1.27245629      -2.63856933
Sb      14.14015367       0.17539069      72.64645782      -0.16256824      -0.97850293       2.46867170      -0.23505429      -0.00364574       0.33493962
Sb      17.90523539       3.44225815      60.09822698      -1.00638675      -1.32882062      -1.17810542      -0.81209743      -0.52658606      -1.77374661
Sb      14.33637062      14.22320846      63.84814524      -1.41046745       0.01590736       1.46433708      -0.23106592       0.31208019       0.84945689
Sb      18.16628691       3.35897333      67.91136875       1.92373459      -0.43683839       2.71475860       0.86499722       0.49174143      -0.14611054
Sb      14.46708005       7.24067315      56.54291962      -0.87874211       0.51256039      -0.55953812      -0.19148665      -0.52646479       0.14728222
Sb      17.93341878      10.68101262      59.97453274      -0.49217054      -0.16440943      -0.43669446       0.11114254      -0.52709053       0.04661179
Sb      14.37927833       7.02592938      63.85952533       1.79069207      -1.09672935       0.47363637      -0.34324014       0.63316628       0.44437653
Sb      17.69295061      10.66223079      67.81055441      -9.27487525      -1.10075383       1.33898680      -5.83768141      -0.68174350       4.34270426
Sb      21.45199612      14.26864152      56.40495865      -0.38094703       1.10080935      -0.20401961      -1.64288179      -0.58382954      -1.60304483
Sb      25.17270464       3.44344982      60.00847172      -0.25155812      -7.48409222      -4.67225268       6.78201350      -8.59162113      -6.11898752
Sb      21.58146783      -0.21995780      63.92683401      -0.95186001      -0.56501233       1.33902456      -1.26341937      -1.48213060      -1.00416323
Sb      26.26231228       4.63174275      67.75057422      21.52849981      17.31957583      -1.81635653       1.00139045      -4.17621581      -1.06059806
Sb      21.55861027       7.13865987      56.56250429       0.74620077      -1.13327349       0.20407919      -0.21768084      -0.94224988      -1.03289866
Sb      24.97324399      10.60263417      59.96598326     -12.78810438      -4.74877262      -1.94824465       3.28033206      -0.20752928       1.43822467
Sb      21.59540551       7.33119051      63.95424521      -2.49690295      -0.35619443      -2.66681229      -2.31648464      -1.59689377      -2.85139813
Sb      22.39212318      11.83455282      67.90691239    -112.03486367      56.31446700     -18.00934509       1.56347607      -1.80170218       0.34352511
Na      28.33741983      17.69813416      27.96559566       0.50947177       0.61116327       0.24960909       0.25605734      -0.32497512      -0.10600029
Na      18.00314605      29.10868116      33.35041741      -0.50697147      -0.44254567      -0.29081280      -0.36058379      -0.24561678       0.03078790
Na      17.74073393      14.31481554      28.99566468       0.02950073      -0.19977006       1.38654090       0.25792953       0.27032796      -0.06143152
Na      14.74425713      16.31419084      30.91269053       0.42140658      -0.90719180      -0.91457176       0.10525735      -0.02489453       0.13918783
Na      28.78250029      28.83513835      27.62344945      -0.11518696      -0.57422443      -0.79381598      -0.22447890      -0.16217800       0.00813405
Na      18.00528913      17.68400307      27.62617431      -0.46847580      -0.41838288      -0.00215730      -0.01629875       0.06936031       0.09240821
Na      14.72782702      18.07744397      35.13267213       1.02921586       0.38449042      -0.52986308      -0.18814055      -0.09518808      -0.10573178
Na      17.94740579      14.29702823      41.52344392       0.01220161       0.37856779       0.78190460      -0.11637902       0.01328600      -0.11042889
Na      17.96860216      14.52418268      37.74484136      -0.37236766      -0.36214223       0.31886454       0.17835333      -0.15886357      -0.09984602
Na      14.34956982      17.76862133      38.87084367       0.20747216      -0.40519846       0.55450496       0.03768804      -0.04786829      -0.00214309
Na      14.52324716      14.07736178      38.44360476      -0.56964457       0.28709731       0.32007118      -0.14980346       0.10493591      -0.05507652
Na      18.07386259      18.48431523      34.94287172      -0.38723779       0.44444687       0.29922681       0.07770737      -0.06365014      -0.05171220
Na      28.36369230      25.12724282      28.21514071       0.12486555       0.56652572      -0.02707114       0.02720930       0.19261885      -0.14786314
Na      17.80560261      21.98396363      34.21672570      -0.56880022       0.12212742       0.40240397      -0.09548308      -0.03293584       0.00423084
Na      17.68780608      22.02914445      30.08756425      -0.44298455       0.23627823       1.24561956       0.37216658      -0.13288557      -0.01540471
Na      28.90776209      25.47168512      31.77575365      -0.41226719      -1.23690207       0.20921111      -0.41096840      -0.14197314      -0.06743873
Na      28.20196789      21.45910520      30.98999466      -0.41373174      -0.01228961      -0.07083855       0.03361522       0.02117618       0.20043135
Na      18.14770504      24.97705774      27.46471300      -0.06666127       0.22027874       0.24994454       0.04272839       0.05316469       0.10538050
Na      28.70315125      25.14554737      35.49068364       0.18858778      -0.17528361       0.36462304      -0.03546156      -0.02992338      -0.20239411
Na      18.01243417      21.61117969      41.54996852      -0.01971168       0.23785298       0.38239696      -0.18121602      -0.06052592       0.08080482
Na      17.60193405      21.72721016      37.99449246      -0.99135988       0.33832154       0.31373861       0.27116524      -0.06979684       0.05581264
Na      28.59762016      25.10645389      38.89887672      -0.33731265       0.16686596       0.12207746       0.02735267      -0.01128857       0.21650527
Na      28.50230027      21.42018474      38.48334781       0.67145649       0.14044330       0.15509524      -0.01451133       0.02714759      -0.04770505
Na      18.27348949      25.63083898      34.92152833       0.13019065      -0.15153017      -0.20739978      -0.11450760       0.12665547      -0.01953007
Na      21.76637768      17.80342579      28.19940656       0.54257261      -0.43932657       0.01626191       0.18076251      -0.17471552       0.08984981
Na      25.13113375      28.58321147      33.26334804      -0.70701660       0.69930874      -0.21013105      -0.01689503       0.01701482      -0.04974078
Na      25.05990116      14.17992925      28.58704275      -0.36144159       0.21859845       0.39220116      -0.06335140       0.00929533      -0.01635448
Na      21.45089697      18.18768654      31.72185691      -0.08185074       0.44083845       0.71967844       0.02592739       0.13348752       0.10860418
Na      21.33671141      29.12869377      31.03842561       0.64993529       0.11179253       0.15722925       0.07033129      -0.16722115      -0.01694784
Na      25.37990200      17.94188991      42.21082043      -0.53937335      -1.04114899      -0.27710530      -0.14952622       0.11655660      -0.28286730
Na      21.70003041      18.07759504      35.27412412       0.46216041      -0.03390272       0.46756630      -0.06118221       0.06428983       0.08347414
Na      25.25444429      14.43384426      41.59345310       0.50535327      -0.12693124       0.33160171      -0.31347231       0.07294920      -0.07384944
Na      25.17218523      28.51449353      37.53905662      -0.65495214       0.04424555      -0.65143722       0.01590639       0.22875102       0.11959344
Na      21.52444500      17.81058733      38.87876040       0.56753580       0.51838173      -0.22201974       0.09319769       0.14113104       0.01868578
Na      21.49958336      28.74324446      38.49611825      -0.74159061      -0.10183225      -0.46502268       0.06783875      -0.00356562       0.00849464
Na      25.39471160      17.74159520      34.68994875      -1.07531108      -0.38152238       0.17023874      -0.04266550       0.04405686       0.20556022
Na      21.37872138      25.18891626      27.82777841      -0.53266989       1.06331954      -0.14794030       0.02624171       0.07005950       0.11110428
Na      25.10037503      21.41513372      33.65263043      -0.37067358      -0.57566840       0.57670645       0.04834323      -0.10079640       0.03429140
Na      25.45074023      21.18710986      28.49730539       0.27506554      -0.21676827      -0.37510130      -0.08081541      -0.05895728      -0.07352223
Na      21.46671109      25.08937424      31.80555309      -0.33923634       0.74397456      -0.42372498      -0.30560562       0.14194398      -0.03930595
Na      22.08268280      21.41756505      30.61844877       0.85394722      -0.23203453       0.08418212      -0.03698578       0.09441381       0.01294135
Na      25.18352712      25.10784704      27.53147634       0.19990523       0.17138900      -0.57691872      -0.04415772       0.30367566      -0.12140179
Na      21.60056065      25.21041651      35.51126199      -0.06756781       0.50766275       0.42099092      -0.16378186       0.01989429      -0.05952341
Na      25.03163251      21.45853379      41.47459917       0.09145850       0.63112653      -0.30071264       0.06891441       0.14280650       0.08260460
Na      25.07356755      21.54525695      37.72911005      -0.23046175       0.97964098       0.14192432       0.02180004      -0.06512981      -0.03080672
Na      21.55787945      25.20312764      39.04549043      -0.16610965      -0.17039520      -0.28137890      -0.04586112      -0.03868737      -0.06446771
Na      21.55708516      21.61444839      38.41963786       0.82826893      -0.03094330      -0.05434391      -0.08631887      -0.03080771      -0.06250164
Na      25.04451898      24.78010903      34.62590728       0.42922421       0.06818059      -0.48376348       0.07001527       0.05410736       0.03715534
S       15.95047335      16.16745834      28.19259747       0.53043322      -0.74973967       0.56739428      -0.47462662      -0.30035553       0.19283173
S       15.59911775      20.40667298      33.46900263       0.79418870      -0.53408672       0.55218986       0.05065362      -0.37358927      -0.13714558
S       20.09649724      19.20801686      26.71771573      -0.26682734      -0.98592029       0.13377131      -0.04253149       0.09382737      -0.27770458
S       20.32613807      16.04257354      33.40450912       0.52234342      -0.84920240      -0.76809259       0.54932186      -0.40309701       0.44014654
S       19.67104073      17.01714302      29.93694436       0.52785603       0.88895426      -0.37112480      -0.15983037      -0.26550856      -0.42282432
S       19.38373003      20.33718604      31.69783280       0.67790998       0.10486312      -0.87906557      -0.18767402      -0.18356451       0.10764089
S       16.41649595      19.54398643      29.41558590      -0.45666906      -1.01877013      -0.35752341      -0.10014905      -0.05702388       0.20587778
S       16.84464321      17.33739948      32.52055282       1.06501829      -0.22546679       0.31631239       0.13121602       0.10868489      -0.00588561
S       15.84489034      15.61821968      36.13313606      -0.39288103      -0.09248018       0.51146301       0.02155006      -0.00818318       0.01099209
S       15.61563813      20.15364262      40.65102119       0.43357670      -0.47407024      -0.22835832      -0.11659968      -0.03801916       0.39427459
S       19.87968646      20.50642820      36.01778698      -0.29372274       0.49117915       0.12684065       0.09391723      -0.24559839       0.04400811
S       20.20987356      15.88198304      40.59528150      -0.20513174       0.51220720       0.14911401       0.18290105      -0.32359126       0.37124627
S       19.51887382      16.92174467      37.05297120       0.08886569      -0.69137204       0.45211068      -0.31969083      -0.16473594       0.07679766
S       19.08808565      19.41228187      39.90146412       0.36020097       0.34126671       0.43081120      -0.05519738      -0.30626703      -0.30390121
S       16.40743072      19.23215042      37.18311160      -0.09828875      -0.65294081      -0.21246276      -0.01809750      -0.09399382       0.03785354
S       16.70369279      16.30657904      39.67276741       0.38911571       0.48757227       0.22338095      -0.30290737      -0.25919583       0.32590610
S       16.52458661      22.96546352      27.79514015      -1.02424647       0.09661307       0.67668623      -0.38519422       0.23527886      -0.04926320
S       15.77350877      27.13775027      33.56097307       0.19899335       0.68490191      -0.58253980       0.05250122      -0.26471069      -0.47923044
S       19.44708891      27.16149427      26.54979325       0.18337413      -0.20417183      -0.29327492       0.13706478      -0.03018022      -0.06377247
S       20.06830928      23.38150138      33.71358569       1.16323576       0.57357930      -0.10948321       0.34331135       0.27138529      -0.42118668
S       19.67400183      24.20618380      29.73319092      -0.26664559       0.00205154      -0.84309922      -0.37275435      -0.00696754      -0.19059294
S       19.12259558      26.81606860      32.24996901      -1.14587247       1.20697804      -0.92059518       0.32467164       0.19674568       0.15101954
S       16.46631628      26.52744321      29.34916959       0.61914129       0.13379946      -0.10584254      -0.21734956       0.18388484      -0.21981856
S       16.68509293      23.70330941      31.94825045       1.04702329      -0.05944238      -0.11764124      -0.35211449       0.21519318       0.28806088
S       15.59157924      22.81027702      36.36635143       0.06575502       0.11689987       0.08155030      -0.14375862      -0.21124338      -0.12466630
S       15.58461415      27.17609777      40.85533698       0.42665586      -0.97407212       0.11768919      -0.21064562       0.27595186       0.02828314
S       20.11425380      27.61494969      36.15618966      -0.19441000       0.59846448       0.00285557      -0.03879134       0.01361873       0.02788667
S       20.30898591      23.10126881      40.62787839       0.47143053       1.04139423      -0.25854216      -0.04657216      -0.06795098       0.22017053
S       19.25375524      24.06821374      37.10028043       0.14833601       0.55367865      -0.06293364      -0.33648547       0.27442819       0.38223403
S       19.28999774      26.83384372      39.76713997       0.34916180      -0.07664768      -0.80931680      -0.14657781      -0.00753300       0.04300050
S       16.26187263      26.59525381      37.37509404       0.16393251       0.54561383       0.17695022       0.21486948      -0.17243005      -0.11347985
S       16.77621124      23.80264121      40.00387050       0.19556838       0.90799225      -0.24911898      -0.13774317       0.13106687      -0.04459279
S       22.16541783      14.98704052      28.10371210       0.47043021       0.10292010      -0.67801644       0.01973067       0.01486923       0.00670826
S       22.64035317      20.16156160      33.36324854      -0.18440817       1.20820414      -0.65707876      -0.17118074       0.19628544       0.21357454
S       27.89414796      20.22926680      27.39695137       0.21823010       0.24259332       0.12446870      -0.01991926       0.08218284       0.01816511
S       27.46209321      16.03433433      33.59775081      -0.85767855       0.35453598       0.61755436       0.40502748      -0.14241624      -0.18674997
S       26.45130682      16.41494943      29.47960917       0.31571179       0.18818070      -0.11778692       0.13500672       0.09803509       0.18577529
S       26.54251821      19.17731860      32.25171625      -0.16511832      -0.40495464      -0.92298786      -0.00749582       0.03895657      -0.41665576
S       23.71974387      19.25674103      29.49873776      -1.07389219       0.60122699      -0.71457317       0.19895264      -0.07779978       0.11559920
S       23.72768658      16.67301195      32.26953653      -0.41637453      -0.09118159      -0.54527174      -0.02809434      -0.18345461       0.06031937
S       23.04991312      15.75734088      36.23877603       0.50847415       0.39047581       0.17098384      -0.44888475      -0.27117674      -0.44759474
S       22.70067623      20.13858517      40.64984480       0.04789416       0.41848382       0.12432416       0.00539577      -0.15631146       0.05731426
S       27.14838514      20.16392140      35.98444532      -1.02366761       0.17283379       0.84339715       0.17031771       0.48532696      -0.16537991
S       27.55340404      15.87858994      40.70709232      -0.47595556      -0.01546749      -0.19631382      -0.60731259       0.36668517      -0.28092900
S       26.70977461      16.69976940      37.15823299       0.24645160       0.65380124       0.73239016      -0.25224400       0.43235607       0.40009563
S       26.39395448      19.65585609      39.68845854      -0.06519646      -0.35362727      -0.25846679      -0.12054551      -0.35588628       0.00420498
S       23.71613818      19.20591515      37.02939478       0.13518041      -0.64618532       0.20050392      -0.20244721       0.04355449      -0.05528046
S       23.95397936      16.57554104      39.86106882       0.24101548      -0.31831902      -1.01179425       0.09649239       0.09834874       0.03217781
S       22.19284398      22.39699365      27.46811943      -0.85146033      -0.72625163      -0.21263144      -0.05427092      -0.04502488       0.04869447
S       22.60094900      27.19051702      33.40017114       1.10647721       0.30898769      -0.96172001       0.29296095       0.06623714      -0.08783079
S       26.82279422      27.14618018      26.84210175       0.09149089       0.32827648      -1.99667743       0.13877814      -0.23357802       0.04051449
S       27.35088075      23.07245716      33.43681519      -0.03066742      -0.00528418      -0.00317003       0.04458323       0.30055587       0.03383202
S       26.39932294      23.61403681      29.50352673       0.09479198      -0.33524059      -0.80566753       0.16025528      -0.31000955      -0.30637149
S       26.18491641      26.26664008      32.11342259      -0.14383457       0.49985551      -0.33189028       0.40417724       0.19744489       0.32902245
S       23.45182425      26.29858673      29.44598154      -0.06338500      -0.32408025      -0.26119679       0.16969977      -0.23455884      -0.01095921
S       23.58681722      23.43892287      32.13435264      -0.24784357       0.62564345      -0.27479849       0.22067682       0.02423422      -0.18656430
S       22.99044931      22.88568658      36.13736343       0.64149596       0.50061545      -0.61692311      -0.32649290      -0.44263436      -0.53283054
S       22.85876967      27.19292406      40.79757579       0.68518250       0.91347101      -0.65101067      -0.16317074       0.23814418      -0.04177961
S       27.21923171      27.41587958      36.04183186       0.05115066      -0.36497659      -0.22584074      -0.19109157      -0.19013512       0.26208228
S       27.38206585      23.02317593      40.81059052      -0.00477095      -0.21735088       0.67663159       0.14768714       0.00767609       0.21559906
S       26.59561828      23.83767268      37.19141679       0.26074868      -0.88255360      -0.95501238       0.24139791      -0.06534299      -0.21568104
S       26.28189525      26.74913890      39.74577921       0.10027360       0.87466713      -0.25684792      -0.13861058      -0.53940879      -0.47979091
S       23.61571964      26.27568102      37.11541758      -0.01960471      -0.07077197       0.54383448      -0.42197136       0.29334850      -0.34787276
S       23.91340453      23.66674735      39.89202079      -0.11051944      -0.48462102      -0.02478293      -0.32941560      -0.18589303       0.11718856
Sb      14.29293090      14.31077038      42.07064330       0.20762404      -0.13125349       2.27899787       0.18241060      -0.51150263       0.45515736
Sb      18.10483432      18.51716545      30.90259828       1.93684452       1.37269895      -0.36198226       0.07462208       0.08898996       0.17094205
Sb      14.37655798      28.73536814      34.50925180       1.26727099       0.12845047      -1.93574817      -0.28560311       0.01312291       0.74233790
Sb      17.90608793      17.90555447      38.48557868      -0.07342561       1.86259391       1.86959316       0.55011646       0.91717282      -0.28309282
Sb      15.82281503      20.78532086      27.20410595       0.67471182       0.26769710      -1.80072571      -0.36343730      -0.13170661      -0.07151771
Sb      17.90895081      25.40226741      30.87194036       1.28227575       1.02875986      -2.16634236       0.28331505      -0.39830629      -0.17758653
Sb      14.17048770      21.61618477      34.85082960      -1.20053583       0.62627615       1.29168692       0.02054056       0.49511212       0.12729209
Sb      17.87258404      25.35151716      38.59117442      -0.12388053      -1.42275957       0.02095016       0.35435699      -0.25727386      -0.39699841
Sb      21.22277119      28.66686910      25.94727285      -0.56614943       0.99846597      -2.02489530       0.05113435       0.03782456       0.47377837
Sb      25.16720455      17.85988611      30.84423312       1.36876200       0.49819008       0.95264153      -0.30355849       0.49107911      -0.18492472
Sb      21.62676466      14.51043384      34.78082938       0.94685484       2.14462233       0.52905968      -0.11322175       0.55499522       0.14171481
Sb      25.17678231      18.03362596      38.44801114       0.64212591      -0.87212790      -1.69697049       0.34734942      -0.28157817      -0.09600027
Sb      20.53720616      21.42978559      26.02724865       0.57038968      -2.23622169      -0.65573537       0.12045536       0.22167775       0.03391070
Sb      24.88723572      24.90442279      30.78184850      -1.01389120       0.34860575       0.73614716      -0.46847768       0.05810468       0.23012309
Sb      21.40832222      21.72456473      34.70272559      -0.75160794      -0.11108755       1.17457570       0.41480011       0.06774322       0.40764002
Sb      25.07146094      25.08051041      38.46311257      -2.01542867       0.15618972       0.47472337       0.75907759       0.66506283       0.62570592
Na      28.78120368      18.07473343      42.58617038       0.57216003      -0.02427128       0.10185216      -0.00481322      -0.23464120      -0.00025425
Na      17.86403505      28.52417335      48.73477613       0.27114577       0.55069094       0.62276908       0.14066235      -0.00256110       0.12360548
Na      17.90311194      14.31958012      45.13255156      -0.13358776       0.00216843      -0.01860666       0.02695861       0.03069571       0.04757607
Na      14.51180149      17.62430102      46.03080098       0.32841282       0.61680288       0.33557123      -0.38438833       0.17944429      -0.05069216
Na      28.51821626      28.38038056      45.68677139       0.90770608       0.08034249      -0.00987758       0.05499444       0.10766205       0.06263850
Na      18.03465897      17.78653635      42.01472902      -0.26277269       0.22130193       0.60850676       0.06021612       0.07047762       0.02007748
Na      14.37368266      17.96780226      49.77943596      -0.46372688      -0.16994646       0.05023776       0.08013193      -0.16916337      -0.15517192
Na      17.70783209      14.64966452      56.14252757      -0.01435231       0.51252175      -0.02426806       0.16725315      -0.05920928      -0.01183984
Na      17.98322470      14.49773613      52.42450856      -0.06699315      -0.49094648       0.29969891       0.02588637      -0.20119975      -0.02631432
Na      14.38577668      18.15711429      53.25545389       0.03855616      -0.25650748      -0.57312804       0.05699991      -0.12248313       0.03686354
Na      14.47374880      14.68670884      52.77795532       0.05938978       0.76916309       1.09542981      -0.00976040      -0.06047631       0.06425949
Na      18.04875604      17.78574992      49.14999023       0.39408892      -0.30389435      -0.13069141      -0.01952932       0.03293345       0.06899591
Na      28.56680417      25.04819574      42.78147281      -0.41739221      -0.16042553      -0.62633962       0.04189350       0.03534865      -0.15671032
Na      17.88746490      21.37963164      48.76139128       0.29050417      -0.40742151      -0.51260837       0.00582992      -0.09298838       0.10501382
Na      17.82320889      21.44860092      45.30144125      -0.16766033       0.34900129      -0.27158441      -0.08021199      -0.07410619      -0.17455414
Na      28.65494747      25.10564293      46.20045333       0.23164415      -0.11644875       0.57145358      -0.07203312      -0.09164793       0.12471927
Na      28.58027115      21.55308947      45.71651527      -0.06412173      -0.09387005       0.48675274      -0.07131160       0.06767329      -0.11907786
Na      18.22918837      25.23879968      42.08252943       0.24823869       0.12803409       0.03642495      -0.00407451      -0.01965500       0.05166037
Na      28.77904592      25.25785606      49.96462316       0.25594029       0.11239286       0.01362088       0.10354829      -0.32162451      -0.10344401
Na      17.90724615      21.67755370      55.91105177      -0.62275752      -0.50848569      -0.71753859      -0.15195722       0.02450939       0.03361588
Na      17.79025165      21.49147477      52.51470296      -0.09403740       0.36122872      -0.55360825      -0.04065862       0.07726366      -0.14070448
Na      28.70815083      25.26816388      53.33832576       0.88195730      -0.17680758       0.22466782      -0.11095358      -0.17783126      -0.02238471
Na      28.30076387      21.30143999      52.79555072       0.41414467       0.31473651      -0.01604576       0.13415993       0.22169159       0.03774980
Na      17.84011236      24.76126301      49.21732144       0.28927588      -0.74619697      -0.23731877       0.08292616       0.18861794       0.17057519
Na      21.70887429      18.06369688      42.49032865      -0.13995037       0.02556130      -0.94420965      -0.13580233       0.02005590      -0.10422062
Na      25.13505238      28.71475715      48.85694667      -0.30546207      -0.02917681       0.42189698       0.00105198      -0.10908237      -0.03292408
Na      24.92456921      14.45965489      45.23679130      -0.13879465       0.44778710       0.00039873       0.01397979      -0.03845097       0.02996875
Na      21.52613518      17.97047867      46.00166794       0.30650380      -0.23525698       0.48198495       0.11125924      -0.03783383       0.11609815
Na      21.60374572      28.70853134      45.63086596       0.24301417      -0.25289083      -0.07522533      -0.09434098      -0.14766618       0.13532818
Na      24.98453545      17.76042032      56.60525953       0.61507985       1.74404545      -1.43805682       4.14912753       5.45786404      -6.39904214
Na      21.65861629      17.81997359      49.59467519      -0.53485514       0.06554372      -0.16523549       0.02921536       0.05646370       0.09254538
Na      25.14049575      14.20098441      55.86167983      -0.85764934      -0.03998116      -1.56594375      -0.53958117       0.58520115      -1.66310125
Na      24.99250337      28.58890906      52.33391729       0.42148909      -0.30002233      -0.34439202      -0.02412759       0.03109213       0.08279892
Na      21.51778967      18.04728500      53.39480528       0.24290930      -0.37836374       0.45335188      -0.02703502      -0.10841873      -0.13607149
Na      21.40756851      28.79787971      52.72229881       0.52625211       0.15424292       0.60721639      -0.03890479      -0.19209875       0.11153305
Na      25.29753981      17.91892387      49.33371690      -0.19459450       0.53885858      -0.07591134      -0.08399712      -0.02189548      -0.02105980
Na      21.60604893      25.14253925      42.50595359       0.92890070       0.15904790       0.12272189       0.01969860      -0.01126618       0.09592087
Na      25.03506790      21.56883912      48.76855956       0.06879806       0.50641902      -0.29162208      -0.06765799      -0.07183313       0.02092392
Na      24.90282007      21.44766583      45.10993907       0.09219900       0.58845873       0.06196391       0.16400710       0.33087248       0.12306372
Na      21.48577900      25.18764229      46.13715030      -0.39873368       0.52121749      -0.65468722       0.02438860      -0.04424379       0.02935573
Na      21.27816725      21.61552469      45.86038049       1.02727301       0.01823415      -0.40905668       0.04345333      -0.01993159      -0.25260455
Na      25.11723450      25.43270456      42.06000759       0.09377778      -0.65483750       0.39060765      -0.00408505      -0.10279666       0.05114507
Na      21.66189675      25.01589472      49.77912079       0.66310210       0.24016349       0.15891757      -0.03596373       0.02431054      -0.11839802
Na      25.00528789      21.43524636      55.96707958      -0.29610312      -0.42455747       0.12459102      -0.02560772       0.08005714      -0.16096777
Na      25.00056304      21.39326671      52.34138972      -1.12948511       0.17379386      -0.62750292      -0.08867511       0.14567044      -0.02613140
Na      21.45899207      25.20280837      53.26186563      -0.37900785      -0.17895341      -0.39271031       0.12120441      -0.03986276       0.05584602
Na      21.22715148      21.48883557      52.95563822       0.69978846      -0.51101984      -0.15727074       0.08885044       0.13103916      -0.08746247
Na      25.62606131      25.02923804      49.25878367      -0.42616995       0.29870353      -0.97381309      -0.38335540       0.11200481       0.07337681
S       15.79622075      15.54097688      43.43319499       0.07130191      -0.19912220      -0.24451381       0.05516256       0.02370072      -0.03808076
S       15.55717253      19.91575594      47.85995153      -0.03469724       0.23462224       0.20304284       0.15890103       0.08767440      -0.01776063
S       19.98139622      20.34065515      43.37872231      -0.14513399       0.14501992       0.30439837       0.04009004      -0.15832948      -0.01060242
S       20.29434313      15.85345344      47.96897692       0.29604859      -0.19321862      -0.67387780       0.12506090      -0.07993113       0.13504538
S       19.58579079      16.72942209      44.32407959       0.06946791      -0.14452649       0.64450940      -0.01005321      -0.38529490      -0.19734010
S       19.16531821      19.40984810      46.90473248       0.16351980       0.40495456       0.63834076      -0.07004166       0.00975373       0.10126380
S       16.47518715      18.97530620      44.20070558       0.05399023      -1.04073310       0.76307269      -0.15957970       0.45990025      -0.08808539
S       16.75914105      16.39120287      46.98433316      -0.14696594       0.21213735       0.59475950       0.07361819      -0.29174641       0.08390265
S       15.96639404      15.65240421      50.42767270      -0.20062237      -0.26424135       0.34147083      -0.03230837      -0.07993395       0.05174492
S       15.57290758      20.09883532      55.10530500       0.48805448       0.64619035       0.00482710      -0.00085927       0.20105036      -0.01119876
S       19.97642364      20.18089026      50.60159343       0.23439413      -0.69759827      -0.17567186      -0.26471259      -0.30285132       0.27594763
S       20.25820957      15.80851576      55.05659600      -0.13782784      -0.32433261       0.71080462       0.06506208      -0.22157744       0.34124879
S       19.45586508      16.72246622      51.45063768      -0.18477558       0.07013996      -0.15376941       0.29090615      -0.24214588       0.11775448
S       19.16407645      19.42610443      54.21264336       0.41719120      -1.12104736      -0.07277110       0.21035054       0.28044779       0.23915814
S       16.53599798      19.21335739      51.45328307       0.62367520      -0.31384923      -0.51487066       0.01859472      -0.22074592       0.17840516
S       16.69426644      16.46754443      54.19108750       0.29827716       0.23315696      -0.66087958       0.04844377       0.33568364      -0.23456158
S       15.80128223      22.70047604      43.50609434      -0.01837659       0.32969732       0.17971880      -0.27849456      -0.09245142      -0.04690461
S       15.53251911      27.17467983      47.92523373       0.25306808       0.13405191      -0.00737596       0.08715573      -0.21944374      -0.25851403
S       20.04439907      27.45666454      43.41742309      -0.44500915      -0.32829507       0.40202325      -0.05709747      -0.08052554      -0.00119811
S       20.14609242      22.98766826      48.12316345      -0.65743783      -0.99128042      -0.56196564       0.07967004       0.07158616      -0.36415576
S       19.46590937      23.69045609      44.40894638      -0.17152143       0.36290959      -0.52067329      -0.08569370       0.24703601       0.04638280
S       19.09658872      26.52777015      47.02373393       0.58691491       0.40856705       0.54072891       0.22002265      -0.01207016       0.15846896
S       16.57966259      26.28804976      44.26051692      -0.44523751      -0.44856392      -0.37771084      -0.23291779      -0.05202182      -0.03569276
S       16.61386491      23.53403331      47.01012673       0.40554087      -0.11127153      -0.16740794       0.10443328       0.04420251      -0.11004840
S       15.81372186      22.75860296      50.59907876       0.10663039       1.10108465       1.26118213      -0.24406277      -0.19160095      -0.18791339
S       15.51929626      27.32882417      55.12712665       0.58684820      -0.41067605      -0.41821002       0.01030609      -0.10123969      -0.15713544
S       19.99391208      27.33718266      50.59132281      -0.25750074       0.26101706       0.19814335       0.27155294      -0.08013415      -0.13826874
S       20.21358109      23.11946297      55.33877774      -0.03930816       0.37052920       0.21670627      -0.17059378       0.24457890      -0.36944128
S       19.35977065      23.79137588      51.62956544       0.51993592      -0.30703559       0.84274674       0.36408542      -0.45432961      -0.34584935
S       19.12772890      26.57706144      54.15178492      -0.15651908       0.11908674       0.02663894       0.10039078       0.12332621       0.19194125
S       16.41757153      26.33577512      51.46686492       0.05947852      -0.02872832      -0.27291238      -0.04467289      -0.22949912       0.01797785
S       16.62441838      23.73385027      54.33049196       0.34743824      -0.53224190       0.32567173      -0.15913378      -0.08295136      -0.07023709
S       22.92976862      15.69729377      43.33420690      -0.93098795      -0.45081038       0.46956313      -0.25157706      -0.39654100       0.05646653
S       22.73531887      19.96920002      47.92487194      -0.50799267       0.38690658       0.22779643      -0.15197856       0.16591631      -0.08704277
S       27.18746503      20.25412669      43.56380022      -0.54241646      -0.18147460       0.79375477       0.20524307       0.22042778      -0.34617098
S       27.36565549      15.90986327      47.96953287      -0.14390728       0.60049388      -0.06770048      -0.06609633       0.15481971      -0.20226664
S       26.62406835      16.70573402      44.38287840      -0.59130346      -0.30965552      -0.23946237       0.17953645      -0.17055844      -0.09668045
S       26.34558138      19.52494075      47.07154220      -0.94080139       0.47950853       0.73273529       0.17668491      -0.05444098      -0.05970285
S       23.67658266      19.20243214      44.34046140       0.47216413      -0.25844825      -0.37846369      -0.10233277      -0.17429973      -0.23284123
S       23.89356567      16.54031618      47.03413776      -0.15790055       0.00703637      -1.21455615      -0.02935142      -0.05403273       0.08311811
S       23.19712119      15.41640159      50.66157419      -1.36637909      -1.10021767      -0.16549947      -0.53605287       0.12892447      -0.30203982
S       22.55677205      20.09198283      55.16973059      -0.27606639      -0.61063325       0.19774475       0.22597972      -0.20674361       0.07011344
S       27.12624503      20.22681074      50.46388227       0.24935302      -0.58809344       0.47758888       0.12176300       0.02070090      -0.16769903
S       27.40244880      15.91926549      55.13424442      -0.64435935       1.19350487      -0.62272741      -0.32542197       0.93845367      -2.26353028
S       26.60104440      16.58976074      51.65221904      -0.24076524      -0.23189978      -0.05799646      -0.32260436       0.16785276       0.02469115
S       26.30244958      19.43268863      54.12760229       0.04734906      -0.57746574       0.24912836      -0.35509630      -0.24142086       0.11458272
S       23.53677842      19.06289351      51.52948219      -0.27810314      -0.22556550      -0.52388716      -0.03750551       0.01540234      -0.00677778
S       23.79813029      16.42255537      54.31945024       0.69142908      -1.49920025       0.89756783      -0.25499499      -0.25121624       0.32830822
S       22.92518852      22.82343125      43.45097378      -1.00487972      -0.09199160      -0.54716023       0.00403978      -0.16022155      -0.07543838
S       22.90535943      27.14810818      47.93901104      -1.09076464       0.97565408       0.15377990      -0.18875020      -0.07959714      -0.02011852
S       27.01517412      27.42517315      43.42094982      -0.03968572       0.03954974      -0.36331819       0.30914559       0.33319448      -0.35571587
S       27.32881472      23.08420392      47.91443728      -0.34556323       0.43049603      -0.25807890      -0.00429362       0.14909960      -0.14890725
S       26.47972933      23.81219282      44.42312234       0.18025049      -0.58984216      -0.49884096       0.26842867      -0.26345996      -0.37102712
S       26.34623450      26.56853339      47.00296781      -0.42168275       0.18552741      -0.00586647       0.28611794       0.36557131       0.15963731
S       23.56894323      26.40162720      44.38210958      -0.07668882      -0.07341489      -0.97776972       0.27412043      -0.47883346       0.32827046
S       23.83259133      23.72190567      47.21755022      -0.00752253      -0.65022229      -0.02169260      -0.33678646      -0.30014210       0.03547812
S       22.93425366      22.65984327      50.59433209      -0.24336767      -0.43662226      -0.04622167       0.26852246       0.07075169       0.42724938
S       22.89554676      27.10693016      55.17160439      -0.26340997      -0.73575856       0.61044802      -0.32861343       0.29523224      -0.03588810
S       27.23601979      27.46574857      50.69788873      -0.32690863      -0.69341518       0.20231744      -0.05856461      -0.20539522       0.15745216
S       27.33531694      22.98352400      55.10941185      -0.20599188      -0.68123356      -0.31747136       0.37839204      -0.26568963       0.21480902
S       26.60844153      23.84484062      51.58462087      -0.44854385      -0.39970888      -0.33972287       0.09565762      -0.16510472       0.10542975
S       26.33482346      26.55857630      54.21456091      -0.24446177      -0.59476749      -0.35434209       0.31526148       0.34987707       0.26859622
S       23.67707106      26.29607243      51.46779027       0.54676525      -0.03588974      -0.07483991      -0.00552978      -0.10479484       0.07277061
S       23.83002165      23.64860396      54.28206480      -0.81295515      -0.79273240       0.52365108      -0.21317730      -0.16370872       0.11406962
Sb      14.20067833      14.38021488      56.45709304      -2.08955020      -0.71533653       0.93697703      -0.29977361       0.44605252      -0.28379377
Sb      17.95849658      17.84328412      45.59170261       0.99124094       0.74893355       1.41176575       0.35583886       0.21761722       0.18262835
Sb      14.35605698      28.62680292      49.32636903      -1.26580574       0.73809821       0.11837244      -0.48282431       0.33159380      -0.29850903
Sb      18.00920480      17.93959724      52.82296008      -1.09444030       0.20118277      -1.33384568      -0.81169301      -0.08610664      -0.07730456
Sb      14.29579622      21.48125012      42.13598140       0.95458118       0.39522502      -0.17564319       0.07228387      -0.09849824      -0.35839539
Sb      17.94850079      24.99063115      45.68063906      -0.80654980       0.34850219      -1.51369323      -0.02717760      -0.06985319      -0.11187344
Sb      14.36807509      21.45278055      49.19768211       0.56321733      -1.43455340      -0.02337978       0.46929595       0.04963460       0.32843823
Sb      17.86491076      25.07681197      52.83200649       0.53305170       1.31664572       0.64981297      -0.25869103       0.34932904       0.44143005
Sb      21.55120269      28.70217990      42.07850434      -0.36429380      -0.85528194       0.47421412       0.11173816      -0.40062612       0.40084517
Sb      25.18156298      18.00686979      45.72210222       0.15809517      -0.56310025       0.77023833      -0.48579890      -0.08909328       0.04883156
Sb      21.56770705      14.32455258      49.27867020       0.88716476      -1.53933382       2.05372122       0.13054404       0.01183567      -0.19893752
Sb      25.00685037      17.85112276      52.90264944      -2.13382261      -0.94831795       0.24588557       0.79883919       0.05469759      -0.23047212
Sb      21.46765977      21.58353720      42.05098772       0.82424063      -1.46180266      -1.03162296       0.15755242       0.25933096       0.00575469
Sb      25.04613472      25.06630922      45.75514553       0.95175670       0.53622149      -0.20025282      -0.44759362       0.69940189      -0.45154529
Sb      21.44879862      21.40486820      49.29820335       1.60752204       0.58493934       1.65271871       0.20938182       0.16163948      -0.11775635
Sb      25.09051912      25.07085812      52.91809675      -1.06538663      -0.22208190       1.95535372      -0.20426870      -0.18796238      -0.51151304
Na      28.52030579      17.87784438      56.80104548      -0.27694615       0.30796484       0.24947496       0.31494713       0.39161531      -0.03672666
Na      17.96550088      28.73504471      63.28685642      -0.78761519      -0.37579455      -0.16983861      -0.03786618      -0.13543507      -0.08511592
Na      17.92623391      14.36364486      59.77126913      -0.21851203      -0.19090031      -0.44759698      -0.09510629       0.08375230      -0.06165208
Na      14.14175826      18.05433891      60.53751087      -0.15155966      -0.43974884      -0.05767453       0.16587310      -0.21542034       0.04165659
Na      28.69684992      28.68042152      60.25975343       0.13385065      -0.13611121      -0.02710092       0.07784132      -0.15563030      -0.01456792
Na      17.76658639      18.43271480      56.49462825       0.36221732       0.35396709       1.00469587      -0.09808796      -0.17446223       0.00399475
Na      14.23786798      17.74299900      64.28200993      -0.47237321       0.90859741      -0.21486321       0.02770053       0.21236981       0.02560643
Na      18.12982271      14.24926176      70.49115555       0.13390696       1.61989769       0.24723369      -0.38299264       1.34094793       1.02126254
Na      17.91091020      14.10924968      66.69081136      -1.01185741      -0.25200225       0.16772461      -0.28659099       0.24524847       0.23874571
Na      14.28723481      18.17625885      68.18320001      -0.41074080       0.76625454      -0.45458745       0.09590170       0.05628889      -0.04100425
Na      14.51932179      14.28448997      67.57170324      -0.27513398       0.62492455       0.22462448      -0.04530831       0.02912974      -0.06364606
Na      17.76236772      17.85150393      63.99648079      -0.09984226      -0.77370987      -0.06886270      -0.02320048      -0.04952602      -0.13974643
Na      28.65155071      24.94266374      56.76993646      -0.37844484      -0.41828075       0.50466212      -0.06903143       0.16446202       0.08277636
Na      17.85254851      21.46959868      63.03152750      -0.36399138      -0.12383978       0.21526947      -0.10724168      -0.11790001       0.01529871
Na      17.88743375      21.56899410      59.46465804       0.41394214      -0.29354484      -0.28207158      -0.18004310      -0.09135542       0.08017096
Na      28.63328826      25.04321836      60.48081555      -0.47538004       0.32773683      -0.24490812      -0.01757396       0.09069000      -0.00740738
Na      28.47866235      21.73131394      60.12462009       0.03801475       0.63145806       0.03373559      -0.05257244      -0.19184372       0.03455568
Na      18.06894899      25.13558410      56.51799791       0.48365442      -0.86172968       0.27151210       0.17768054      -0.05244961      -0.07241885
Na      29.01765435      25.08463908      63.94450245       0.22286987      -0.50216572      -0.16810222      -0.17043204      -0.35038114       0.05072006
Na      18.16934112      21.14694437      70.00388815      -0.23365512      -0.05956864       0.21345796      -0.26051555      -0.17212486       0.35131992
Na      17.48065638      21.37320272      66.70049237       0.18614621       0.36632759      -0.17777086       0.35956176      -0.02482521      -0.02594955
Na      28.49962118      25.99576613      67.48127212      -0.81790794      -0.12031891       0.22239575      -0.06232002      -0.22647567       0.06131215
Na      28.51409028      21.74031629      67.51027533      -0.24981547      -0.48297327       0.43004314      -0.14469434       0.00257180      -0.13576643
Na      18.13910099      25.24759687      63.81952236      -0.41066707      -0.24899757       0.54107426       0.10524213      -0.12530996       0.00089660
Na      21.30749767      17.95470310      56.93685247      -0.18204224       0.48246885       0.26410012      -0.22001175       0.18572513      -0.13048058
Na      24.97413749      28.72641261      62.70409729       0.56461861       0.51130650       0.98066570       0.37262480      -0.16914169       0.30054601
Na      25.02411029      14.16713448      59.07006481      -4.17080023      -2.93844247      -2.98315388      -0.98300036       0.59384715       0.97675537
Na      21.47239088      17.88249633      60.64204637       0.31205606       0.70631208      -0.03844384      -0.28399845       0.15079033       0.06867428
Na      21.55558986      28.37020751      60.20429839      -0.06446262       0.16168802       0.02955119      -0.10669459      -0.20862173      -0.24539267
Na      25.92628007      17.82468580      70.77840241      -6.38091642       4.24513235       0.45053288      -0.06695259      -0.37310299       0.50820003
Na      21.37955185      17.92157036      64.03407613      -0.66454560      -0.40891204       0.42891744      -0.16119452       0.08285260       0.00082442
Na      31.27365857      11.40781471      69.99286615      32.72075646     -18.45851200      25.88093674      -3.62822334      -4.42726641      18.50013143
Na      24.99556918      28.45302258      66.53416287      -2.78628970      -3.34922890       0.27545597       0.23325316      -0.01208369      -0.05175301
Na      21.52531817      17.60988687      67.29555622       0.38532591       0.01218837      -0.08625514      -0.60491731       0.52554326      -0.36293311
Na      21.45525510      28.41771702      67.74305693       0.24100217       0.32241977       0.86257364      -0.03350233       0.06758009       0.07890362
Na      24.98931200      17.88190123      63.87044072      -0.25395738       5.24247350      -2.96826684       0.65605850       5.97643854      -4.27001881
Na      21.67494910      25.19684950      56.95806547       0.01869637       0.12301997      -0.26378850      -0.00972865      -0.32949973      -0.01006886
Na      25.02764579      21.41614514      63.01185567       0.07334409      -0.35040505       0.16024309       0.06979493       0.22082885       0.13072683
Na      24.97837680      21.47440095      59.36410911       0.45896941       0.07460810       0.50836215       0.24536805       0.22185122       0.24945633
Na      21.38651857      24.97994447      60.97274227      -0.10793673      -0.17549549       0.02039891       0.30031921      -0.14120954      -0.13876891
Na      21.42365765      21.64235376      60.18653518      -0.09237901      -0.46661658       0.76842460      -0.02686305      -0.02347729       0.17164277
Na      25.19139579      25.16745909      56.54374475       0.03679218       0.48700822       0.93810385      -0.02008544      -0.07355174      -0.07958376
Na      21.75385337      25.01698533      64.59248398       0.33421416       0.65291218      -0.36336735      -0.14917436       0.00766421      -0.18513600
Na      25.28287242      21.54701184      70.15050117       0.84050971      -0.90204906      -0.48470633      -0.00568578       0.04394646       0.04912176
Na      24.97174538      21.41275496      66.74341668       0.07478966      -0.32196516       0.27469822       0.06088943      -0.05364850      -0.12567592
Na      21.54252834      24.32132315      67.62478728      -0.45267215       0.84328394      -0.11331600       0.16756345       0.15145413       0.30719455
Na      20.66219673      21.49833328      67.70436979      -0.30975000      -0.84299324      -0.29620358       0.20158867      -0.42299563      -0.03205402
Na      25.30513593      25.29190576      64.01049167      -0.29530982      -0.09524379      -0.54890572       0.02757762      -0.19090815      -0.02809204
S       15.61107999      15.61101041      57.90401260       0.08827556       0.28870983       0.35106222       0.11950619      -0.14431767      -0.03938339
S       15.40755602      19.90392265      62.50378836      -0.68648114       0.66304904       0.33177220       0.18126488       0.27621123       0.32041046
S       19.81163981      20.28808169      57.86780067      -1.06441196       0.18968170       0.49798994      -0.06778917      -0.38550681       0.16918421
S       20.08300410      15.70871627      62.47281093       1.00716136       0.86223318      -0.30736971       0.27585141       0.18247759       0.04565649
S       19.09667827      16.82510488      58.62845958       0.02534238      -0.03795481       0.52126754       0.41591280      -0.46627430      -0.36981783
S       19.20122482      19.32110404      61.44824451       0.13263787       0.34983320       0.20255332      -0.20276795       0.15963554      -0.04267162
S       16.12097259      19.33857480      58.92785767      -0.90491254       1.07004824       0.27664315       0.30248584       0.01177058      -0.19962661
S       16.50550278      16.55699523      61.48334576       0.63151971      -0.12242778      -0.45729930       0.37964914       0.08410216      -0.23536574
S       15.81444971      15.58607618      65.17841538      -0.21041778       0.58058175       0.41556279      -0.28628129      -0.46459147      -0.23948742
S       15.66212982      19.81973715      70.09482937       0.35711832      -0.52269799       0.59132813      -0.25424943       0.44288650      -0.17081115
S       19.88568943      20.12607231      65.26543065       0.12688569      -0.78412420      -0.10990696      -0.06727319      -0.05849321      -0.06347522
S       21.11715767      14.60119337      70.52192984      -0.87928713      -0.70211324       1.08098534      -0.46511405      -0.45563524       0.15806736
S       19.32060472      16.37281211      66.16014363       0.27226748      -0.78807998      -0.53451695       0.12820305       0.29463196       0.18053082
S       19.49791057      18.81514927      69.07661167      -0.48172537       0.14417743      -0.64496027       0.22592092       0.19381783       0.07767457
S       16.45080802      18.88267034      66.52684830       0.11702236       0.82539819       0.17070593      -0.15561303       0.25298094      -0.53563495
S       16.72128572      15.91320139      68.87068439       0.41972834      -0.16593954      -0.95374312      -0.06764981       0.23684059      -0.19393756
S       15.71290174      22.77762411      57.81646247      -0.24129178       0.88192072       0.03626148       0.42736132       0.31908135       0.24876648
S       15.59451214      27.13786164      62.40038538       0.09190214      -0.37155875       0.30771439       0.08702689       0.31535457       0.28419869
S       20.11679121      27.31665774      57.77035830      -0.28400044       0.12619796       0.34984059       0.08943214       0.54284974      -0.14330986
S       20.17291819      22.92507215      62.64671849       0.62543542      -0.82829940       0.33981197       0.10932433       0.26387346       0.22516956
S       19.48668422      23.75458486      58.93480987      -0.53779579      -0.12962190       0.55354913      -0.23045019       0.16789722       0.10716335
S       19.21555658      26.56633210      61.42798324       0.78446757       0.43778167       0.19585635      -0.35436172       0.10855361       0.06156301
S       16.55495538      26.35936994      58.64078111       0.23905999       0.97317487      -0.57649878       0.05535225      -0.36047107       0.42449511
S       16.54615163      23.71110943      61.56268061       0.05462634       0.07589617      -1.51815890       0.12087109      -0.06706528      -0.11430633
S       15.77902371      22.71771618      65.14070364      -0.13522317      -0.72209110       0.46875854       0.01119290       0.01641545       0.01512359
S       14.60473044      27.23882079      70.80167955       0.77510612       0.12359975       1.23831084       0.01028470       0.12772405      -0.22839906
S       19.95327700      27.20133430      65.17017521      -0.83872936      -0.73036485       0.43850475       0.31312546       0.20270531      -0.05415660
S       20.58084875      22.23648904      70.27816304       0.42154238       0.85234786      -0.58644816       0.10396513       0.62788731      -0.03204294
S       19.26811286      23.60613755      66.36481144      -0.73209510      -0.75893477      -0.27892817       0.00816811      -0.20614229      -0.42971875
S       19.25406211      26.44944077      69.00166199       0.12908691      -1.11173306       0.57663404      -0.46388259      -0.45779676      -0.24752369
S       16.34975464      26.11488609      66.46157701      -0.46671642      -0.10772593       0.73393504       0.28783594       0.12765864      -0.09475104
S       16.52479768      23.18396709      69.03728762      -0.10857455      -0.08965720      -0.18326667       0.03425161       0.27541411      -0.18466875
S       22.96025480      15.48940320      57.75509472      -1.36655885      -1.26255338      -0.44669169      -5.68735863      -5.84308431       1.64977661
S       22.70256066      20.07590322      62.69281582       0.53715960       0.11848383      -1.24756883      -0.12361422      -0.23106694      -0.24453200
S       26.96731004      20.15053520      57.62431491       0.24460337      -0.24523216      -0.19673904       0.40090777       0.22106410       0.07460659
S       27.58952102      16.56559451      62.51715197       2.72913776      10.58534793      -0.93866876      -0.74552164      -1.93698537       0.18807030
S       26.81222578      16.75664157      58.66148645      11.27584760       5.38631285      -5.05831201      -0.41934560       1.72293768       1.91359282
S       26.24443818      19.41643953      61.48307251       0.44868266       0.33628790       0.26210540      -0.15663982       0.03277010      -0.23063524
S       23.67539223      19.19460948      58.66161589      -0.57561102       0.86510709      -0.03884934      -1.34200996       1.33711260       0.13578053
S       23.70373638      16.34488638      61.33688886      -0.95578220      -0.24150901       0.99034275      -0.36053052       1.20689370      -0.58182306
S       22.97297777      15.57042325      65.22772967      -0.70063491      -1.66802695       2.77329241      -0.19156231       0.26058822       1.08160719
S       23.89760699      18.64621820      72.14950727      -1.33085619       1.01361391       1.15861706      -1.44481131       0.49995393       0.39523014
S       27.00973069      20.19805493      65.12228177      -0.30034845       0.31352536      -0.58497191      -0.55536902       0.07504774       0.42899893
S       28.25450723      16.73857645      70.45023036       6.31532161       2.87042898       3.87741732       0.27077938      -1.67904013       2.13146310
S       26.65474252      16.65716214      66.13343487       1.59671544      -0.20373886      -1.21022609       0.26060059       0.04012140       0.79717067
S       26.41961324      19.44733002      68.82158431      -0.26563322       0.20762964       0.26533335       0.39787380       0.83613437      -0.16899838
S       23.64989282      19.10491128      66.15054993       1.50185138       2.05916165      -1.60681021       0.24728113       0.34585310      -0.02925077
S       23.40916574      16.84953084      68.71696414      -2.50764006       2.48302970       0.93138785       1.05468776      -1.30182003       0.48990762
S       22.90765982      22.65229326      57.92007370       0.32973722      -0.51117411      -0.11683096       0.01561413       0.13351227       0.14833057
S       22.93351646      26.83748978      62.79960617       0.33575962      -0.06144762      -0.46314159      -0.19233662       0.19778907       0.00563708
S       27.29571476      27.36758590      57.84884721      -0.84786081      -1.38261123      -0.87320487      -0.06615667      -0.01180395       0.11986787
S       27.25578033      23.04801575      62.61397755      -0.18340663       0.43844875      -0.14639362       0.16931457       0.06976270       0.05147783
S       26.54443380      23.78774535      58.83075053       0.20876050      -0.64260100       0.10463061      -0.02300360       0.23010103      -0.17858875
S       26.39587338      26.42349179      61.58554208       0.15500114       0.61820828       0.88259783      -0.03801278       0.41657492      -0.19544399
S       23.48670681      26.31783705      58.90957036      -0.53932291       0.11519362      -0.98615784       0.08735592      -0.02472521       0.08429946
S       23.85717866      23.49470403      61.45380530      -0.99627700       0.02833584       0.37392405      -0.15331196       0.24104077      -0.08941944
S       22.82973190      22.66974854      65.54405372       0.32679939       1.13281076      -0.14339949      -0.18328067       0.26482104      -0.15489877
S       22.56195161      27.88823896      71.45405498      -0.36755692       0.00813645      -0.53745112      -0.63145287       0.44115343      -0.32179789
S       27.28204263      27.05752667      65.21011623       0.00966356       0.05804366       0.08174774      -0.33094174       0.32509587       0.36705039
S       27.39744579      22.05402132      72.13241761      -0.96545832      -0.83650410       1.45339809      -0.74649717       1.06169275       0.05241321
S       26.36794737      23.84848073      66.71553091      -0.21343861      -0.04675696      -0.53605333      -0.02340935       0.21665391       0.25414984
S       26.46304779      26.49652525      69.43866537      -1.99053392      -0.76010545       0.23012455      -0.30934759       0.27444011      -0.34922034
S       23.47055807      26.33533575      66.78810476      -0.15972622       0.24725513       0.42628270      -0.42435345      -0.14013778       0.01746979
S       23.57726295      23.70055762      69.61704714       0.22605754      -0.37812179       0.50987498       0.33571252       0.31829136      -0.59339432
Sb      14.73664669      14.71782041      72.53501395       1.05860047       1.01347736       2.24169618       0.60356528      -0.13001197       0.13279289
Sb      17.74370364      18.04668604      60.06765775      -0.83934189       0.07564870       0.34979794      -0.40097287      -0.14574011       0.94991861
Sb      14.40012170      28.59508310      63.85469749       0.00728301      -0.05978258      -1.04854551       0.31406222       0.66162192      -0.15893110
Sb      17.99618954      17.61236100      67.74219560      -1.62660744      -0.87431153      -0.81661763      -0.02037387      -0.57143239      -0.06463669
Sb      14.27889334      21.64813514      56.37087367       1.19106351       1.98623325       1.37314099      -0.38051942      -0.77045157       0.22645214
Sb      17.89738089      25.03723704      60.13759244      -0.78907788       1.80527628      -1.52546641       0.30226616       0.46997196      -0.19711513
Sb      14.25916083      21.46973187      63.85409227       0.03121804      -0.13509240       0.18155308      -0.44176692      -0.33017676      -0.38879215
Sb      17.84818016      24.80112834      67.77275364      -1.05126117      -0.83782487      -0.42703985      -0.21760386       0.52714060       0.88052079
Sb      21.55200562      28.66402453      56.37943648       0.46684646       0.91147753       0.89294721      -0.14848318      -0.82767240       0.08810175
Sb      25.00244927      17.94050218      60.07293382      -2.42070810       3.18877978       3.36303566       1.24895250      -0.96846452       1.37782217
Sb      21.44627735      14.39179279      63.87899176      -0.81023327       3.23592575      -0.03707322      -0.89788550      -0.37127572      -0.83993121
Sb      25.16418994      17.90976263      67.54984068      -3.47681562       5.58830636       1.58109238      -0.99269269       0.67656153      -0.22492157
Sb      21.33878042      21.51411746      56.60505841       0.90242862      -0.00551746       1.21005229       0.47042225       0.17902819      -0.40763100
Sb      25.07590482      25.08642842      60.16670798       0.09363296       0.69672225      -0.92074324      -0.21696241      -0.68323470       0.42370781
Sb      21.40290933      21.48647559      64.05959884      -0.84047868      -3.23539546       0.15629952      -0.02382294      -0.14510644      -0.06082479
Sb      24.96785788      25.13305387      68.18355253       0.80306936       2.01765332       0.69166117       0.11835790      -0.86259062       0.36860316
Na       0.74729587      -0.61236488      75.17084841       0.16922347       0.00211897       0.17651849       0.09991128       0.36202681      -0.06190128
Na       1.97777061       2.34168188      76.60880933       1.32778563      -1.53314287       1.69793386      -0.07727759       0.21995850      -0.22050547
Na       0.03340937      -0.17766244      78.44885792       1.72020016     -13.60657288      -5.06337705       8.43649432     -39.21274238     -22.21878188
Na       2.42521767       1.86541868      80.36717826       0.84965799      -1.43251432       0.88069776      -0.77858473      -0.01068409      -0.86794198
Na      -0.09476032       0.02960942      81.98390270      -0.22768377       0.14071904       0.24149143       0.00262262      -0.15525078       0.44854124
Na       1.84934789       2.02841961      84.09153951       0.11539118      -0.40187404       0.11486181      -0.48686355      -1.67216586       1.51870961
Na      -0.08240130      -0.27648472      86.23018849      -0.79898032       0.65965397       0.28263223       0.10241351       0.14097466      -0.03906282
Na       2.03682385       1.98982578      88.18234537      -0.31793112      -0.28126180      -0.36510608       0.00291509       0.12011106      -0.20898736
Na      -0.09500144       0.09670564      90.19723435      -0.12778014      -0.66124669       0.14824202      -0.05425661      -0.09369481       0.09967787
Na       1.90245915       2.10305233      92.10708334       1.34903336       1.09664079       0.00599739       0.01769632      -0.01338843       0.04603713
Na      -0.03480016      -0.03810851      94.33709543       0.64511246      -0.65518233      -0.35546164      -0.02860091      -0.06218254      -0.00974605
Na       2.03003683       1.95876520      96.00080014      -0.11827570       0.36956581      -0.05815295       0.05228956       0.00725679       0.02795191
Na      -1.40772970      13.49911881      75.48655871     -13.24355558      49.90797487      -0.67171920      -0.20781235      -0.37324876      -0.44704891
Na       2.91173451       5.41945978      77.69064767      18.24861142     -19.57511041       6.98996051      -0.52789468       0.62645252      -0.37852027
Na      -0.19618320       0.89464949      79.05854664      -5.74712521     -15.02304713       4.89836676      -8.14232256      38.83150965      21.82953151
Na       2.92055486       5.71877820      81.57116938      26.41660487     -21.62373063      38.63409906       1.09008944      -0.47405508      -2.64196872
Na      -1.08542223       3.82596868      83.76386997     -23.25660413     -19.59536531      34.71396806      -0.12634062      -0.29539064      -1.08256245
Na       2.12787206       6.17003802      83.86648869      -5.17068802      -1.19924382       1.76717254     -13.94872073       2.81720117       2.18595467
Na      -0.02016778       4.30995703      85.97757588       0.04924261       0.80263071      -0.41515935       0.81024974       0.31569056       1.36928219
Na       2.01408723       6.25230044      88.05680927       0.41872921       0.13137584       1.32579658      -0.54353171      -0.96210836       0.85208705
Na      -0.03416844       4.09622697      89.97928569       0.14720242       0.41075706       0.44521940       0.05202133       0.08736672       0.01055549
Na       1.86512319       5.92928503      92.24968064       0.04330642       0.87541754       0.32213271       0.12891257       0.06952665      -0.19901645
Na      -0.00007914       4.21189252      94.57064726      -0.93381752       0.24858241       0.24031097      -0.13297510      -0.14826318      -0.07788087
Na       2.16079050       6.03055094      96.10267674      -0.55710708      -0.18030251       0.70805229       0.03490134       0.07582157       0.01058396
Na      -9.23315766      14.04258644      74.99660484     -50.34721022      32.78643021      12.76192894      27.58173087      -2.12316937     -10.10052850
Na       2.68690422       7.40457388      87.12418972       5.82074798     -14.27874170      65.63826816      -0.23016376      -0.11897161       0.04511886
Na       3.18176635       8.35379380      81.42973521      18.40765460       3.41623666      35.94859365       1.50961126       0.71609199       0.23464468
Na       2.30404970      10.53764793      80.94220513       0.15252331       1.58390487       1.50229460      -0.63526708       0.72147466      -1.12748858
Na      -0.07605179       8.28449940      82.34465988      -1.46023544       0.16539103       1.10553402      -0.46069083       0.14823578      -0.14086836
Na       1.98970356      10.33140849      83.99274793      -0.24668909       0.00242019       1.44158024       0.77779620      -1.20003027       0.56960604
Na      -0.11621803       8.24041367      86.22945112      -0.36522767       0.90418773       0.27575864      -0.26428903       0.00199872      -0.26403662
Na       2.10954424      10.32195853      88.39850247       0.02199947       0.92674389      -0.57930504      -0.32217785       0.09413428       0.15270924
Na      -0.21374064       8.07871087      90.28018853       0.02778940      -0.02929821       0.22237173       0.10663578      -0.06052659      -0.08784350
Na       1.83228473       9.87537668      92.32698051      -0.19609622       0.10339794       0.61947978       0.04425118       0.13442521      -0.07999035
Na      -0.08828141       7.82240546      94.21093855      -1.01477134       0.30660380      -0.06956664      -0.08541807       0.05716883       0.20057133
Na       2.06499736       9.75786543      96.40647297      -0.52742055       0.47522807       0.06798962      -0.09072333       0.06609731      -0.18008195
Na      -0.95005098       6.40176111      64.44631399     -10.10528974     -20.29842673     -47.29790897      -2.32825545       3.87599183      -3.69972284
Na       1.12770806      12.05907820      83.74005719      -2.67434081     -12.63272080      46.64001376       0.01419138       0.32586231       0.09511366
Na      -0.58175006      15.78680852      81.28020574      -6.79916160      18.78801192      20.11839236     -65.04620880     -55.48453573     -32.93088238
Na       3.80458309      17.58085156      80.88242986      15.73871990      39.92431114       8.64043325      -0.01459219       0.16909755       0.06849336
Na      -0.39471751      12.24487994      82.02008697      -8.90674856      -0.92773554       0.61183038      -0.48677988       0.37447833      -0.96332743
Na       1.93824763      14.42246468      83.77896167       0.12826213       1.19192296       0.02462633       0.37618560       0.88245681       0.11522024
Na       0.25083983      12.35701334      86.28813617       0.70574724       0.13174884      -0.22265363      -0.41584321       0.14905598       0.75011825
Na       2.01924739      14.34253837      88.75146563      -0.22070192      -0.93474394       0.76105318       0.02774272      -0.13721151      -0.18434423
Na      -0.01975821      12.14340161      90.55874233       0.38797756       0.89661585      -0.20450522      -0.03017553       0.03049186      -0.11264726
Na       2.04798768      14.37752208      92.23752429      -0.31625121      -0.37875079      -1.02069089       0.01265819      -0.04631560       0.06738596
Na       0.13756497      12.30914677      94.54223770      -0.31569415       0.36619230       0.16469821      -0.04969113      -0.05994990      -0.01778533
Na       1.91330855      14.52358078      96.25168423      -0.31965882      -0.40786607       0.57989598      -0.00017328      -0.03210831      -0.02649226
Na       0.43551246      16.01813229      73.54074112       0.16422498      -3.79624969      -2.64336079      -0.26393425       0.14673067      -0.45769457
Na       2.41371799      18.56816313      75.52107086      -1.03107143      -0.16339900       0.52275745      -0.35631901       0.25988516       0.06882825
Na      -0.00409650      15.41217426      77.06070457       0.37584255      -3.22723825      -2.02845972       0.32637164       0.25958158       0.39320131
Na       1.99379633      18.12886452      79.21150503      -0.89394828       0.32253292      -0.62103985      -0.54004812       0.45946607      -0.52054450
Na       0.20836417      16.45744289      81.68049075      14.38919851      15.04025078       9.81451787      65.28560791      55.20306750      33.10906585
Na       2.20502007      18.45448792      84.10208649       0.28319672       0.08065673      -0.50076832      -0.03434975      -0.10131116      -0.00358570
Na       0.02519312      16.15528726      86.12608126       0.20570897      -0.21958141       0.41617616       0.09852659      -0.05783742       0.03809798
Na       2.02921610      18.25327815      88.22884615       0.26076647       0.30776383      -0.33412276      -0.00228002       0.04320466       0.00119977
Na      -0.09717196      16.38226545      90.31094905      -0.86927489      -0.59198343      -0.03519286      -0.00960799       0.03743356       0.10129893
Na       2.16857970      18.36035701      92.41956125      -0.64793969       0.12558392       0.05907188      -0.13901561       0.00496550      -0.12907045
Na      -0.18931707      16.48447831      94.39578230       0.49999179      -0.19929860      -0.56536235       0.03099622       0.06137022       0.04955359
Na       2.21196166      18.56663078      96.25821927       0.65125153       0.31882136       0.89973977      -0.17022926      -0.03569828      -0.08666263
Na       0.28495425      19.98266855      72.51228788      -0.33913907       0.12543395      -0.30187823      -0.00177561      -0.86700287       0.36064825
Na       2.99678901      22.20025348      74.87548377       0.41939328       0.42816415      -0.52341451      -0.08915723      -0.12083250      -0.14272422
Na       0.38225305      20.89145035      76.99858492      -0.47461337       0.65094517       0.76552559      -0.01536739      -0.06967420       0.07662303
Na       2.30403942      22.30363102      79.65965589      -0.14400443       0.65141131       0.14763532       0.00111075      -0.08531833       0.18908921
Na       0.09900580      20.45452017      81.77441074       0.73605148      -0.55115684      -0.14064318       0.06745845      -0.06761245       0.03619318
Na       2.14920726      22.38997788      84.09440238      -0.06831403       0.60997028      -0.23077938      -0.01564522       0.01081635      -0.03288244
Na       0.09480497      20.25015182      86.22717743      -0.44200793      -0.99174290      -0.25331112       0.00824357       0.08385681      -0.00656973
Na       1.95836139      22.34465181      88.32256891       0.06547109      -0.07435815       0.10477464       0.04169740       0.03605387      -0.01878190
Na      -0.03454081      20.21967201      90.34016465       0.05275520      -0.89669978       0.27277041       0.05560772       0.09945227      -0.03052192
Na       1.99710871      22.44495531      92.22684114       0.26186067      -0.04235618       0.28269307      -0.00656993      -0.02818048      -0.03684255
Na       0.00594132      20.56577644      94.36734114      -0.00529184       0.33961111       0.41153104      -0.03609916      -0.14741217       0.02513336
Na       1.94107482      22.47737917      96.25366380       0.13324897       0.34243908       0.55271303      -0.06242101      -0.02892681      -0.00652214
Na      -0.70284841      24.62344544      70.67185608      -0.44420232      -0.14228813       0.62360120       0.30543449      -0.28462205      -0.07794558
Na       2.01354886      25.33599369      75.36467240       0.83515522      -1.51673088       0.22175129       0.05654675       0.01131091      -0.05584499
Na       0.27664757      24.28910711      77.97989427      -0.24159863       0.37128575      -0.25642300      -0.09386967       0.16265048      -0.00529562
Na       2.31197678      26.58580274      80.23319303      -0.48130746       0.74754839       0.39085729      -0.08014790      -0.06391340      -0.01177917
Na       0.02895692      24.37093161      81.78436212       0.59834217       0.43932885       0.29884889       0.04684418      -0.00852942      -0.00071029
Na       2.03449079      26.37942695      84.06663117      -0.71538306       0.38848906      -0.20590841       0.00487211       0.01187007      -0.08370397
Na       0.26048134      24.48047879      86.28204323      -0.52943901      -0.18115676      -0.26178512      -0.15110589       0.00954163       0.03567034
Na       2.00626080      26.53443176      88.59052152      -0.25502305       0.06426318       0.78795690      -0.10596996       0.09504909      -0.19148118
Na      -0.11924559      24.44410663      90.35107380       0.18381635      -0.53790306      -0.13950146      -0.00321637       0.01331101      -0.02388731
Na       2.03777079      26.55074034      92.32144056      -0.05347659       0.35586706      -0.07017839      -0.09489381       0.04304660      -0.01831544
Na       0.00778205      24.51392099      94.35696746       0.01166745      -0.36317094       0.45291574      -0.07698650      -0.01182326       0.02539399
Na       2.09707773      26.38563542      96.24845338       0.09418436      -0.16483789      -0.44387282      -0.03178007       0.17076005      -0.05539127
Na       3.58426028       0.87621717      73.98036128      -0.82246683       0.48619480      -0.12598174      -0.07216883       0.11084179       0.40513394
Na       6.14303105       2.17073037      75.96343519      -0.00326187      -0.47525931       0.32568260       0.00780860      -0.06976359      -0.14270819
Na       3.70909464      -0.23012710      77.59027275      -1.01266610       0.20784389       0.71743944       0.04310520      -0.04102750      -0.12288812
Na       6.12671369       1.68551847      79.89081045       0.32815060      -0.52075543      -0.37130002       0.99448436      -0.80309337      -0.47747005
Na       4.04595418       0.02691905      82.36734746       0.86720732      -1.20139705      -0.00500885       0.20191256      -0.91190120       0.27318126
Na       6.43711753       1.97856493      84.18135443       0.78115501       0.11079478      -0.40817204       0.16199290      -0.60347970      -0.03492764
Na       3.90495760      -0.07443178      86.24436449      -0.76156314       0.05308363      -0.15008325       0.14538283       0.04836732      -0.06064416
Na       6.31019682       2.00654690      88.15170625       0.01810853       0.01859469      -0.03775866      -0.11393156      -0.01292002      -0.03334717
Na       4.15300404      -0.04097407      90.19189270      -0.38098261      -0.63920623       0.00590246       0.01243611       0.06976225       0.06883171
Na       6.23784437       2.11707326      92.22559095      -0.11526705       0.54892236      -0.77590567      -0.13760198       0.03367054      -0.03612250
Na       4.01542181      -0.09199352      94.21250752      -0.60059647       0.23768377       0.59551794       0.01882736       0.01912734       0.02035871
Na       6.07182655       2.11255115      95.90532544       0.23370609      -0.75182851       0.09198497       0.04439688       0.00833581       0.10454697
Na       4.57025503       2.67927833      81.53961913      13.81782601     -33.22523575       8.68506308       0.85598984       0.66364761      -0.08413322
Na       6.03997204       6.77827735      75.96009577      -2.18001380       1.87183603      -1.50209014       0.00294550      -0.13498977      -0.22918132
Na       4.61207585       3.62598057      78.44875453       3.81497843      -4.02130675      -2.70972892       0.23447076      -0.17244672      -0.16536842
Na       6.83319132       6.06717841      80.07791366       9.51165222      -6.35165963      -1.47239143      -1.03015334      -0.28409536       0.85630789
Na       4.21132488       4.23837738      83.42706211       2.91701551       7.87052472      39.21770974       2.39437659      -0.51886495      -0.07998826
Na       6.23884478       4.75063078      85.61399906       4.19960683     -38.18578533      36.26494919       0.42141821       0.58474071      -0.75296577
Na       4.15284225       3.92413252      86.05227614      -0.96036700       0.70513797       0.29188333      -1.50631124      -1.08320974       1.60872276
Na       6.04799054       6.07078014      88.14063970       0.35285187       0.38651557       0.10593909       0.01700781       0.44003898       0.78940158
Na       4.05053974       3.92639177      90.03334893       0.58388045       0.06532071      -0.54463121       0.03468143       0.13389394       0.02760361
Na       5.89475385       6.07770731      92.25924924       0.01357572       0.05882579       0.23270525       0.03708164      -0.02973219      -0.08090069
Na       3.98936206       4.01505049      94.21094988      -0.02968983       0.00357032      -0.00499406      -0.02920176      -0.05052386      -0.01813310
Na       5.95556233       6.13396964      95.97781224       0.33370903      -0.76104691      -0.56863437       0.10390370      -0.03422668      -0.04678838
Na       6.86104896       8.06380031      84.90132395      20.58066122      30.82725404      31.26769556      -1.18679957      -0.92830469      -0.56691442
Na       7.32117829      10.19636437      75.16491539       4.23160569       0.65799014       3.78657150      -0.95470197       0.48798191       0.72533558
Na       7.51841797       7.76533731      78.84106225      19.22937573      -7.18317305       1.20343435      -1.28209519      -0.21086813       1.04702858
Na       6.45259726      10.62539140      80.47963634       1.53544762       1.70641817       2.11053703      -0.24104484      -0.11188294      -0.16377193
Na       3.53599446       6.02212566      83.89321243      -2.91108205     -29.00321819      19.62094854      14.35185302       0.39704551       1.49562406
Na       7.67734207      10.39790204      84.43220755      34.19436853       2.05072647       8.11205668      -0.82294198       0.86186021      -0.96023124
Na       4.16909943       8.36088253      86.39786713       0.50335951       0.41432531       0.72762987       0.69512434       0.56976207      -0.55912987
Na       6.32223050      10.15642326      88.24229348       0.47189193      -0.53440674       0.86039179       0.25717592      -0.23229437       0.40089709
Na       4.10622711       8.11959679      90.14483947      -0.33742525       1.10977236      -0.52354070       0.06840727       0.01908549       0.24143670
Na       6.36280840      10.17133625      92.32064919      -0.71818074      -0.02475196      -0.59592986      -0.06747286       0.01045348      -0.00280544
Na       4.14401501       8.37430921      94.14611943      -0.16026608      -0.77705309       0.62114255      -0.07489466      -0.18674100       0.05916063
Na       6.36403260       9.96236821      96.07722033       0.61783093       0.43197888      -0.24841026       0.00409264       0.04981059      -0.03561331
Na       4.48350611      11.38965431      86.27486477       0.74581506      -6.44529803      42.85095609      18.86733044     -44.51458176       2.58794311
Na       6.62404771      14.05471191      74.83452685       1.30983494       0.99734254      -0.86702414      -0.13472578       0.01771176      -0.53388208
Na       5.14527140      12.97890113      77.95956670       1.88363696       2.66018957       1.75113924      -0.80281741      -0.35348247      -0.47158724
Na       6.22880714      14.19454531      80.03340664      -0.21108245      -0.47963541       1.93670370       0.34795049       0.52366946       0.48337859
Na       4.19393771      12.47609426      81.71743198       1.36550341       1.82250758      -0.73607013       0.06146412       0.33610549       0.32483874
Na       6.20180040      14.24518478      83.88042784      -0.12576069      -0.36402389      -0.41085780      -0.00454563       0.02762793       0.08562453
Na       4.00150250      12.53288130      86.20294189     -15.40051734      34.66172984       9.65016024     -18.89673488      45.00492951      -2.85832365
Na       6.13894048      14.30652722      88.40906042       0.21852575      -0.15427691       0.39436746       0.00030587      -0.10109754       0.05519547
Na       4.13265135      11.92259969      90.39208936       0.17028053      -1.16664171      -0.14124395      -0.02422843       0.07864260       0.03024507
Na       6.04847862      13.95552919      92.23903100      -0.71929013      -0.31262316      -0.48363043      -0.04924379       0.16427789       0.08311472
Na       3.83336411      12.06596601      94.63158845       0.25866715       0.40830458      -0.22266092       0.08569939       0.02809793      -0.08903990
Na       6.14408888      14.09115686      96.17500831       0.61809473      -0.29190652       0.65419261      -0.08849692       0.11885602      -0.11849452
Na       4.06052527      16.35940371      73.92852913      -6.15968568      -2.83099096      24.71081302       0.29192556      -0.53969668      -0.62112688
Na       5.96206620      18.64898107      75.40559082      -0.67459461      -0.11051458      -0.61028361       0.06170045       0.00104411      -0.16375227
Na       3.93719347      16.00538041      77.09146039      -0.28865127       0.34384610      -0.36758698       0.05055489      -0.04653711       0.19905077
Na       6.04967377      18.06282114      79.17259830       0.04314420      -1.07496259       0.15368872       0.47079150       0.12370437      -0.20697021
Na       4.17972454      16.05893005      81.90273806       4.13567152      -2.31183847       7.54121916       0.15322657      -0.75335591       0.55819348
Na       6.12683258      18.23356142      84.00727050      -0.21283318      -0.38440561      -0.02741634      -0.00486270      -0.04199215       0.07224494
Na       3.99099350      16.15430600      86.31786921      -0.09152275       0.14561626      -0.11540966       0.04859230       0.00466916      -0.12517206
Na       6.26910446      18.22455590      88.29321029      -0.16871479      -0.25135887       0.77082539      -0.05158240       0.11933380      -0.01740218
Na       4.16940595      16.44028303      90.21012419       0.43668233      -0.63126208       0.57655988       0.00382221      -0.02411093       0.16291366
Na       6.07345106      18.47888830      92.41066451      -0.10968075       0.30302971       0.46306056      -0.00859629       0.00915655      -0.05712981
Na       3.93153987      16.33942741      94.33466823       0.20578991      -0.53560256       0.15704626       0.18084572      -0.10847821       0.04087945
Na       5.91269167      18.40854299      96.17735686       0.75392191       0.72678148       0.22020546       0.04762674      -0.04624710      -0.02781450
Na       4.04491448      19.88985751      72.55442371      -1.09108674       0.49594983      -0.86310931      -2.20817692       0.09236136       0.31026646
Na       6.18600777      22.83194377      74.89419075       1.02416081       0.09420028      -0.63007433       0.17447479       0.19024320      -0.29808144
Na       4.44905233      20.69987647      77.61113771       0.43999959       0.28350316      -0.29815540      -0.08679166      -0.05515628       0.01343454
Na       6.40376156      22.30364241      79.81819549      -0.13926807      -0.16200681      -0.51081909      -0.06206032       0.01943738       0.02598975
Na       4.36853745      20.28769790      81.82729203       0.22768441      -0.15178153       0.01564945      -0.02637841       0.39701070       0.05640252
Na       6.01967480      22.38965187      83.95507705       0.97469553       0.38985089       0.39010617       0.16595717      -0.01433665       0.04202625
Na       4.26365138      20.53815628      86.07575058       0.02567334      -0.72200074       0.11970451      -0.05279384      -0.11196589       0.15036652
Na       6.04423853      22.48986863      88.33037163      -0.05935317      -0.22860899      -0.26415207      -0.02174600      -0.05424835       0.04850958
Na       3.96046276      20.33047604      90.13728789      -0.67079785       0.28544645       0.50240881       0.07149046      -0.02441440       0.05109258
Na       6.02426808      22.28515145      92.17750723       0.79244422      -0.17733194       0.33360318      -0.00174880       0.10990146       0.05371890
Na       3.95859681      20.47275455      94.31429439       0.21174366       0.11604014       0.53554649       0.03767832       0.06215116      -0.00066831
Na       5.89747341      22.25492830      96.32389203       0.79463816       0.09198748       0.11990709       0.08898313       0.10757785      -0.15986877
Na       2.97924780      25.42751997      71.25719977       0.02936589      -1.13438292      -1.62297626       0.19967452      -0.48287927      -0.25443069
Na       5.78738009      26.75482529      75.01716778       1.31234429       0.16309916      -0.50417014       0.49650640      -0.01122194      -0.12872815
Na       4.13437972      24.39688772      77.61194126       0.02242974       0.12616038       0.21813698       0.12297275       0.05457664       0.14846080
Na       5.95883932      26.77756022      79.65454288       0.17261616       0.00781284       0.88149270       0.15883610      -0.08189219       0.10235077
Na       4.20542661      24.30708964      81.93082577       0.23993187       0.39552185      -0.18462350      -0.02645434       0.01772574      -0.07957696
Na       6.24873697      26.33670184      83.85313000      -0.22576619       0.22688274       0.19889125      -0.10069950       0.02628610      -0.04083164
Na       4.19265489      24.76280079      86.27675757       0.72352618      -0.02518589       0.58266757      -0.07279218      -0.14283447      -0.03810879
Na       6.18409834      26.41565770      88.44303345      -0.02401515       0.31524978      -0.21889901       0.00737844       0.06698410       0.04470963
Na       3.74998508      24.56972041      90.30008290       0.69012334      -0.63504446      -0.12427283       0.26055524      -0.17634052       0.04512170
Na       6.06323553      26.27721506      92.39390097      -0.06392725       0.34159945       0.82642301       0.00679219       0.04961237      -0.08985110
Na       3.85168224      24.33853431      94.48794816      -0.13339635       0.03066168       0.23069203       0.19715666       0.04157921      -0.13626670
Na       6.07909545      26.58248241      96.07043246      -0.35465059      -0.08633433       0.80900194       0.02406071       0.01412453      -0.00508738
Na       8.19793933       0.50961950      73.06156658       3.60466588       3.05258489       2.28242533      -0.10423986      -0.70217019      -1.05903742
Na       9.69924499       2.13426051      76.12684661      -0.32475637       0.82506525       0.40342680       0.10738260       0.15048367       0.12325542
Na       8.11937308      -0.18381522      77.21095171      -0.25365036       0.48527539      -0.19542360      -0.19638373      -0.00052493       0.16816451
Na      10.21561192       1.78037766      79.83422009      -0.71167416       0.36255608      -0.47943376      -0.14091633       0.08577538      -0.00830803
Na       8.33506748      -0.06972003      82.11388933      -0.13958833      -1.16111213      -0.00632128      -0.10751157      -0.03255457      -0.06235120
Na      10.08913135       2.08482652      84.09172136       0.28762197      -0.14088555      -0.54638957      -0.01488298      -0.06343354       0.06436147
Na       8.05877438      -0.61471173      85.99909924       0.24995549      -0.44741535       0.22282028       0.01104317       0.29152260       0.15875334
Na      10.22018151       1.99314599      88.12867723       0.20638516       0.10826662       0.50016728      -0.24704600      -0.01074799      -0.01316484
Na       7.98806338       0.19020337      90.35507949       0.30962527       0.39635728      -0.45171155       0.19625026      -0.23274752      -0.03592201
Na      10.23121333       2.23355185      92.12438370      -1.11295918       0.08827993       0.04794195      -0.07839987      -0.09683723      -0.02650190
Na       8.21070542      -0.06239010      94.32413434      -0.13179403       0.55204206      -0.03600353       0.01040713      -0.03255719      -0.07111728
Na      10.11998034       1.93531214      96.10508053       0.38381105      -0.44595686       0.10433318      -0.01176607      -0.03039707       0.00183757
Na       7.81939846       4.05219793      71.40146224      -0.75576576       1.77874836      -0.07946782       0.22696068       0.14131189      -0.42458012
Na       9.67064786       5.91342210      75.57365154       1.19641178      -0.59812496       0.73604693       0.13807124      -0.10612454       0.09172013
Na       7.93966759       4.27335674      78.35363331      -0.41861806      -0.81499029       0.06226280       0.41652236      -0.47658037      -0.38019859
Na      10.10527304       6.31649108      80.30031253       0.41743852      -0.17250515       0.59647645       0.49720772      -0.14991357       0.01259607
Na       8.11627594       3.95720770      81.91037068       0.04315166       0.52743736       0.06265111       0.09651050      -0.15382608       0.23513127
Na      10.26073845       6.17743758      83.84942460      -0.20889054       0.43681635      -0.38676364      -0.04986119      -0.08500404       0.15760281
Na       8.13983031       4.28578449      86.25103239       0.66768944      -0.04921397       0.62511801       1.50979658      -0.33453178       0.30570375
Na      10.20530966       6.36099976      88.09285239       0.09000994      -0.19360617      -0.05038871       0.02686034       0.06487181      -0.05388010
Na       8.26057495       4.43158168      90.13120312       0.30870807       0.52564624      -0.23820425      -0.08234693      -0.20474846       0.03193487
Na      10.61747993       6.20014733      92.03338362      -0.20587345       0.07909056       0.79346807      -0.11880047      -0.00551149       0.05350470
Na       8.19110528       4.09050732      94.10183923      -0.24031098      -0.07964702       0.04753684      -0.03509915      -0.01681762       0.03167344
Na       9.98477958       5.86369303      96.01968877      -0.36272803      -0.17754201       0.78183916       0.11614433       0.05972022       0.10037016
Na       9.00501430       7.37382022      72.91775264       4.05493161      -0.25733575      -0.38724324      -1.32357177       1.61434462      -0.56880388
Na       9.93763893      10.17443742      74.93684097      -0.28199972      -0.17464140      -1.71954520       0.50979337      -0.07820973      -0.40051454
Na       8.43673248       8.39528116      77.77957195       2.05055561       0.31950508      -0.34079314       1.57519348       1.05434598      -1.51947916
Na      10.38614575      10.25578596      80.01582317      -0.23584616       0.01532432       0.46312261       0.10332785      -0.05117843      -0.02664961
Na       8.10349297       8.45138948      82.06334435       0.70455979       0.37581211      -0.17305559       0.20094720      -0.20008937      -0.06003697
Na      10.37164617      10.46159783      84.12354222       0.46648879       0.11776144       0.51577819       0.76496426      -0.01319946      -0.14420888
Na       8.18826985       8.23833974      85.95189913       0.70728488      -0.64064618      -0.24009082       1.15863040      -0.50521468       1.28160545
Na      10.16511211      10.14186600      88.18742447      -0.37149275       0.17097301      -0.49691929      -0.00904467      -0.03780938       0.04182840
Na       8.14551092       7.97419658      90.37184152      -0.19639969       0.09031772      -0.13658670       0.01948516       0.12817404      -0.12664517
Na      10.40990227      10.15748157      92.40250805      -0.64843675       0.24453319      -0.47567134      -0.00791078       0.08097015      -0.17425727
Na       8.39566002       7.94791186      94.11010452      -0.16983309       1.03860347      -0.50601168      -0.14309186      -0.01163239       0.07221003
Na      10.35528877       9.90949050      96.01294016      -1.08541512      -0.53234263       0.23637144      -0.02780832       0.11475539       0.07416968
Na       5.63414757      11.65503984      71.26220706      -2.94880214       0.18329817       3.58520398       1.58702164       0.62092366       1.44572000
Na      10.24936107      13.68227059      75.31009495       0.20252904       0.02256125       0.18803281      -0.00704407       0.07574632       0.00240093
Na       7.95866670      12.04885722      77.64826024       0.75363852      -0.41075904       0.77894316       0.60461923       0.08082753       0.09648311
Na      10.17604584      14.33003020      79.25434874       0.02218519      -0.02234686      -0.61094266       0.07298894       0.01252692       0.18460978
Na       8.50908580      12.52814287      81.76224062       0.24665224       0.21138334      -0.42878427       0.17898887       0.14510062       0.16912809
Na      10.18297168      14.42080099      84.12116780      -0.27588028      -0.22395089       0.47275581       0.00250162      -0.10677145       0.02396191
Na       8.08217360      12.17298680      86.10978049       0.32038003       0.86046485       0.34552109       0.27450522       0.88413619       0.74439736
Na       9.88079773      14.39789936      88.42658920      -0.32939626      -0.53328709      -0.41736668       0.07453373      -0.05113737      -0.02653515
Na       8.27595702      12.14710882      90.41782429       0.10418930       0.27078686       0.53850356       0.02003938      -0.02676358      -0.10838909
Na      10.31115046      14.19550320      92.35113863       0.12458206      -0.07748088       0.29724466       0.00156584       0.05030080       0.01097706
Na       8.27310806      12.32939581      94.39695478      -0.26392190      -0.08091334       0.52742549       0.04811050      -0.10683398       0.01864368
Na      10.38989883      14.45165967      96.12180533      -0.17981976      -0.47314740       0.37986788       0.05308829      -0.10941378      -0.06647947
Na       8.12748529      16.82462228      71.49234973      -0.84005778      -0.93672247       0.08727470      -0.47257240       0.11304945       0.02423231
Na       9.25263254      18.19309048      75.29412510      -0.48657756      -0.24688242      -0.56830439       0.11433976      -0.04577660      -0.16706456
Na       7.87174115      15.76207903      77.30378976      -0.69476095      -0.81527223       0.85560763      -0.01852507       0.10691325       0.01619057
Na      10.03480810      18.08149148      79.19133862       0.14656663      -0.39395143      -0.59913400      -0.04879295       0.13370327       0.07582114
Na       8.24930615      16.27550495      81.80717892      -0.02924071      -0.13848847      -0.56969159       0.03025424       0.07788513       0.00926737
Na      10.25580150      18.17738760      84.18243206      -0.16446821      -0.21920425       0.12900958      -0.03853879      -0.00283310       0.00927342
Na       8.00739031      16.16668418      86.16772387       0.01216235       0.09104842       0.13369294       0.02205403       0.05661053      -0.01636165
Na      10.26350091      18.24195760      88.34809480      -0.02737641      -0.19901773       0.95210647      -0.07752017      -0.06325745       0.02952280
Na       8.03042749      16.35729080      90.53350785      -0.18394281      -0.07941564       0.36165801       0.01475879      -0.05904652      -0.00750354
Na      10.36277911      18.13336961      92.12962487       0.27559967       0.42538787       0.07917049      -0.05589034       0.05982894       0.12200702
Na       8.01114773      16.35139411      94.42345315      -0.00367571       0.34903446       0.24230548       0.03234919      -0.04888846      -0.05718920
Na      10.25038254      18.14783509      96.13403300      -0.09872422      -0.39465026      -0.57910132       0.13709522       0.10090851      -0.04245902
Na       7.46517631      21.06192565      72.24717939       0.44175397       0.18400031       0.05579040       3.87506719       3.67861905       0.40803205
Na      10.19155627      23.31256787      74.34843269      -0.02678968       0.19461142      -1.42503584      -0.04227228       0.26316944      -0.16351259
Na       8.27992313      20.89918409      77.01046744       0.18686898      -0.09415683      -0.00533452       0.09382791       0.05860289       0.10835272
Na      10.12548740      22.38761074      79.91582028      -0.43068184      -0.27805692      -0.12525196       0.17123718      -0.02452971      -0.20022498
Na       8.32088205      19.93824200      81.78302082      -0.11362628      -0.05294729      -0.55301974      -0.07724245       0.07612836       0.02472977
Na      10.13392040      22.24035748      84.05076319      -0.28627160      -0.88533895      -0.48537669       0.04509393      -0.03438859       0.03114043
Na       8.17396325      20.30605453      86.21827738       0.94818521       0.19254470       0.11408883      -0.06303441      -0.02097840      -0.04044869
Na      10.17899344      22.32341838      88.06820474       0.04211601       0.28107805       0.04312165       0.05559900       0.08019690       0.11424326
Na       8.31881801      20.39147770      90.34662584       0.48811372       0.08052364       0.37977763      -0.06923671      -0.00439266      -0.00866318
Na      10.25826690      22.56822907      92.38897929      -0.22716574       0.44986736       0.01628180       0.01225901      -0.08979059      -0.04379644
Na       8.24225421      20.29692362      94.58929288      -0.32118112      -0.44937917       0.48251737       0.00826240       0.07864238      -0.09366902
Na      10.68174156      22.45900871      96.12478639       0.12146445      -0.25841294      -0.05947650      -0.06244009      -0.02117280      -0.10463568
Na       6.14648035      24.37396527      70.41155946      -1.23894402      -0.51835820      -0.66632001       0.69975197      -0.38001047       0.57082199
Na       9.95674771      26.72800458      75.36753151       0.15545923      -0.27852356       0.85234288      -0.05075064      -0.23630361       0.06221848
Na       7.88894515      24.52385167      77.32308411       0.62183139       0.27255084      -0.00596593       0.12109745       0.06605543       0.03092961
Na      10.14892565      26.47878637      79.73533899      -0.11735229      -0.22296390       0.09339053      -0.06574404       0.02929913       0.01284249
Na       8.34146743      24.11366629      81.88345363       0.03545483       0.24523397       0.33838210      -0.13111343       0.25632773       0.11604845
Na      10.23197722      26.43643199      84.14480754       0.28543436       0.32812816       0.24367154       0.03881909      -0.03665665      -0.02563941
Na       8.07065044      24.28743466      86.22834455       0.38439831       0.21760375      -0.09271840       0.03987642       0.02953807      -0.07077747
Na      10.18673915      26.38824132      88.27211622      -0.17173465      -0.11562540      -0.00718954      -0.01625681       0.04093829       0.00342317
Na       8.13766004      24.35100586      90.29627300      -1.12874679       0.15860714       0.07898927       0.05373450      -0.01895563       0.01048897
Na      10.17966137      26.42468819      92.15783638      -0.12258602      -0.19188782      -0.09552772      -0.04594204       0.07292478       0.01760816
Na       8.24473565      24.32740611      94.37583829       0.11093631       0.63295261      -1.06842924      -0.07135140       0.02614653       0.09245561
Na      10.46419310      26.58751604      96.14859211       0.06246569       0.89254468       0.16398530      -0.03853416       0.01458227      -0.15516239
Na      11.40717217       0.27588197      74.33972194      -0.40880390      -0.21774298       0.64872287       0.24578821       0.01029590      -0.05147003
Na      14.48166130       1.99336604      75.66222386       0.63300168       0.00609863       1.10256417       0.06863129       0.01861852       0.04095694
Na      12.13127229      -0.06982095      77.68454598      -0.57476126       0.17577071      -0.18918351       0.05546923      -0.06274010       0.01416685
Na      14.37490328       1.70208495      79.78880323       0.07159049       0.20818521       0.27025383       0.03606147       0.08430218      -0.09606242
Na      12.28389655       0.13561807      81.96317931      -1.17348019      -0.23158466      -0.08970265      -0.03633315      -0.18430812       0.09562247
Na      14.43346808       1.92338810      84.02222646       0.40594519      -0.29246766       0.64200821       0.02308804      -0.04144291       0.10820279
Na      12.20430163      -0.11816365      86.31626282       0.39008072       0.11845013       0.22801464       0.04799702       0.00046088      -0.05459349
Na      14.28967682       2.07772165      88.22052309       0.19104730       0.05927883       0.31195194       0.05594789      -0.03117084      -0.01891723
Na      12.08393690       0.14932538      90.16275945      -0.70018528       0.28622055      -0.55010742       0.10870330      -0.13479969       0.03866054
Na      14.51956959       2.21974768      92.05628483      -0.06939234      -0.21039523      -0.40889305      -0.11879580      -0.03863130      -0.02945076
Na      12.21049448       0.00477369      94.05463908       0.49335332       0.22341007      -0.16381415      -0.02571347      -0.00770416       0.03892974
Na      14.08639396       1.91056241      96.00972825      -0.43693972       0.01650594       0.60213950       0.11023163      -0.00215863       0.00127468
Na      11.48627269       3.41339281      73.70099788      -0.60850498      -0.54716476      -0.81042172       0.28581267      -0.29712821       0.19310952
Na      14.35770536       5.85359301      75.66128018       0.03826566      -0.81194522       0.81195180       0.05953098       0.02789726      -0.02834821
Na      12.21878556       4.16722994      77.63824624       0.64724831       0.54278010      -0.44641270      -0.04405164      -0.13160386       0.08402243
Na      14.36132178       6.19680608      79.87376669       0.30655255       0.52806281      -0.72104710      -0.10698101      -0.01964507       0.03256882
Na      12.26283264       3.88695015      81.97121499       0.49085252       0.76971089      -0.47438547       0.00532644       0.04718424      -0.02054188
Na      14.30311245       5.86980946      84.28972224      -0.38223333       0.07576701      -0.38603486       0.04049697      -0.00662566      -0.08985565
Na      12.09748797       3.83032443      86.07360590       0.27001134       0.74833006      -0.39942985       0.03522467       0.14015554      -0.00669963
Na      14.14590099       5.83251515      88.23255024       0.48284698      -0.21157105      -0.11916299       0.13894527       0.10476967      -0.03361446
Na      12.03283895       4.17134569      89.99813973       0.29111762       0.14252084      -0.11381541       0.07887633      -0.16242038       0.02367074
Na      14.33289917       5.90958060      91.98957524      -0.84948133      -0.39094555       0.53596886       0.05030780      -0.05899313       0.06006109
Na      12.09957499       3.94508673      94.29446180      -0.12590280       0.01240212      -0.01992332       0.13847237       0.10048880      -0.02105600
Na      14.35650697       5.99029017      95.99683757       0.05817735      -0.24792587      -0.06430036      -0.05496833      -0.04006834       0.17440068
Na      11.92655075       7.37134670      73.41435722       1.54967985       0.48185375      -0.13413879       0.20758887      -0.34248095       0.09994122
Na      13.78567789       9.75636546      75.49961036       0.07130208       0.63304958       0.02466710      -0.06845228       0.04972875      -0.20560417
Na      11.89082235       7.79029573      77.55468706       0.11989366      -0.27099125       0.01678689       0.03543214       0.10084165       0.07945753
Na      14.21733518      10.15801261      79.72965609      -0.64876551      -0.16067594      -0.34992858      -0.01528298       0.01956137       0.01768444
Na      12.52196303       8.26405889      82.24223989       0.01468217      -0.34185494       0.15368273      -0.02937310      -0.00819443      -0.08248271
Na      14.52789034      10.32325619      84.18006639       0.27838361       0.44482043       0.22840370      -0.07947946       0.01056560       0.02733803
Na      12.31993234       8.19920451      86.05828493      -0.47807687       0.33303950       0.15439494      -0.00753194       0.00222037       0.06612432
Na      14.22519441      10.37300239      88.18372833       0.18913217      -0.10462648       0.55096170       0.13118001      -0.10612588      -0.00817310
Na      12.59310661       8.34821636      90.32800107       0.42698010      -0.04025261       0.87486610      -0.08270628       0.00873804      -0.11581388
Na      14.51071503      10.42310626      92.43474779      -0.07235428       0.16904205       0.04265887      -0.02587194      -0.16799881      -0.11462004
Na      12.35296829       7.95029620      94.37449805      -0.06258490       0.77659773       0.89077109       0.09677389       0.03216786      -0.01873001
Na      14.40522943      10.15645846      96.29194491       0.40571764      -0.03331228      -0.04663056       0.05644108      -0.06634686      -0.17748450
Na      13.13278119      12.22967373      71.55414974       0.24807507       0.12935848       0.35187054      -0.62487564      -0.14363196      -0.19668120
Na      14.17300304      14.08987320      75.66929375      -1.00662436       0.20199816       0.13745658       0.00330858       0.06411622      -0.02380600
Na      12.23603492      12.18785168      77.65723120      -0.01528713      -0.53714445       0.85098413      -0.02711550      -0.17426867      -0.00194556
Na      14.19578592      14.59025166      79.23851238      -0.27872113      -0.51279462       0.06533619       0.06684267      -0.03488630       0.12816555
Na      12.38014999      12.59432428      81.92255408       0.46131014       0.12735151       0.54361811      -0.01799315      -0.03560437      -0.02376712
Na      14.27888490      14.68174554      84.14541038       0.08136359       0.08461407       0.64464313      -0.05614945      -0.21163816      -0.01712686
Na      12.22353723      12.36611287      86.32950561       0.11903378       0.64318666       0.46498260      -0.06164347       0.02944638      -0.10413779
Na      14.55710010      14.29862543      87.89718599       0.36523152      -0.25492956      -0.94103524      -0.11284512       0.03257485       0.25905293
Na      12.26033857      12.41818235      90.04147610      -0.19478706       0.13187555      -0.14442465       0.00253885      -0.07671309       0.10056179
Na      14.44069376      14.07681683      92.22535571       0.61575261       0.57238531       0.04514803      -0.04825181       0.12103402       0.08558529
Na      12.53918969      12.18097605      94.40010820       0.16521249       0.52091608      -0.01744359      -0.18569213       0.03581663       0.04913841
Na      14.44095892      14.23686059      96.06514693       0.14928082       0.07669845      -0.20775962       0.01498597       0.08860708       0.14593622
Na      11.78282575      16.35221178      73.63669978      -0.20133650       0.26099907      -0.82705685      -0.00624005       0.08269259       0.05356437
Na      14.38943480      18.35492787      75.40071945       0.21902908      -0.40248145       0.28285843       0.07842949      -0.03812337      -0.07234511
Na      11.97797213      16.51774188      77.06978338       0.38913601      -0.24020319       0.22456585       0.00652465      -0.08510724      -0.04327582
Na      14.24210668      18.30813708      79.20459710       0.07327986      -0.01892800       0.28773377      -0.01548003       0.03738987       0.16245945
Na      12.14877021      16.31134983      81.82202738       0.01978292      -0.06487700      -0.52160935       0.01439943       0.04321645      -0.10078062
Na      14.17616476      18.22002991      84.20085831      -0.18803870       0.27396379      -0.08138457       0.02354759       0.10102079      -0.10006848
Na      12.13605479      16.08167484      86.34739593      -0.09202348      -0.33960111      -0.02829292      -0.00790763       0.10470308       0.03413263
Na      14.19459600      18.32071606      88.25945100       0.18577518       0.08453593       0.16508977       0.08997468       0.04773712       0.08271718
Na      12.44394626      16.10565925      90.33264665      -0.17879209       1.07634045       0.47090648       0.00086981       0.01558743      -0.09268200
Na      14.39471953      18.48364014      92.16217481      -0.33777416       0.45077384      -0.08542913       0.01521352      -0.15894372      -0.13828675
Na      12.48587945      16.37494886      94.36445349       0.77253097      -0.03355252       0.09020162      -0.00375296      -0.10246424      -0.11570169
Na      14.41389735      18.28762444      96.14921282       0.40971801      -0.11371946      -0.45538023      -0.01507316      -0.00470101       0.13829022
Na      11.61375472      20.13119215      73.92800869       0.89936417      -0.23093857      -0.95506433       0.36040902       0.36583676       0.06150410
Na      13.89378858      22.89233707      74.96168040       0.95559923       0.42557364      -0.15413638       0.03237781       0.00238559      -0.11355269
Na      12.09210011      20.58935095      77.26137640      -1.02222760      -0.68737501       0.77799407      -0.00044101       0.02492339       0.10025508
Na      14.09191432      22.57696514      79.59900146      -0.56330758       0.46667674      -0.13257674      -0.04813005      -0.06883645       0.03652806
Na      12.13985866      20.26102181      81.85406299       1.06248696      -0.36472179      -0.23861229       0.07514132      -0.03375446      -0.03312184
Na      14.54297841      22.41785972      83.78188264      -0.16182251      -0.24593714       0.04909869      -0.14299489      -0.00555465       0.10657938
Na      12.21874317      20.14186194      86.29514098       0.57495504      -0.26101455      -0.61808287       0.03507543       0.19012583      -0.09606270
Na      14.33057505      22.38092813      88.44962555       0.26040912      -0.28414972      -0.63625882      -0.02073695      -0.01462699      -0.07363797
Na      12.11582822      20.46764613      90.35932641       0.19319823      -0.25611313       0.25656908       0.04345462      -0.02454993      -0.11799658
Na      14.34732866      22.25999730      92.21936679      -0.38898680       0.18064609       1.29494326       0.04776892       0.15292679      -0.05150748
Na      12.49008237      20.22254235      94.04630256      -0.22744916      -0.67787036       0.80250538      -0.25009590       0.04212273       0.29473351
Na      14.43012188      22.20056981      96.10121637      -0.80492334      -0.80341952       0.11882288      -0.03645653       0.08701699       0.04197652
Na      11.51715066      25.79178536      71.79409838      -0.66855510       0.50466033       0.83639737      -0.02462011      -0.21007609       0.22910610
Na      14.21137645      26.83106313      75.49986030       0.19692130      -1.28747579       0.36098323      -0.01877575      -0.03993128       0.00633911
Na      12.02824898      24.63032440      77.42573660      -0.31936700       0.07382266      -0.30413960      -0.00000994      -0.03759967       0.03198218
Na      14.18792236      26.56810976      79.85754722      -0.17701700      -0.54090065       0.33426443       0.00268003      -0.02094590      -0.07017434
Na      12.17588069      24.54912022      82.16361806       0.26625240       0.20844903      -0.21549106       0.08030748      -0.05174816      -0.10712627
Na      14.39426253      26.70022479      84.29455671      -0.06726804       0.17582431      -0.23000714      -0.02892484      -0.10759621      -0.18146641
Na      12.41343302      24.20811715      85.94463405       0.18533613      -0.60160176       0.44585780      -0.01813323       0.06168618       0.13727894
Na      14.53375428      26.41491232      88.45599485       0.05252340       0.53011022       0.12259480      -0.22282002       0.07490080      -0.16951526
Na      12.17361343      24.50256312      90.19340076      -0.11321377      -0.27884738       1.08254216       0.05306844      -0.09745774       0.00529710
Na      14.26125256      26.62293609      92.01897414      -0.96047773       0.37325377      -0.37677813      -0.01116743       0.08713816       0.02185818
Na      12.58698806      24.52276587      94.13219428      -0.49588316      -0.10920977       0.03024265      -0.11887830      -0.03526801       0.07992280
Na      14.28002499      26.61383608      96.01873010      -0.08171643      -0.95408918      -0.19845435       0.04660194       0.05736522       0.06443356
Na      17.15664274       0.22794828      73.87191658      -0.30885352       0.98713239      -0.53085134       0.00839764       0.03634735       0.12714522
Na      18.74837765       2.54059551      75.90608662       0.35576326      -0.04313975       0.01014458       0.05012154       0.04669301      -0.07807870
Na      16.57838486      -0.19364305      77.55763788       1.32087152      -0.11728512       0.02114486      -0.11683734       0.06544804      -0.16638623
Na      18.63208676       1.80834997      79.46298743       0.64763433       0.28384302       0.26583231       0.06004202       0.09884651       0.17377179
Na      16.55147791      -0.22017660      81.77554732       0.22482739      -0.76955436       0.53180848      -0.12973351       0.08351596      -0.04115932
Na      18.53370827       1.76355580      83.78292378       0.02363947       0.21773181       0.61712975      -0.06272234       0.10713567       0.12243965
Na      16.43544521      -0.24835183      86.28957218       0.75606341      -0.60790460      -0.49231408       0.06314245       0.12400292      -0.03395899
Na      18.55244776       2.01264676      88.17579971       0.05761658      -0.14221568      -0.68260661       0.05806228      -0.11667334      -0.04618799
Na      16.55011008      -0.02624374      90.01309300       0.09969592      -0.21397190       1.19206979      -0.05442555       0.07916832       0.14808257
Na      18.45851192       2.02346559      92.30954886      -0.12257313      -0.32071930      -0.36199039       0.01990102       0.00268924      -0.06689183
Na      16.32508682      -0.06847901      94.02348296      -0.06443707      -0.05400694      -0.18445674      -0.04143992      -0.05573188       0.07388620
Na      18.23945597       1.80199420      96.03824849      -0.30521811      -0.62431183      -0.11604090       0.05655224       0.04674207       0.04386613
Na      15.96887244       3.52295407      71.25519098       0.48553877       0.01387278       1.54727693      -0.16279274      -0.14281450       0.16289817
Na      18.51309152       6.51835100      75.94970453       0.05858424      -0.43971176       0.14376846      -0.03414122      -0.11288083      -0.06020554
Na      16.44238971       4.14346889      77.85852153      -0.05373863       0.40054756       0.22399308      -0.03229915      -0.01893839       0.01698511
Na      18.34304273       6.26877687      80.02673843       0.32045059       0.59125694      -0.46095758      -0.02970809      -0.07224539      -0.04421304
Na      16.37101589       3.81926576      81.88969206       0.61365903       0.89385888       0.00256747       0.03788730       0.07502357      -0.01153940
Na      18.44835934       6.05629255      84.03444420      -0.36847810       0.23738163       0.12011644       0.05927356       0.07560798      -0.07768048
Na      16.73016629       4.01654543      86.11580795      -0.08152970      -0.23384656       0.27718052      -0.10349131      -0.04104706       0.03991574
Na      18.68275396       6.20786197      88.42771487       0.13003770      -0.27032334       0.24737196      -0.06644899      -0.06376993      -0.14373966
Na      16.69214627       3.92644892      90.08326282       0.67719268       0.26460266      -0.54301770      -0.11915851       0.09259732      -0.02059280
Na      18.26221864       5.97802564      92.27102191       0.08550975       0.21109551      -0.52556364       0.14016475      -0.02206075      -0.08023390
Na      16.39557606       4.03716800      94.41638960      -0.54757686      -0.12812513       0.54697046      -0.03044628      -0.04145849      -0.02503039
Na      18.51918030       6.05814244      96.36219546       0.36288907      -0.22179298       0.12957687      -0.04123597       0.05648385      -0.24083058
Na      15.12816646       7.88758544      71.58284824      -0.81033304       0.29601176      -1.53847652      -0.11508523       0.04464441      -0.16474482
Na      18.54822896      10.11031374      75.40389863      -0.05306055      -0.16243049      -0.20864466      -0.02893633      -0.03765018       0.17051307
Na      16.15060574       8.25279503      77.63991411       0.21376228       0.42775291       0.46815266       0.06725905       0.02393423       0.01286910
Na      18.11896629      10.32597439      79.80788747      -0.09769226       0.31587678      -0.31752103       0.00391657       0.04087168       0.02656778
Na      16.34547946       8.10254566      82.04154321      -0.50750188       0.98707730      -0.80483687      -0.00888544       0.08942717       0.09685622
Na      18.42058859      10.32599679      84.20386033      -1.13566807       0.43094216       0.06217297      -0.37294207       0.07898089      -0.04753277
Na      16.30364988       7.95136080      86.34486148      -0.64965585      -0.39698306       0.72283160       0.07344841       0.08012892      -0.02980572
Na      18.35036565      10.30857441      88.37122126      -0.46586518      -0.59965239      -0.11215040       0.05772763      -0.01951454      -0.11015173
Na      16.47019611       8.05136633      90.24728522       0.20874076      -0.60269641      -0.40963588      -0.14029915       0.08175385      -0.02959582
Na      18.32740028      10.35171104      92.18003647       0.16561032       0.09788903       0.40546490       0.03825531      -0.04843008       0.02074227
Na      16.34964302       7.93328722      94.25947290      -0.07472299      -0.82138504       0.13194171       0.00916112       0.13039368       0.04604000
Na      18.42333351       9.93590122      96.19173379       0.04380009      -0.18831266      -0.15212361      -0.00621516       0.03027214       0.03619593
Na      15.47711739      10.93369189      72.80942808      -2.47969223      -0.57589782      -0.99184047       0.09858238       0.04248500       0.01150865
Na      18.18309651      14.13558981      75.42895027      -1.31383228       0.96808761       0.27475319     -28.24156198       2.17634384       9.63078379
Na      16.32563749      12.17537144      77.44055502      -0.02492812      -0.18164187      -0.43078882      -0.01625524      -0.05892773       0.08425849
Na      18.38890657      14.45431089      79.73572239       0.17629524       0.01120193      -0.25473304      -0.03915176      -0.10656022      -0.10099212
Na      16.08750068      12.50338254      81.97709367      -0.55471938      -0.17751334      -0.67289882       0.11669470      -0.00360944      -0.06595991
Na      18.44047575      14.37901115      84.21799945      -0.04291669      -0.47066959       0.23213561      -0.01584128      -0.00990451      -0.08898859
Na      16.41719990      12.39001035      86.08004702       0.66949768       0.63276440      -0.69755034       0.04589988      -0.05395105       0.02092479
Na      18.41293091      14.42691434      88.31239807       0.51401219      -0.20046008       0.91696021       0.02544876      -0.05976033      -0.02882956
Na      16.25859055      12.33274481      90.18040545      -0.14247439       0.01511912      -0.26858117       0.04848324      -0.03225382      -0.06666842
Na      18.25375097      14.27949042      92.24316362       0.16453435      -0.06106988       1.20584206       0.11294361      -0.02911862      -0.08804831
Na      16.57573133      12.28984283      94.43199546       0.62221354      -0.34029169       0.30951449      -0.04041550      -0.08647558       0.10100946
Na      18.25600727      14.59395182      96.14265493      -0.88485535      -0.21627630       0.09437096       0.12645045      -0.10554845       0.14493820
Na      15.60632958      17.45246542      70.92526069       0.16912819      -0.10853967      -1.07190945       0.01132153      -0.57730120       0.37966506
Na      18.59555044      18.19632768      75.14485822       0.22073879      -1.20075018      -0.08009372      -0.07606871       0.11774782       0.00067535
Na      16.58951238      16.36838712      77.34784875      -1.28999212       0.53643456      -0.04237824      -0.03839481      -0.00985701       0.03444481
Na      18.37270988      18.36687933      79.84388632       0.20186161      -0.09340382      -0.12753736      -0.06231549      -0.06316227      -0.11335077
Na      16.34764967      16.21421705      81.89458615      -0.07907629      -0.01939699       0.04242600      -0.06346472       0.11512290      -0.03846167
Na      18.38938120      18.49906458      83.99496628       0.12061587      -0.07457669      -0.06502038      -0.04953337      -0.09845895       0.07609276
Na      16.31443707      16.41110396      86.15391063      -0.61774951      -0.34965586      -0.83685399       0.17440214       0.12480935       0.04294851
Na      18.56442146      18.33869728      88.40535141       0.07898510       0.48649267       0.07942713      -0.04717356       0.02181117      -0.11697212
Na      16.25739428      16.36537466      90.23201183       0.27943910      -0.20640104      -0.33261190       0.05592193       0.01186583       0.00863571
Na      18.51033420      18.44673786      92.31526750      -0.20675107       0.47743351       0.01322087       0.04249707      -0.01010794      -0.02283401
Na      16.43101072      16.36975138      94.20344459      -0.06266648      -0.46383842       0.27787577      -0.10947903       0.08494898       0.03875683
Na      18.40025143      18.53738022      96.27677835       1.18196899       0.13834301      -0.17115131       0.02814799      -0.11169147      -0.03032058
Na      13.85327993      21.34401695      71.03062034      -0.32738517      -1.06366311      -0.70825488       0.15236923      -0.16736873       0.05537000
Na      18.29453581      22.29398804      75.40483037       0.36586057      -0.70346297      -0.68599537       0.10200030       0.02274402      -0.04361229
Na      16.26463601      20.56747084      77.34019863      -0.20750061       1.13583844      -0.65949047      -0.05668852      -0.08048104       0.04813139
Na      18.28590798      22.15176202      79.58172808       0.26379171       0.04675027       0.29007311       0.00389011       0.03207524      -0.00102733
Na      16.18494247      20.41750728      81.73306075      -0.67234023      -0.55260742      -0.83558886      -0.00802222      -0.12642028      -0.01582992
Na      18.44548533      22.37875085      83.87793828       0.27984045      -0.02232580      -0.27245828      -0.06984484       0.01675492       0.02822044
Na      16.33462543      20.52008052      86.11127209      -0.78950900      -0.29380210      -0.20476313       0.04249324      -0.04102302       0.11395400
Na      18.54974640      22.45381179      88.66472303       0.08371609      -0.44919416       0.14860552      -0.11803611      -0.00283420      -0.19602874
Na      16.51043938      20.45010405      90.29742656       0.19850602      -0.60217793       0.79416612      -0.02946546      -0.08313497      -0.02668304
Na      18.54791848      22.54265023      92.40489280      -0.13123786       0.13676339      -0.40676747      -0.04647927      -0.09301505      -0.02206393
Na      16.33122916      20.24879936      94.32101926      -0.10303753       0.17167206      -0.53663493       0.12944406       0.08228241      -0.05164501
Na      18.25751134      22.31101605      96.13771131      -0.02697003       0.02112303      -0.29564833       0.04366976       0.11225348       0.04646132
Na      14.45481657      24.52127056      70.64770187      -0.87562562      -0.06284745       0.40049168       0.02989471       0.06165864       0.05990236
Na      18.45262772      26.01568932      75.27233444       0.08092376      -0.00931401       0.08776261       0.02306490       0.03543877       0.05147263
Na      16.08154566      24.52402594      77.43504001      -0.25725262      -0.11806965       0.31023069       0.07691573      -0.00930638       0.03102259
Na      18.49479900      26.73748874      79.43309403       0.81278495       0.21896214      -0.23593509       0.06290719      -0.20484913       0.11734837
Na      16.38770782      24.32378234      81.65366381       0.23479527      -0.12479146       0.49678118       0.01282529       0.10230399      -0.03456122
Na      18.20773776      26.45723169      83.72871983       0.15075085      -0.62655291      -0.58224841       0.10215086      -0.12059249       0.17556618
Na      16.43324219      24.37763211      86.26699892       0.63066238       0.18716708       0.99743503       0.00881083      -0.01569619      -0.01886551
Na      18.48909797      26.41862416      88.40487371      -0.27357788       0.02761454       0.00668109       0.04039832      -0.01259178      -0.02386786
Na      16.20951889      24.52019182      90.43317830       0.48966912       0.05601455      -0.36751386       0.08342621      -0.23407362      -0.06993725
Na      18.28205362      26.30275023      92.01692714       0.28575474       1.10081601       0.93523947       0.16727521       0.15389960       0.18689662
Na      16.29177919      24.45348131      94.30497898      -0.53740486      -0.01168432       0.11575274      -0.02163030      -0.06040444      -0.04068922
Na      18.20216225      26.44446116      96.06956118      -0.63595029       0.37563292       0.41286141       0.09097598       0.06866777       0.01094737
Na      20.94249684       0.55055392      73.16867587       0.76168540       0.08947055      -1.02872746      -0.07575651       0.08087344       0.07288136
Na      22.51272828       2.37864054      75.90693167       0.24772957       0.57946188      -0.89369169       0.14413462       0.27717368      -0.05478351
Na      20.64256501       0.00759363      77.24089295      -0.53577766       0.38939103      -0.52052240      -0.05012101      -0.15756512      -0.00275003
Na      22.78724986       1.96531013      79.78391568      -0.05990921      -0.34973676      -0.13010446      -0.16087966      -0.05251166      -0.00372187
Na      20.57723270      -0.29244979      82.00127081      -0.57342434       0.66844566      -0.60247413       0.02277455       0.05161703      -0.08531644
Na      22.43983168       1.98379646      84.05455231      -0.13039412      -0.52708513      -0.51163019       0.17078158       0.04410443      -0.06427272
Na      20.25046877      -0.20427777      86.03304671       0.60621710      -0.52956288       0.13151607       0.04153646      -0.09532263       0.00051184
Na      22.40962647       1.80771199      87.85248517       0.47592979       0.64183347       0.78498267       0.04991932       0.01275069       0.11216100
Na      20.56552889       0.01435687      90.46068732       0.14439257      -0.48581729       0.56200748      -0.05284342      -0.03507651      -0.13557443
Na      22.57028197       2.09834192      92.33290051      -0.19672907      -0.31889497       0.29739313      -0.01150467       0.00498792       0.01273964
Na      20.57817951      -0.11591619      94.39129333       0.01740453      -0.11529234       0.18389563      -0.14563533      -0.03608153      -0.05909287
Na      22.27465511       2.19714397      96.12116879      -0.13185770      -0.76084586      -0.42775266       0.05637863       0.00361029       0.03206139
Na      21.92416889       3.14180427      70.69995251      -1.55942900      -1.88821144      -0.55974918      -1.20045965      -1.04864059      -0.38128358
Na      22.66426179       6.35583004      74.97468215       2.37558281       0.78129721      -1.40540720       0.20535239      -0.40368081      -0.24934079
Na      20.86413459       4.69337040      78.20282617       1.31087166      -0.33184567       0.34228246      -0.14684603      -0.21180491      -0.28735476
Na      22.33514052       6.30327454      80.33365226      -2.62241449      -0.34258803       0.34293056      -0.64469051       0.44370718      -0.15936726
Na      20.66433589       4.01447487      81.94506278       0.71366796       0.50104967      -0.63356443      -0.16224024      -0.08681858       0.06192252
Na      22.45408539       6.24475690      83.87130746       0.70512972       0.22491896      -0.51871544      -0.00614406      -0.39054912       0.28846766
Na      20.59806459       4.14740347      86.06964795      -0.71338016       0.23915327      -0.03908290      -0.04332741       0.05743828      -0.00401349
Na      22.67644800       6.25504830      88.34495993      -0.42139512       0.10259621      -0.05962574      -0.14668150       0.02925516      -0.03414638
Na      20.57007591       3.92895646      90.04086085      -0.43305709      -0.03664662      -0.25884604      -0.00061488      -0.01949677       0.09176919
Na      22.33455521       5.80233539      92.20318615       0.28997201      -0.12163157       0.20272611       0.09831040       0.15750551      -0.05154846
Na      20.31267086       4.10094540      94.29986731      -0.37293892      -0.47455752       0.13715737      -0.01205897      -0.03763207       0.06891556
Na      22.31605872       6.25057870      96.15620131      -0.26191041      -0.05112465      -0.26505142      -0.01739087      -0.03641503       0.15142020
Na      20.95014078       6.18345401      72.12923610       0.16548967      -0.75412946       0.15892375       0.09760467      -0.13520109      -0.46270090
Na      22.78747054       9.74039867      75.70545542       3.07787041      -2.85373036       0.29073363      -0.21887354       0.57815555      -0.56918017
Na      20.50902140       8.31649315      78.22332008      -1.35541403      -0.75939969       0.70333462      -1.00545815       0.18331114      -0.04898139
Na      22.61295974      10.68170156      80.02022333      -0.65441881       1.56074662       0.74967965      -0.01173544      -0.01868997      -0.11025882
Na      20.27476943       8.38110271      81.76087328      -0.85050334      -1.03602198      -0.86417257      -0.23662716      -0.12520212      -0.45151342
Na      22.41081243      10.40678880      84.03147376       0.80427292       0.69175198       0.52960663       0.78157489       0.76287173      -0.14066541
Na      20.47574191       8.18802076      86.18377383       0.53462778       0.16571122      -0.20189615      -0.40587540      -0.41320463       0.99548729
Na      22.55294774      10.08542449      88.38747262       0.24508107      -0.23070150       0.41062649       0.00312899       0.07622130      -0.00220040
Na      20.42127323       8.18360810      90.35605052      -0.90525420      -0.52075722      -0.12372552       0.04146187       0.01268982       0.04850700
Na      22.43824327      10.23424222      92.33480842      -0.11652650      -0.24813796      -0.09653344       0.14064969       0.06691622      -0.02846128
Na      20.53076373       8.18746099      94.14549330      -0.35475476      -0.60549583      -0.14248504      -0.12993426      -0.05641547       0.08646698
Na      22.33662080      10.18038008      96.33444867       0.10336821       0.09291567      -0.12922975       0.09626398      -0.06555189      -0.13124536
Na      20.11003215      10.92492516      71.22124110      -1.01339056      -1.35704527       2.04375370       0.37050938       0.01406594      -0.43887188
Na      22.06974533      14.35297640      74.89531506       0.15479021       1.12973624       0.30195128       0.50719840      -0.06302781       0.24669239
Na      20.26302068      12.35596457      77.63352458       0.45695590      -0.58232876       0.41417103       0.20636581      -0.20162343       0.24515905
Na      22.50247379      14.49145918      79.90977095      -0.29946822      -0.51943498      -0.20430983      -0.20011968      -0.17652519      -0.09313422
Na      20.33036325      12.28136045      81.93871375      -0.29703618       0.10081801      -0.39974835      -0.14304851       0.08105277      -0.04728614
Na      22.48964426      14.15611105      83.67616991       0.73627771      -0.67335434       0.73655288      -0.01995521       0.10477211       0.17864534
Na      20.54894108      12.42734526      86.18528084       0.15095475       0.00470493      -0.49825172      -0.00804129      -0.04164172       0.08181264
Na      22.58645514      14.40667758      88.29340471       0.09750637      -0.24368259      -0.21894922       0.00152451      -0.11697857       0.08255748
Na      20.55438366      12.26825317      90.32092371       0.08134484       0.30520407       0.33125902      -0.00969504       0.07169198      -0.05038013
Na      22.60348452      14.23575938      92.41376559      -0.45758378      -0.34096230       0.01177562       0.00535272      -0.03724002      -0.06891866
Na      20.48474956      12.32816773      94.41983428       0.16886102      -0.99452011      -0.72870433      -0.10910786      -0.02899863       0.05543090
Na      22.56574397      14.24812201      96.27410019       0.16037368       0.19074362      -0.94380260      -0.01510045      -0.03369222       0.03281723
Na      22.27877870      16.87280219      71.05763985       0.92519131       0.01217953       0.13052774      -0.02163688       0.07071624       0.02336181
Na      22.44819345      18.35972298      74.98720065       0.27493567       0.09242822      -0.72868798       0.10456222       0.23192601      -0.13767109
Na      20.50939960      16.22543207      77.33760310      -0.39492774       0.34269776       1.26674637       0.01872768       0.12534580       0.23098302
Na      22.32288346      18.06101321      79.82403171       0.02072737      -0.25292945      -0.19373827       0.13772723       0.08931914       0.01433112
Na      20.28951915      16.23571000      81.97242060       0.48356271       0.14519210      -0.51004880       0.00883859       0.04414557       0.05653784
Na      22.46720404      18.31365440      84.02881990       0.68509788       0.81521218      -0.81730678       0.04097647       0.00385579      -0.07796264
Na      20.75132371      16.19308926      86.15169339       0.24712889      -0.16714803      -0.11618368      -0.11593948       0.09217506      -0.02151805
Na      22.70348676      18.44011132      88.30631174       0.21733359      -0.00725585       0.05992768      -0.03128447      -0.07699337      -0.04766846
Na      20.40897744      16.27012546      90.38200445      -0.02130240       0.44652531       0.14344023       0.07524915      -0.02974087      -0.01421594
Na      22.50443511      18.35240559      92.01474924       0.01865162      -0.20930247      -0.15705040       0.01983195       0.01043247       0.19454951
Na      20.47711264      16.17012854      94.39357013      -0.05505226       0.14921491      -0.55197649       0.01797879       0.18644364      -0.03307448
Na      22.51913948      18.07447071      96.43117139      -0.60397736       0.78511390       0.00360665      -0.12727613       0.07880463      -0.12016942
Na      21.74373777      20.21123713      71.24130558       0.59233323       0.73753031      -0.57828424       0.32160853      -0.26935630       0.01708281
Na      22.39219791      22.17505122      75.66757687       0.40875856      -0.08530881      -0.04909244      -0.11750994       0.09689496      -0.15865922
Na      20.54682631      19.98241178      77.66773265       0.85456682      -0.06431684       0.10811511      -0.10867955       0.06282569      -0.15170789
Na      22.44953870      21.83578152      79.80389032       0.41200116       0.38341765      -0.40090496       0.02727379       0.19393909      -0.02948368
Na      20.26506541      20.32575396      81.95075505       0.22092305       0.57140497      -0.85101014       0.11568295      -0.00342867      -0.06038129
Na      22.59801138      22.26104118      83.84914458      -0.43962589       0.48588100       0.07337204      -0.05887309       0.05333080       0.09049953
Na      20.69159812      20.48165277      86.12348633       0.17109446       0.29494695      -0.51697681      -0.14527003      -0.03563672       0.04846749
Na      22.63871804      22.39868926      88.25051023       0.48035932       0.14377079       0.60041734      -0.01578208       0.04613465      -0.03403843
Na      20.62303328      20.36590825      90.22280393       0.08102591       0.28490739      -0.09780512      -0.03781870       0.08021048       0.09358573
Na      22.61696351      22.55586369      92.31607705       0.78529353       0.03170777       0.18877720      -0.01471234      -0.05089679      -0.02256232
Na      20.55221999      20.50981854      94.45935917       0.53453613      -0.00859749      -0.09022541       0.04548610      -0.11017965      -0.01261789
Na      22.47925181      22.53073960      96.46705206      -0.33376810       0.04534950      -0.24920845      -0.01992826       0.02698023      -0.09621021
Na      21.28929692      24.98598023      70.67324121       0.13697466      -0.33714531       0.34822037      -0.16431383      -0.06206607       0.02246147
Na      22.46476240      26.08506641      75.65009892      -0.02707370       0.25026434      -0.26503336      -0.06479972       0.08377891       0.01464013
Na      20.34801026      24.16763685      77.72577580      -0.62704958       0.29837626      -0.30038116      -0.01896188      -0.00621870       0.00621762
Na      22.34851867      26.43961598      79.68140554      -0.45774247       0.14071898       0.54690365       0.07022433      -0.04880705      -0.00350545
Na      20.28457207      24.27573581      81.58285369      -0.07659688      -1.25771371       0.63083573       0.06574668       0.02783437       0.07780149
Na      22.59038585      26.30362832      84.09023995       0.18147665       0.40787437      -0.33728450      -0.07032180      -0.03723973       0.02486168
Na      20.21628887      24.30505251      86.13904601      -0.69459468       0.28374623      -0.74217497       0.10739014       0.04493764      -0.02744666
Na      22.36971946      26.42648669      88.29891192       0.14637537       0.42683528       0.06191023       0.05899254       0.07760417      -0.03677563
Na      20.54648474      24.37369159      90.32553006       0.41777206      -0.03272533      -0.29196543       0.09226941       0.06690439       0.03367262
Na      22.58195800      26.53525248      92.25262348       0.19128314      -0.29951289       0.12701733      -0.01515526       0.01723468      -0.06916084
Na      20.58234420      24.50996120      94.49229703       0.40236282       0.26888458      -0.44912875      -0.10989069       0.01993712      -0.01421280
Na      22.59320687      26.69991982      96.19735800       0.94429716      -0.31717700      -0.58357848      -0.00189511       0.00647717       0.03738525
Na      24.27524442       0.20736629      73.89424898       1.22357498       1.07447350      -0.58621818      -0.07700895      -0.04121525       0.14598466
Na      26.41258750       1.50094884      76.26858333      -0.68556714      -1.08231924       0.19516529       0.02954800       0.31703476      -0.39793982
Na      24.53427679      -0.27647544      77.74228788      -0.83739909      -0.50220676       0.18451665      -0.27994092      -0.19286400       0.02727469
Na      26.30958992       2.09908128      80.16295281      -1.66136413      -0.88309605       1.80076400      -0.16879148       0.17659621       0.21634082
Na      24.49010462      -0.23946612      82.10214373       0.68796449       0.12224651      -0.26150691       0.02123942       0.05221826      -0.03554157
Na      26.63719785       2.09753834      84.11880979      -0.69262862      -1.01963282      -0.37640049      -0.75032256      -1.30880520       0.08822126
Na      24.77619766      -0.13654545      86.12237854      -0.24761293      -0.14749987       0.53427991      -0.10380108      -0.00907902      -0.01380801
Na      26.68469807       2.10898975      88.07597584      -0.15627522       0.41553624      -0.20134926      -0.02515670      -0.04814135      -0.04893848
Na      24.51248487       0.21088874      90.17910951       0.17914497      -0.64902041       0.47595394      -0.00173240      -0.08909623       0.00245191
Na      26.59341138       2.18643165      92.39470330       0.39543999      -0.07261574      -0.04101058      -0.01266688      -0.02429877      -0.04126208
Na      24.49429554       0.08765228      94.52103295      -0.38513651      -0.94295028       0.50684368       0.04078101      -0.00756082      -0.05989334
Na      26.55368098       2.14808933      96.15629338      -0.05761885      -0.03351416       0.03468220      -0.01713776      -0.00769576      -0.08685244
Na      31.91794100       7.55568323      75.20251024      34.23726889      12.82270981       7.36100479      -0.07510641       0.24021295      -0.20725444
Na      30.79094502       3.15027398      83.01083688      25.64997753     -18.01346614      29.58840310      -1.14273572      -1.16746761      -0.50866194
Na      24.52905309       4.61758989      78.10478087       0.02693571       1.60521535      -0.35134115       0.24988744      -0.08295993      -0.37562896
Na      24.31448149       5.40977572      81.32558938     -29.22268048      -2.74105642       5.14797055      -2.36612816       7.43610300      -3.34800792
Na      24.77382398       4.15063913      81.88023191       0.47908846      -9.31934440       4.59573185       2.85191375      -8.17654685       3.71882623
Na      26.50732422       6.27690940      83.84943573      -0.40722924       0.79768528       0.13676043      -0.31760847       0.58083754       0.36750874
Na      24.56700785       4.19693249      86.08702652       0.31544433      -0.15126002      -0.80737988      -0.12749905      -0.07192900      -0.13364468
Na      26.37721634       6.19004686      88.21216440       0.02636419      -0.02561508       0.17886242       0.23499800       0.01301465       0.05864225
Na      24.49478485       3.98928813      90.06201123       0.41288973      -0.05042447       0.18202060      -0.02443132      -0.09167701       0.06488575
Na      26.53208698       5.83529891      92.16567385      -0.16680134       0.45467097       0.05843096       0.01146040       0.00824228       0.04650548
Na      24.37469291       4.20901417      94.49486958       0.37646077       0.19499354       0.28489467       0.04963215      -0.08416777      -0.06286039
Na      26.34569491       6.05520543      96.31520825      -0.18549213       0.15414917      -0.26876752       0.10371574       0.08439709      -0.11172907
Na      21.24822661       8.98478765      84.19947053     -34.41025094       6.36492307      49.32120138       0.07423585      -0.07449189      -0.15218705
Na      29.33921010       5.38741470      83.05341032      24.20419447       0.31576045      26.13214300      -2.01081484       0.02245962      -0.22864000
Na      22.99324960       8.16127512      77.77637214      -5.22874634      -0.94410234      -2.43064470       1.03885902      -0.32165594       0.32877545
Na      26.31733208      10.38236620      80.49148692      -0.80833202       0.26347008       0.45484062       0.22958680      -0.31764210      -0.65285715
Na      24.75888470       8.19594451      82.11649721       4.53622385      -0.78845032       3.13677067      -0.17501994       0.51096938       0.00750917
Na      26.63221015      10.35303464      83.96918521       0.50184996       0.11040633      -0.37297848      -0.12157921       0.01702165       0.26238023
Na      24.61512488       8.17166706      86.11918995      -0.39062959       0.79169184      -0.45414590      -0.15033274       0.11772534      -0.05102552
Na      26.70091460      10.20174600      88.24744933      -0.09239884      -0.01727456      -0.03365366      -0.02359115       0.08429614       0.07074458
Na      24.67053238       8.13560828      90.55049987      -0.09159540      -0.82555117       1.29542515      -0.09972960       0.04793568      -0.05734353
Na      26.69094960      10.09759434      92.54789413       0.43252476      -0.29818069      -0.63600134      -0.04108390       0.06674446      -0.06696805
Na      24.49887347       7.97211737      94.33151973       0.29017669       0.35671294       0.09217286      -0.03522604       0.11535602       0.02506585
Na      26.70490451      10.13372549      96.17678372      -0.15332688      -0.24575467       0.97810261       0.01294281      -0.11663381       0.06852864
Na      19.56260734      11.19183039      66.89877511      -7.88721193      -1.65498447     -26.21355756       5.67233670       4.61932085      -0.80452531
Na      30.46391056       6.38603564      80.47465862     -12.84779317      -2.78971066       9.89895429      -1.39476457      -0.27239409      -2.13188079
Na      24.45043647      12.18130918      77.14278697       2.99844784      -2.43267423      -1.40477338      -0.13167353       0.07028474       0.05698452
Na      25.75537058      13.95156968      79.65987187     -12.10934211       0.31554598       0.49497533       0.20020853       0.02775905      -0.17596062
Na      24.57642616      12.24885033      82.00903928      -0.43864771       0.81699046       0.67640710      -0.20881415       0.14840648       0.30973895
Na      26.57518162      14.23570009      83.92637246      -0.02263880       0.20358071      -0.34518838      -0.01107052      -0.00328922       0.26573175
Na      24.47038947      12.24033239      86.17826992       0.03340748       0.07996168       0.11839862      -0.01149112       0.04313446      -0.03047625
Na      26.67140084      14.26665287      88.23925054      -0.12067933       0.43293454       0.10818543       0.00388813       0.00478723       0.03872660
Na      24.79079737      12.30905884      90.36804475       0.26213910      -0.61510178       0.09946446      -0.12937407      -0.09088918       0.00597761
Na      26.62580907      14.36908635      92.40078560      -0.22454163      -0.40408229       0.61341881       0.00697283      -0.03843912       0.01148749
Na      24.64616237      12.13343861      94.58928204      -0.01494016       0.11394025      -0.47169646      -0.16187890      -0.01713590      -0.14975010
Na      26.41423686      14.24150927      96.25237633       0.01529866       0.47193438       0.41962477       0.08960735       0.05572920       0.00875248
Na      24.56765887      16.20119934      74.17147882     -11.76484231      -7.19340813      13.23931900       0.48175286       0.45232087      -0.66816249
Na      26.90106818      18.47328437      76.02200692       0.28890825      -0.86564611       0.14003695       1.03789705      -0.42174788       3.45358361
Na      24.39060590      16.09622562      77.20044063       0.09306505      -0.12045012       0.46222272      -0.03309524      -0.02762704       0.30958638
Na      26.86237942      18.28125947      79.67682064       0.87722772       0.00363682      -0.56839017      -0.27225277       0.28893370      -0.22186318
Na      24.60459241      16.27977322      81.92089490       0.34403123       0.10652739      -0.91125004      -0.01420262       0.15878595       0.10844676
Na      27.14515981      18.16241210      84.08243595      -0.55225824       0.05301615      -0.16979208      -0.21734299       0.05434495      -0.10538447
Na      24.60469856      16.16164621      85.97298611       0.63984272      -0.98397776      -0.36642504       0.00255161       0.07574740       0.01023866
Na      26.59443937      18.28462522      88.27076621       0.33180549       0.40714747       0.47401063      -0.01903761      -0.03661084       0.01437631
Na      24.50436364      16.22533971      90.30103220      -0.24510742      -0.40635881       0.44711251       0.08936996       0.00478487       0.00118540
Na      26.35830119      18.54062707      92.10272839      -0.44340618      -0.59180963       0.36815382       0.03556220      -0.09114004       0.20188958
Na      24.47323585      16.38356283      94.35206618       0.17615277       0.53877633       0.24906272       0.06942114       0.03564002       0.03229009
Na      26.42605423      18.70392706      96.28414636       0.03684698       0.32238735      -0.32281497       0.10490256      -0.15373424      -0.06310103
Na      25.40376186      20.61909236      73.26956570       0.09554375       0.00715800      -0.13777513      -0.68543081       0.80675699      -0.13405811
Na      27.90735168      23.05071730      74.63849721       0.66368376       1.57422158       0.58629558      -0.14549369      -0.07562598       0.09764320
Na      24.63133214      20.47630142      77.35161468       0.60665642       0.17616857      -0.82079906       0.05345070      -0.08486799       0.02617921
Na      26.64289118      22.20672587      79.59952972      -0.07121625      -0.09179623      -0.29885502       0.02541709       0.01214674      -0.00685182
Na      24.71503363      20.27810017      81.85898471       0.39088758      -0.62219989      -0.68411592       0.06290243      -0.12784334       0.05542335
Na      26.80113892      22.47613956      84.06425507       0.19076746      -0.02673433       0.04174394      -0.00547011      -0.03800782       0.03354821
Na      24.90531001      20.19336770      86.05677856      -0.08240256      -0.27984191       0.11252763      -0.15059408       0.05632976      -0.07818655
Na      26.63771723      22.31157491      88.14787302       0.18180445      -0.37791845       0.10708038       0.08039253       0.05569222       0.09743227
Na      24.59860507      20.57933632      90.30902944       0.01055123       0.40035506       1.13003562      -0.01024632       0.00396373      -0.05634265
Na      26.66307195      22.45449976      92.37039177       0.09441268       0.27794322      -0.74910738      -0.14781068       0.02027515       0.01444380
Na      24.22616965      20.35984019      94.67507885       0.32824482      -0.45078346      -0.04216382       0.01930578       0.03146835      -0.25305127
Na      26.37125452      22.38891739      96.19464190      -0.01841772      -1.04935840      -0.17873853       0.05555355       0.14477934       0.02337086
Na      24.38467879      24.48252499      73.42965224      -0.23371728      -0.58968371      -0.18189370       0.02272672      -0.04821383       0.00407716
Na      26.73058108      26.38976385      75.48076096      -0.55462717       0.44071912       0.34896258      -0.24288188      -0.07061666      -0.04134919
Na      24.58107174      24.20193424      77.39249405       0.16253071      -0.21696985      -0.60074666       0.13550230      -0.04097835       0.04296129
Na      26.58193974      26.26154851      79.80424204       0.05231282      -0.14358860      -0.00506024      -0.05824587      -0.07781875       0.11907728
Na      24.56486089      24.15691434      81.85757751       0.17940063      -0.50430970      -0.46361593       0.00019926       0.08696722      -0.05621392
Na      26.66183674      26.57105646      83.97567914       0.24551135      -0.03913385       0.13425374      -0.01123875      -0.19854914       0.01818271
Na      24.65418736      24.41696049      86.24301027      -0.33714167      -0.86636284       0.16845328      -0.00806698       0.01266266      -0.06414374
Na      26.52522571      26.51015111      88.43566721       0.71543752      -0.09781926       0.22968377       0.06850451       0.03186475      -0.07128920
Na      24.66684801      24.52105311      90.20407855      -0.42529929      -1.06276570       0.46279431      -0.10899523      -0.13851185       0.02636043
Na      26.26994986      26.54847395      92.24352802      -0.35095848      -0.04497472      -0.65045452       0.15858751       0.07808495       0.07278111
Na      24.33500350      24.60845517      94.43173013      -0.38439066       0.40763388      -0.79131791       0.17940857      -0.09586071       0.02674609
Na      26.69456420      26.54007036      96.24875273       0.13299278       0.54001254      -0.08787826      -0.02136008       0.03980096      -0.12274659
