2712
Lattice="28.6612 0.0 0.0 0.0 28.6612 0.0 0.0 0.0 100.8156" Properties=species:S:1:pos:R:3:forces:R:3 energy=-8643.802928427918 free_energy=-8643.802928427918 stress="0.009547499899402314 -0.005556343367627163 0.0006645262015770232 -0.005556343367627163 0.026082058778772475 0.007418818510960453 0.0006645262015770232 0.007418818510960453 -0.026614444574799116" pbc="T T T"
Na      -0.00004286      -0.00001788       0.40055667      -0.00001612       0.00000168       0.02805094
Na       2.04736617       2.04746233       2.25679568      -0.00006985      -0.00000723      -0.00279154
Na       0.00016032       0.00006330       4.36929052       0.00008976       0.00003043      -0.01366354
Na       2.04765541       2.04714832       6.34605584       0.00000780      -0.00011742      -0.00164940
Na       0.00096526      -0.00097036       8.31757061      -0.00009186      -0.00003492       0.00738335
Na       2.04784315       2.04685688      10.44365728       0.00127747       0.00062007       0.00383132
Na       0.00000208      -0.00178929      12.61563481       0.00265549      -0.00057343       0.00530048
Na       2.03004613       2.00183125      14.81506458      -0.00249978      -0.00370441      -0.00379768
Na      -0.03176553       0.00969867      16.92154478       0.00525043       0.00151751      -0.00477886
Na       2.08192467       2.16010105      18.86512827      -0.00448940      -0.01340240      -0.00413840
Na      -0.08747995       0.02773421      20.83440379      -0.00406708       0.00582043       0.00538860
Na       1.82634713       1.90583214      22.83646248      -0.00757863      -0.00271152       0.00678698
Na      -0.00001126       4.09462886       0.40058862      -0.00000433      -0.00000948       0.02800474
Na       2.04736914       6.14160587       2.25689785      -0.00006901       0.00000217      -0.00282934
Na       0.00024523       4.09440591       4.36985308       0.00015190       0.00006624      -0.01390944
Na       2.04769522       6.14115039       6.34735614      -0.00000855       0.00024948      -0.00182821
Na       0.00038935       4.09291859       8.31888532       0.00003182       0.00025843       0.00658939
Na       2.04769680       6.14126647      10.43995820       0.00113175      -0.00015461       0.00396764
Na      -0.00086443       4.09495081      12.62849494       0.00190463      -0.00009754       0.01242850
Na       2.02424764       6.18351008      14.81108503      -0.00157501       0.00429050      -0.00501452
Na      -0.00761498       4.10186498      16.79606151       0.00132511      -0.00240333      -0.00091503
Na       2.11452568       6.00143218      18.86007627      -0.00796767      -0.00506036       0.00157528
Na      -0.07723698       4.13679050      21.08895601      -0.00512378      -0.01795748      -0.00981304
Na       1.92225448       6.10935709      23.02407327      -0.00751898      -0.00971562      -0.00827080
Na      -0.00006275       8.18898088       0.40040471      -0.00002104       0.00004774       0.02801353
Na       2.04732311      10.23608033       2.25669518      -0.00009222      -0.00000271      -0.00274784
Na       0.00024359       8.18859911       4.36964246       0.00014156      -0.00002683      -0.01367180
Na       2.04784043      10.23707687       6.34492062      -0.00006341       0.00009714      -0.00160539
Na       0.00084673       8.19107339       8.31703040      -0.00001345       0.00005002       0.00724651
Na       2.04836504      10.23772779      10.44490721       0.00141756       0.00152969       0.00240954
Na       0.00139843       8.19393325      12.61003540       0.00215876       0.00322815       0.00579709
Na       2.01744027      10.23619506      14.83121172      -0.00125373      -0.00446499      -0.00600730
Na      -0.00742618       8.16713881      16.95904895       0.00604501      -0.00222731      -0.00489077
Na       2.04288161      10.30758632      18.96432941      -0.00803631       0.00668653       0.00199571
Na      -0.06988497       7.96708602      20.96456268      -0.00117224       0.00627552      -0.01092185
Na       1.84593279      10.19819622      22.74400519      -0.00442950      -0.00664810      -0.01371008
Na      -0.00008224      12.28314820       0.40017476      -0.00003066       0.00004146       0.02789659
Na       2.04731423      14.33059503       2.25628228      -0.00008545       0.00004333      -0.00294509
Na       0.00015075      12.28375214       4.36905362       0.00007777       0.00015701      -0.01377910
Na       2.04782330      14.32963071       6.34704670       0.00001568       0.00003632      -0.00172149
Na       0.00102205      12.28180031       8.31997178      -0.00017276       0.00032707       0.00657974
Na       2.04997741      14.33215120      10.43872358       0.00128887      -0.00044864       0.00272175
Na       0.00018356      12.28847173      12.61506057       0.00296113      -0.00058296       0.01076570
Na       2.02890975      14.34342553      14.83034180      -0.00140822       0.00076808      -0.00457109
Na      -0.00716021      12.31505528      16.88737094       0.00145316      -0.00506431      -0.01456581
Na       2.05673433      14.29688696      18.91112266      -0.00328301      -0.00206917      -0.00401918
Na      -0.07957502      12.47330242      21.11024496      -0.01858802      -0.00491953      -0.00723637
Na       1.93723885      14.42193626      23.02742799      -0.00557222       0.00758547       0.01785731
Na       0.00000578      16.37806919       0.40006620      -0.00000411       0.00002788       0.02782740
Na       2.04739211      18.42507542       2.25685031      -0.00007663      -0.00000451      -0.00277019
Na       0.00027550      16.37717821       4.36937445       0.00010918      -0.00020294      -0.01378669
Na       2.04790324      18.42475459       6.34474102      -0.00008614       0.00001475      -0.00176674
Na       0.00146691      16.37920279       8.31776605      -0.00009625      -0.00004480       0.00671372
Na       2.04805078      18.42728446      10.44327528       0.00145731      -0.00037534       0.00239180
Na       0.00134008      16.37545209      12.61007526       0.00274058      -0.00086027       0.00828325
Na       2.00673502      18.41859882      14.82717852      -0.00138667      -0.00122332      -0.00433245
Na      -0.01005763      16.36417084      16.92603735       0.00031597      -0.00194723      -0.00956035
Na       2.02108107      18.45825248      18.93477248      -0.00026620      -0.00571205      -0.00838192
Na      -0.08934219      16.31280748      21.07936997      -0.01875291       0.00439394      -0.00998703
Na       1.89644673      18.52448792      22.73863013      -0.02008164      -0.00642940       0.00024119
Na      -0.00001066      20.47214722       0.40015227      -0.00000478      -0.00009895       0.02800391
Na       2.04730923      22.51957748       2.25679934      -0.00008292      -0.00003948      -0.00290639
Na       0.00025537      20.47284683       4.36968105       0.00014849       0.00012689      -0.01378255
Na       2.04771220      22.52041558       6.34700276      -0.00000412      -0.00009658      -0.00224909
Na       0.00202525      20.47203509       8.31669097       0.00014976       0.00039572       0.00688576
Na       2.05007559      22.51994800      10.44470650       0.00171478       0.00021678       0.00371782
Na       0.00296602      20.47225061      12.62053371       0.00331929      -0.00298216       0.00714179
Na       2.03071902      22.50568016      14.82329346       0.00118124      -0.00148982      -0.00522550
Na      -0.03378814      20.48076760      16.89235277       0.00194973       0.00325851      -0.00609493
Na       2.06786212      22.54179437      18.87849120      -0.00727318       0.00238282       0.00509310
Na      -0.14340321      20.53907109      20.91287483       0.01493092      -0.00709417      -0.00418578
Na       1.90188674      22.51670294      22.77960468       0.00678109       0.00267438      -0.00010518
Na      -0.00002858      24.56664454       0.40038336      -0.00001324      -0.00000747       0.02809310
Na       2.04735301      26.61380491       2.25675086      -0.00007176       0.00001419      -0.00279935
Na       0.00029906      24.56678676       4.36970050       0.00010034      -0.00012324      -0.01396986
Na       2.04770431      26.61415682       6.34530657      -0.00006421      -0.00010370      -0.00180015
Na       0.00179350      24.56796561       8.31881217      -0.00003582      -0.00080501       0.00642187
Na       2.04895247      26.61028570      10.44575182       0.00147067      -0.00110536       0.00242944
Na       0.00213472      24.56277538      12.62619876       0.00384808       0.00196477       0.00932324
Na       2.02540664      26.63032526      14.82947614      -0.00043134       0.00466095      -0.00412013
Na      -0.00578196      24.54656210      16.83488505       0.00388596       0.00459439      -0.00658747
Na       2.04228256      26.53523956      18.90057941      -0.00571616       0.01234508      -0.01161591
Na      -0.15616221      24.52879550      21.04408681      -0.00466462       0.01212854      -0.00199674
Na       1.95817822      26.67141330      22.74693819      -0.01558809       0.00982030      -0.00082846
Na       4.09465375      -0.00002352       0.40040576      -0.00005056       0.00000342       0.02827124
Na       6.14161958       2.04745947       2.25685501       0.00003001       0.00000978      -0.00280248
Na       4.09419577       0.00009796       4.36898013      -0.00005293       0.00004829      -0.01383541
Na       6.14005025       2.04678650       6.34621670       0.00005985      -0.00007430      -0.00178724
Na       4.09314002      -0.00118676       8.31909015       0.00037022      -0.00013402       0.00666514
Na       6.14137315       2.04660228      10.44188989      -0.00070328       0.00070070       0.00426950
Na       4.09318879      -0.00669955      12.63031045      -0.00002132      -0.00159921       0.00927916
Na       6.15583396       2.00534870      14.82350946       0.00209887      -0.00506794      -0.00555965
Na       4.08934954      -0.01612761      16.90896453      -0.00173322      -0.00150772      -0.00720936
Na       6.09360548       2.17580313      18.82696615       0.00489721      -0.01395717       0.00244649
Na       4.12374052       0.06449310      21.04192470      -0.01141082      -0.01026076       0.01469530
Na       6.24780183       1.85138191      23.08918373      -0.01475987       0.00710895      -0.00872040
Na       4.09458999       4.09452812       0.40044291      -0.00004922      -0.00003777       0.02820726
Na       6.14162920       6.14160143       2.25694185       0.00002428      -0.00001460      -0.00286159
Na       4.09440220       4.09448063       4.36986278      -0.00004990       0.00008782      -0.01403807
Na       6.14006266       6.14171776       6.34759041       0.00003519       0.00025090      -0.00188563
Na       4.09381204       4.09314457       8.32082474       0.00035553       0.00033389       0.00577210
Na       6.14230449       6.14372499      10.43976472      -0.00031110       0.00027657       0.00498703
Na       4.09419068       4.09565627      12.63267686      -0.00052787      -0.00034343       0.01475851
Na       6.15369094       6.18215350      14.83201895       0.00243351       0.00659224      -0.00970772
Na       4.08866059       4.09389161      16.72763648       0.00034566       0.00111316      -0.00471248
Na       6.10542445       6.03250576      18.86593507       0.00162999      -0.00162781       0.02027083
Na       4.14000161       4.02699925      21.31843872      -0.02670542      -0.01146951      -0.00775389
Na       6.29493830       6.17951253      22.85542020      -0.00440953       0.00837443       0.04807663
Na       4.09445781       8.18890754       0.40034307      -0.00009074       0.00000372       0.02821356
Na       6.14166677      10.23604500       2.25676914       0.00002204      -0.00003319      -0.00277425
Na       4.09429501       8.18860795       4.36949015      -0.00006554      -0.00002414      -0.01382298
Na       6.14030682      10.23717490       6.34551316       0.00002994      -0.00008863      -0.00184793
Na       4.09340459       8.19135831       8.31927067       0.00039278      -0.00002345       0.00650535
Na       6.14211679      10.23776144      10.44495518      -0.00071202       0.00156118       0.00392466
Na       4.09197599       8.19561500      12.62902430      -0.00073689       0.00410843       0.01091148
Na       6.14195451      10.23653684      14.82888874       0.00391968      -0.00220433      -0.00263292
Na       4.07574913       8.20285091      16.89969697       0.00106128      -0.00032520       0.00314824
Na       6.09669274      10.27831802      18.97295556       0.00567362       0.00256912       0.01139767
Na       4.02222347       8.04455650      21.08651132      -0.00449964       0.00208022       0.00378175
Na       6.23571178      10.02402269      22.75995945      -0.00021395      -0.00808020      -0.00114595
Na       4.09449823      12.28318678       0.40016851      -0.00007925       0.00004931       0.02810923
Na       6.14162853      14.33060744       2.25637080       0.00003333       0.00004412      -0.00297984
Na       4.09434970      12.28375110       4.36879463      -0.00000403       0.00011931      -0.01398884
Na       6.14008827      14.32963935       6.34764148       0.00003830       0.00006177      -0.00192071
Na       4.09412282      12.28186229       8.32180114       0.00047574       0.00028609       0.00563843
Na       6.14123681      14.33162590      10.44279165      -0.00064793      -0.00005712       0.00411495
Na       4.09139601      12.28792322      12.63198264      -0.00139548      -0.00035679       0.01505664
Na       6.14848113      14.34414934      14.84537770       0.00127811      -0.00053965      -0.00355935
Na       4.07582047      12.29708394      16.85762420       0.00209073      -0.00799467      -0.00878639
Na       6.12468708      14.28895789      18.87785335       0.00168143      -0.00259543       0.01688867
Na       4.08738905      12.37585581      21.27806718       0.00866719      -0.00489402      -0.00166680
Na       6.28901662      14.53719624      22.94642021       0.00023792       0.00859336       0.00805760
Na       4.09455794      16.37805603       0.40001604      -0.00005777       0.00003432       0.02799944
Na       6.14161392      18.42506848       2.25694282       0.00001450       0.00000349      -0.00278546
Na       4.09437967      16.37709989       4.36920567      -0.00000001      -0.00017940      -0.01395077
Na       6.14027531      18.42492480       6.34541329       0.00000128       0.00020640      -0.00192466
Na       4.09384937      16.37923087       8.31951921       0.00044288       0.00013357       0.00590982
Na       6.14067378      18.42788811      10.44129269      -0.00055154      -0.00036314       0.00406550
Na       4.09036320      16.38244763      12.63496607      -0.00133424      -0.00083388       0.01226393
Na       6.14942401      18.41659163      14.83475811       0.00126958      -0.00377296      -0.00242350
Na       4.06432524      16.38353220      16.88895034       0.00359876       0.00009977      -0.00753766
Na       6.13041652      18.45632950      18.91752275       0.00323095      -0.00373539       0.00968992
Na       4.02836584      16.34546552      21.12966436      -0.00834745       0.00748255      -0.00728131
Na       6.23201417      18.32793111      22.77683141      -0.00984109      -0.00289708      -0.00648976
Na       4.09454342      20.47225028       0.40012571      -0.00006262      -0.00005995       0.02809939
Na       6.14166195      22.51966544       2.25688581       0.00000393      -0.00003664      -0.00290554
Na       4.09434142      20.47296968       4.36948528      -0.00007659       0.00011044      -0.01395616
Na       6.14010431      22.52014279       6.34751760      -0.00003967      -0.00019017      -0.00221042
Na       4.09285791      20.47191251       8.31845005       0.00033988       0.00037645       0.00621002
Na       6.13987304      22.51771022      10.44365584      -0.00031184      -0.00021326       0.00548246
Na       4.08891476      20.46878913      12.63993372      -0.00016886      -0.00298751       0.01171641
Na       6.14940192      22.49721361      14.83650886       0.00190008       0.00049221      -0.00553708
Na       4.06656954      20.45135987      16.83986434       0.00431908       0.00619190       0.00480116
Na       6.15291084      22.51118492      18.81234117      -0.00221945       0.00675958       0.01597324
Na       4.16717960      20.51415876      21.14282936      -0.00289410       0.00684520       0.01297113
Na       6.17689750      22.64377887      22.92309006       0.00482203       0.00945042       0.01782912
Na       4.09455215      24.56669511       0.40029771      -0.00006151       0.00000860       0.02820159
Na       6.14162132      26.61375272       2.25688376       0.00001105       0.00003187      -0.00279909
Na       4.09423029      24.56662304       4.36951022      -0.00002171      -0.00013302      -0.01414051
Na       6.14003651      26.61393591       6.34561412       0.00005785      -0.00007515      -0.00191998
Na       4.09348040      24.56774434       8.32015220       0.00045694      -0.00078623       0.00549760
Na       6.14114944      26.61033351      10.44341939      -0.00051596      -0.00148671       0.00296886
Na       4.09661225      24.56317812      12.65009277      -0.00067971       0.00224963       0.01334397
Na       6.15849770      26.64031523      14.83671053       0.00133321       0.00279060      -0.00281281
Na       4.10138245      24.57385662      16.81868340       0.00060968      -0.00165917       0.00147518
Na       6.14575920      26.55892282      18.93764799       0.00725810       0.00931767      -0.00256166
Na       4.10560579      24.57880243      21.09160519       0.00283788       0.00429383       0.00216199
Na       6.27312639      26.68875684      22.83183874       0.00136857      -0.00768436      -0.00789809
Na       8.18888327       0.00002253       0.40034865       0.00006922       0.00002802       0.02808613
Na      10.23608764       2.04745932       2.25713608       0.00000129       0.00001200      -0.00271321
Na       8.18838268       0.00006662       4.36922899      -0.00005729       0.00003251      -0.01361408
Na      10.23626793       2.04700104       6.34553944       0.00015762      -0.00004929      -0.00157337
Na       8.18792381      -0.00133525       8.31520348      -0.00002714      -0.00004197       0.00739282
Na      10.23675985       2.04872745      10.43587690      -0.00034707       0.00149741       0.00389229
Na       8.19374613      -0.00088892      12.61718898      -0.00078844      -0.00070670       0.00577695
Na      10.24108227       2.01089399      14.81774258      -0.00510116      -0.00244271      -0.00529922
Na       8.20352557       0.01926336      16.94411826      -0.00285984      -0.00284692      -0.00860000
Na      10.31332213       2.15519993      18.83156462      -0.00153479      -0.01204945      -0.00900183
Na       8.20930455       0.12023771      21.00784513       0.01594272      -0.01118861       0.00906194
Na      10.19967876       1.98472404      23.21243445      -0.00011564       0.00022306      -0.00933715
Na       8.18886399       4.09440193       0.40032880       0.00007561      -0.00005300       0.02799357
Na      10.23603972       6.14155325       2.25714895      -0.00000921      -0.00001745      -0.00278533
Na       8.18825126       4.09452115       4.37020202      -0.00007086       0.00006803      -0.01383430
Na      10.23628187       6.14128143       6.34694689      -0.00002566       0.00025314      -0.00182841
Na       8.18764890       4.09361795       8.31710154      -0.00010242       0.00044414       0.00637130
Na      10.23672549       6.14329787      10.43656168      -0.00027205      -0.00007237       0.00520481
Na       8.19413084       4.09648453      12.63223331      -0.00103906      -0.00005623       0.01263823
Na      10.24115965       6.17818832      14.81670383      -0.00208989       0.00324792      -0.00551185
Na       8.21381024       4.09598527      16.80040158      -0.00569428      -0.00065316      -0.00572411
Na      10.31915659       6.02626526      18.80140340      -0.00386119      -0.00739670       0.00791699
Na       8.25300363       4.00808563      21.18218634       0.00774065      -0.00067506       0.00565734
Na      10.21661900       6.11206372      23.18903785       0.01380680      -0.00151263      -0.00868163
Na       8.18886703       8.18885347       0.40028630       0.00007253      -0.00002466       0.02799260
Na      10.23606220      10.23609070       2.25697853       0.00001708      -0.00001331      -0.00271162
Na       8.18848142       8.18855862       4.36983459      -0.00007311      -0.00001926      -0.01368845
Na      10.23617655      10.23722489       6.34463756       0.00009097      -0.00001620      -0.00159648
Na       8.18856171       8.19178169       8.31563424      -0.00012336       0.00000977       0.00702114
Na      10.23667067      10.23788077      10.44111517      -0.00069211       0.00116409       0.00360327
Na       8.19383848       8.19747821      12.62573821      -0.00063643       0.00319320       0.00848132
Na      10.24485820      10.23168095      14.82253335      -0.00301291      -0.00449484      -0.00551925
Na       8.20255114       8.19675784      16.92705799      -0.00198412      -0.00185413       0.00171709
Na      10.32925711      10.28407967      18.89415751      -0.00359090       0.00823763       0.00541360
Na       8.30377739       8.02136197      20.98325461       0.00377005      -0.00486775      -0.01119193
Na      10.24992664      10.14054854      22.81480867       0.00276006      -0.01049776      -0.00506934
Na       8.18890316      12.28323693       0.40006443       0.00007214       0.00004277       0.02792552
Na      10.23610878      14.33061520       2.25650800       0.00000104       0.00007147      -0.00289704
Na       8.18840160      12.28386970       4.36921604      -0.00008934       0.00013496      -0.01378134
Na      10.23616788      14.32987997       6.34662376      -0.00002394       0.00007985      -0.00171824
Na       8.18796243      12.28228393       8.31876796      -0.00027018       0.00023703       0.00634269
Na      10.23476630      14.33064150      10.43723984      -0.00042760      -0.00040598       0.00309498
Na       8.19271405      12.28495563      12.63161251      -0.00091997       0.00039782       0.01159077
Na      10.23519679      14.33636274      14.83353222      -0.00404274      -0.00066951      -0.00567991
Na       8.20374122      12.27892122      16.89351889      -0.00141620      -0.00073579      -0.00618052
Na      10.32194136      14.29333195      18.85546066       0.00077979       0.00094561       0.00383354
Na       8.23755886      12.38720769      21.15581583       0.00854628       0.00220076       0.01244193
Na      10.23937282      14.46196919      23.24923971       0.00444465       0.00235864      -0.01324532
Na       8.18889850      16.37808457       0.39993805       0.00005103       0.00003771       0.02776599
Na      10.23607033      18.42506716       2.25716799      -0.00001078      -0.00002987      -0.00270707
Na       8.18835203      16.37707543       4.36954996      -0.00010743      -0.00013973      -0.01371065
Na      10.23619435      18.42481014       6.34465008       0.00004247       0.00005418      -0.00161567
Na       8.18779325      16.37852000       8.31634839      -0.00021694       0.00019266       0.00675811
Na      10.23679093      18.42633563      10.43708069      -0.00018185      -0.00017256       0.00365723
Na       8.19291789      16.37902693      12.62616177       0.00040611      -0.00117139       0.01030805
Na      10.25320960      18.40987853      14.82389306      -0.00177565       0.00011460      -0.00569736
Na       8.22212365      16.37557993      16.90985125      -0.00050412       0.00083172      -0.00334644
Na      10.33611915      18.47267337      18.86269592       0.00155602      -0.00494834       0.00120718
Na       8.37949611      16.39566758      21.06025184       0.00884287       0.00109871       0.00091610
Na      10.21655267      18.51089793      23.13975542       0.01644546       0.00274852      -0.01358007
Na       8.18882590      20.47220764       0.40011479       0.00003559      -0.00004513       0.02781892
Na      10.23606845      22.51962430       2.25703888      -0.00001112      -0.00004221      -0.00283439
Na       8.18838789      20.47291561       4.36982094      -0.00004631       0.00012625      -0.01373936
Na      10.23629033      22.52005400       6.34669557      -0.00001210      -0.00010245      -0.00204640
Na       8.18796628      20.47183017       8.31517281      -0.00013602       0.00036896       0.00695876
Na      10.23538373      22.51823062      10.43875906      -0.00065678      -0.00008369       0.00495609
Na       8.19509003      20.46927360      12.63111873      -0.00091989      -0.00396288       0.00913350
Na      10.23326187      22.50446332      14.81269440      -0.00596715      -0.00191960      -0.00861381
Na       8.22655710      20.44949379      16.85801647      -0.00931033       0.00265191      -0.00035944
Na      10.28870447      22.52057209      18.82572975      -0.00722519       0.00358945       0.00620813
Na       8.17617331      20.49564876      21.19851771       0.00495644       0.00111247      -0.02082341
Na      10.16936223      22.38086049      23.10202560      -0.01622752      -0.00234648       0.00167450
Na       8.18882313      24.56679272       0.40026981       0.00003517       0.00001534       0.02795300
Na      10.23608175      26.61378907       2.25703180      -0.00002365       0.00002400      -0.00272277
Na       8.18842846      24.56661789       4.36994920      -0.00008987      -0.00017356      -0.01389066
Na      10.23622145      26.61406129       6.34497986       0.00003453      -0.00012255      -0.00167496
Na       8.18763990      24.56734790       8.31725293      -0.00021996      -0.00099609       0.00617654
Na      10.23476459      26.61052034      10.44054950      -0.00065429      -0.00159233       0.00281832
Na       8.19076920      24.56105382      12.63979957      -0.00109317       0.00251474       0.00974387
Na      10.23173253      26.64692167      14.81636261      -0.00360775       0.00472770      -0.00356892
Na       8.21064965      24.57115807      16.84023874      -0.00482782       0.00034164       0.00004631
Na      10.28829771      26.55786607      18.87165297       0.00612536       0.00819206      -0.00116595
Na       8.27369264      24.52469237      21.07630175       0.00677731       0.00900719       0.00371448
Na      10.12282229      26.79575008      23.00451448       0.00534797       0.01160281       0.00244911
Na      12.28312129      -0.00000432       0.40035777      -0.00000435       0.00004490       0.02805151
Na      14.33063423       2.04740441       2.25667969      -0.00005216       0.00002597      -0.00278817
Na      12.28384924      -0.00001594       4.36941136       0.00007488      -0.00001456      -0.01365836
Na      14.33071400       2.04698885       6.34649550       0.00016878       0.00001241      -0.00176565
Na      12.28392997      -0.00107344       8.31741846       0.00036346      -0.00008940       0.00737355
Na      14.33202751       2.04938577      10.44164908       0.00087065       0.00124708       0.00382278
Na      12.28149786      -0.00214061      12.60924098      -0.00016685       0.00027956       0.00794176
Na      14.34980831       2.00129067      14.79252693       0.00296014      -0.00258156      -0.00179826
Na      12.29783836       0.00295741      16.87386961      -0.00647741       0.00073484      -0.01169123
Na      14.23584568       2.12475687      18.86858456      -0.00284003      -0.00858751      -0.00776769
Na      12.21738964       0.07247861      21.03653852      -0.00779299       0.00183114       0.01788497
Na      14.41244391       1.92922407      22.93258085      -0.01080981       0.00749659      -0.01225259
Na      12.28314203       4.09451272       0.40037168      -0.00000719      -0.00001249       0.02791580
Na      14.33066396       6.14160276       2.25687670      -0.00006221      -0.00000927      -0.00286729
Na      12.28383150       4.09452055       4.37008029       0.00002886       0.00012442      -0.01395024
Na      14.33109153       6.14145297       6.34813131       0.00024105       0.00019332      -0.00211307
Na      12.28408974       4.09375946       8.31863078       0.00038276       0.00061921       0.00606950
Na      14.33357892       6.14203402      10.43976985       0.00106143      -0.00065340       0.00466792
Na      12.28620992       4.09705956      12.62492301       0.00066843      -0.00108123       0.01397133
Na      14.35872337       6.17807257      14.79412714       0.00147425       0.00070933      -0.00296346
Na      12.31627510       4.08679247      16.72074075      -0.00681976      -0.00135790      -0.00632665
Na      14.25109304       6.02390644      18.86128887      -0.00346849      -0.00335014       0.00371915
Na      12.21690321       4.05557523      21.25572863       0.00230620      -0.00822446       0.00781395
Na      14.38771650       6.11173310      22.90071437      -0.01394987      -0.00406398      -0.00501535
Na      12.28322635       8.18897356       0.40029289       0.00002031       0.00001022       0.02793532
Na      14.33063103      10.23609377       2.25671482      -0.00003927      -0.00001108      -0.00276355
Na      12.28369967       8.18854103       4.36989540       0.00005760      -0.00005552      -0.01373042
Na      14.33053938      10.23713501       6.34552594       0.00025108       0.00005864      -0.00176550
Na      12.28359150       8.19105952       8.31706923       0.00048262      -0.00021385       0.00703371
Na      14.33081228      10.23683106      10.44148207       0.00036463       0.00164916       0.00285382
Na      12.28452323       8.19496919      12.61716413       0.00040250       0.00156810       0.00990247
Na      14.34348300      10.23437119      14.79973917       0.00103759      -0.00404285      -0.00316510
Na      12.31738783       8.17976759      16.86573053      -0.00483769       0.00114387      -0.00128674
Na      14.22024708      10.30062268      18.93986445      -0.00458574       0.00676619       0.00579742
Na      12.25112363       8.00337595      21.04892375       0.00926922      -0.00068005      -0.00483725
Na      14.31383007      10.12547042      22.85960842      -0.01142466       0.00028551      -0.01742865
Na      12.28329881      12.28321936       0.39996904       0.00005066       0.00005308       0.02787040
Na      14.33062894      14.33061921       2.25624566      -0.00004406       0.00005203      -0.00294255
Na      12.28367603      12.28382246       4.36906429       0.00002661       0.00015896      -0.01389978
Na      14.33104902      14.32983609       6.34742746       0.00020135       0.00002673      -0.00186221
Na      12.28282535      12.28215411       8.31908210       0.00015615       0.00009030       0.00606709
Na      14.33122133      14.33012006      10.43526220       0.00036633      -0.00042071       0.00267170
Na      12.28260206      12.28682999      12.61804355      -0.00043184       0.00045628       0.01279909
Na      14.34190020      14.33934752      14.81306807       0.00230246       0.00065504      -0.00375090
Na      12.30513857      12.29963377      16.80771755      -0.00157795       0.00085268      -0.00984253
Na      14.24166117      14.31183336      18.90704577       0.00208146      -0.00120720       0.00637334
Na      12.26435310      12.44125480      21.18980827      -0.00365853      -0.00180901       0.01060824
Na      14.26857905      14.26841787      23.20460507       0.00353196       0.00450186       0.00542939
Na      12.28323999      16.37804675       0.39986954       0.00004949       0.00001520       0.02777580
Na      14.33060559      18.42502154       2.25684837      -0.00003620      -0.00003670      -0.00273932
Na      12.28369979      16.37716385       4.36954425       0.00002088      -0.00015995      -0.01383272
Na      14.33066598      18.42476523       6.34555890       0.00018599       0.00008695      -0.00179951
Na      12.28344803      16.37862889       8.31767571       0.00018093       0.00004477       0.00641476
Na      14.33118635      18.42800789      10.44043328       0.00003892      -0.00017407       0.00310874
Na      12.28593359      16.37558203      12.61445045      -0.00036036      -0.00153859       0.01110535
Na      14.34160090      18.41898136      14.80985986       0.00267760      -0.00124061      -0.00329857
Na      12.29818193      16.36327255      16.85766001      -0.00241735      -0.00075657      -0.00818260
Na      14.22884615      18.44717878      18.89832626      -0.00075209      -0.00425429       0.00463738
Na      12.27647636      16.33107380      21.25087031       0.00458483       0.00082020      -0.00307616
Na      14.33795518      18.55124630      22.89040208      -0.00373428      -0.01239886      -0.00459532
Na      12.28321291      20.47210131       0.40020593       0.00002598      -0.00010269       0.02786180
Na      14.33063118      22.51963987       2.25679149      -0.00003345      -0.00004705      -0.00289108
Na      12.28381804      20.47287957       4.36981529      -0.00000353       0.00010891      -0.01383459
Na      14.33081348      22.52038326       6.34783472       0.00018984      -0.00014586      -0.00223965
Na      12.28356397      20.47172053       8.31651467       0.00009770       0.00055709       0.00654994
Na      14.33087993      22.51930728      10.43947191       0.00027165       0.00039023       0.00465948
Na      12.28336030      20.47166715      12.62387545       0.00071677      -0.00144812       0.01034576
Na      14.34571426      22.51138959      14.80067311       0.00322019       0.00276742      -0.01018695
Na      12.31144418      20.49091656      16.79986054      -0.00384911      -0.00187167       0.00047736
Na      14.20534713      22.58156622      18.88375031      -0.00451554      -0.00048932       0.00279628
Na      12.21686990      20.52189921      21.10220697      -0.00184309      -0.00181513       0.00209949
Na      14.26499575      22.49149985      22.99920598      -0.00252640      -0.00400171      -0.01282603
Na      12.28321785      24.56674981       0.40040478      -0.00000104      -0.00000674       0.02798730
Na      14.33068956      26.61381679       2.25669939      -0.00002967       0.00003115      -0.00276586
Na      12.28374721      24.56671192       4.36986001       0.00005390      -0.00013255      -0.01398554
Na      14.33127373      26.61375814       6.34626457       0.00019356      -0.00014000      -0.00184167
Na      12.28272311      24.56781177       8.31857027       0.00019974      -0.00080056       0.00593110
Na      14.33131865      26.60997783      10.44191736      -0.00007942      -0.00172882       0.00254549
Na      12.27859952      24.56266939      12.62783588      -0.00095504       0.00152762       0.01023682
Na      14.33270172      26.63508107      14.79385646       0.00053893       0.00199158      -0.00063639
Na      12.27717075      24.56086021      16.77096489      -0.00798336       0.00122127      -0.00571686
Na      14.17940000      26.52919264      18.90980991      -0.00135796       0.00642886       0.00852718
Na      12.19286496      24.53870378      21.22226523       0.00101480       0.00984789       0.01257311
Na      14.21550520      26.74457748      22.96315476       0.00305621       0.00540831      -0.00184628
Na      16.37792812      -0.00003587       0.40020828      -0.00000853       0.00002293       0.02813066
Na      18.42510861       2.04743723       2.25687607       0.00001157       0.00000688      -0.00274330
Na      16.37764137       0.00019560       4.36916673      -0.00012983       0.00001453      -0.01373432
Na      18.42492766       2.04707721       6.34532467      -0.00009420      -0.00011255      -0.00193939
Na      16.37877676       0.00014422       8.31798583       0.00017708      -0.00026290       0.00729595
Na      18.42622143       2.04779440      10.44704701       0.00093174       0.00067195       0.00269926
Na      16.37687705      -0.00287348      12.61396443       0.00099615      -0.00215335       0.00481946
Na      18.40677000       1.98849026      14.83085972      -0.00098264      -0.00598654      -0.00085779
Na      16.32986112      -0.02437732      16.94260690       0.00020431      -0.00236571      -0.00526699
Na      18.46592696       2.08711311      18.85793837      -0.00012568      -0.00776837       0.00579205
Na      16.26807661      -0.04760842      20.90875122      -0.00567012       0.00368972       0.00778198
Na      18.47498130       1.89505026      22.72798031      -0.01527766      -0.00451359       0.00180135
Na      16.37788586       4.09453378       0.40022925      -0.00005522      -0.00002251       0.02804160
Na      18.42505703       6.14154872       2.25702376       0.00000423      -0.00001224      -0.00278252
Na      16.37756050       4.09437674       4.36995712      -0.00007466       0.00011662      -0.01398574
Na      18.42478711       6.14110179       6.34703853       0.00009273       0.00027012      -0.00215007
Na      16.37955940       4.09295783       8.31976062       0.00059671       0.00052719       0.00608021
Na      18.42653700       6.14324508      10.44461054       0.00075644      -0.00034013       0.00405280
Na      16.38521194       4.09335860      12.64180916       0.00311639      -0.00137738       0.01149678
Na      18.40890624       6.18869293      14.83395627      -0.00230970       0.00337979      -0.00204350
Na      16.35770872       4.07954758      16.81569610       0.00295882      -0.00101366      -0.00106358
Na      18.44249061       6.05731560      18.86407210       0.00244922      -0.00149317       0.00204147
Na      16.33841901       4.03879417      21.03884423      -0.00736553      -0.00556047       0.01090105
Na      18.36106402       6.18263104      22.63861749      -0.01079660      -0.00543256       0.01546403
Na      16.37784894       8.18898248       0.40016030      -0.00006047       0.00002760       0.02804496
Na      18.42514105      10.23608895       2.25671985      -0.00001270      -0.00000953      -0.00270790
Na      16.37765852       8.18863962       4.36967250      -0.00010966      -0.00008668      -0.01378546
Na      18.42481319      10.23704019       6.34412648      -0.00006772      -0.00001361      -0.00197493
Na      16.37915655       8.19136038       8.31723467       0.00041026      -0.00015457       0.00705631
Na      18.42561291      10.23684068      10.44737970       0.00090817       0.00208746       0.00181914
Na      16.37863480       8.19687911      12.62062902       0.00250153       0.00293692       0.00617608
Na      18.39767380      10.23184874      14.82867648      -0.00061477       0.00030054      -0.00025450
Na      16.34213514       8.20177535      16.93299612      -0.00077521       0.00303023       0.00166183
Na      18.45246677      10.32673244      18.94109751       0.00525663      -0.00433956       0.00928265
Na      16.27887609       8.14532802      20.89496268      -0.00744586      -0.02009526       0.00531725
Na      18.50104913      10.05071982      22.63191241      -0.00268919      -0.00395931      -0.01294015
Na      16.37779932      12.28323530       0.39989014      -0.00006973       0.00006501       0.02794227
Na      18.42505311      14.33059351       2.25644658      -0.00002124       0.00004932      -0.00288555
Na      16.37773274      12.28371266       4.36898029      -0.00009468       0.00016036      -0.01394566
Na      18.42480030      14.33000701       6.34686750       0.00002359       0.00007660      -0.00199856
Na      16.37938144      12.28150405       8.31987058       0.00054556       0.00035190       0.00620415
Na      18.42806161      14.33200448      10.44265261       0.00124937      -0.00015191       0.00262380
Na      16.37881722      12.28747796      12.62269830       0.00140818       0.00103226       0.01092464
Na      18.40739341      14.34310729      14.84714451      -0.00233111      -0.00000063      -0.00166306
Na      16.33603796      12.29372639      16.89753208      -0.00034438      -0.00212371      -0.00484425
Na      18.41321549      14.30577841      18.90809007       0.00239383       0.00567125       0.00225958
Na      16.28886469      12.37697302      21.15543536       0.00188773      -0.00530148       0.00035221
Na      18.33653263      14.46665913      22.82049674      -0.02981720       0.01307508       0.02016506
Na      16.37778019      16.37800873       0.39982965      -0.00007728       0.00001480       0.02787151
Na      18.42508563      18.42508689       2.25693761      -0.00002088      -0.00003107      -0.00270276
Na      16.37767739      16.37725997       4.36932197      -0.00011557      -0.00019775      -0.01388352
Na      18.42456894      18.42470078       6.34438118      -0.00005942       0.00001740      -0.00203449
Na      16.37906586      16.37957946       8.31860705       0.00050817       0.00005281       0.00666695
Na      18.42648415      18.42702008      10.44638597       0.00064643      -0.00060667       0.00276680
Na      16.37662185      16.37805297      12.61900835       0.00122869      -0.00122708       0.00901276
Na      18.39717044      18.41931254      14.82655587      -0.00131199      -0.00068941       0.00344641
Na      16.33024337      16.36931718      16.91489465       0.00016701      -0.00279057      -0.00464358
Na      18.40007965      18.40698961      18.92997510      -0.00410619      -0.00086214       0.00887362
Na      16.18431691      16.29940383      21.09401691      -0.00409480       0.00616978      -0.00335780
Na      18.42016664      18.46628532      22.59410891      -0.00989389       0.00286886      -0.00212976
Na      16.37778449      20.47213833       0.40012059      -0.00005498      -0.00009679       0.02795699
Na      18.42512661      22.51961469       2.25686574       0.00001590      -0.00002259      -0.00284784
Na      16.37757356      20.47288945       4.36972395      -0.00010009       0.00013226      -0.01388760
Na      18.42475319      22.52012719       6.34665149       0.00004063      -0.00009142      -0.00240157
Na      16.37905278      20.47150092       8.31735524       0.00052412       0.00039584       0.00680211
Na      18.42692876      22.51680398      10.44706456       0.00057142       0.00019980       0.00409903
Na      16.37643818      20.47165768      12.62986175       0.00086742      -0.00204684       0.00794340
Na      18.40626541      22.50118374      14.83264818      -0.00007399      -0.00116190      -0.00322866
Na      16.34566436      20.48935267      16.89594205      -0.00169276       0.00236661       0.00475838
Na      18.45087175      22.58202454      18.87191958       0.00685974       0.00356496       0.01085945
Na      16.26220222      20.56337613      20.95481787       0.00180584      -0.00204978       0.00816741
Na      18.38368901      22.49574621      22.75928028       0.01189206      -0.00009160       0.01654335
Na      16.37792833      24.56673662       0.40026039      -0.00000884      -0.00000853       0.02808136
Na      18.42512079      26.61382911       2.25684518       0.00003366       0.00002407      -0.00270471
Na      16.37782152      24.56655050       4.36962415      -0.00010625      -0.00011119      -0.01401154
Na      18.42471891      26.61425495       6.34506707       0.00001670      -0.00006373      -0.00189024
Na      16.37978291      24.56700429       8.31946626       0.00036890      -0.00070753       0.00615349
Na      18.42557388      26.61193484      10.44529242       0.00113857      -0.00139294       0.00195251
Na      16.38048632      24.56263967      12.63550064       0.00240873       0.00274343       0.00892530
Na      18.40140771      26.64839709      14.82933738      -0.00181390       0.00218592      -0.00079003
Na      16.32761783      24.57558522      16.85981158       0.00316955       0.00090258       0.00194111
Na      18.46370502      26.53046053      18.90385465      -0.00281259       0.00432086       0.00200093
Na      16.22315387      24.60087744      21.12919055      -0.00674805       0.00131385       0.00102575
Na      18.43230769      26.72676745      22.61721502      -0.01546441      -0.00110003       0.00641045
Na      20.47245254      -0.00004194       0.40021870      -0.00000861       0.00001577       0.02804429
Na      22.51956053       2.04743494       2.25715029       0.00002650      -0.00000370      -0.00276264
Na      20.47250704       0.00007866       4.36931240       0.00004673       0.00005394      -0.01374617
Na      22.51964339       2.04705474       6.34651752      -0.00029287      -0.00004431      -0.00184733
Na      20.47086038       0.00004597       8.31685758      -0.00005183      -0.00006695       0.00703663
Na      22.51896438       2.04796952      10.44190715      -0.00169525       0.00075923       0.00550416
Na      20.47177326      -0.00408966      12.63013043      -0.00370317      -0.00136030       0.00587757
Na      22.50808621       2.00434001      14.81575917      -0.00150736      -0.00243908      -0.00591722
Na      20.50047323      -0.02080270      16.91906292       0.00374867      -0.00421257      -0.01145557
Na      22.57297170       2.14681965      18.79554585      -0.00152092      -0.00789908      -0.00054653
Na      20.63272462      -0.01103255      20.98447662      -0.00303157      -0.00105069       0.01178362
Na      22.57800650       1.93015701      22.97824747       0.00933908       0.01478097      -0.00858535
Na      20.47243971       4.09448557       0.40029826      -0.00000364      -0.00006194       0.02798016
Na      22.51960342       6.14159541       2.25722627       0.00002827      -0.00003227      -0.00278054
Na      20.47246125       4.09443338       4.37005855       0.00001600       0.00005954      -0.01395531
Na      22.51921318       6.14124438       6.34782508      -0.00034392       0.00025071      -0.00196214
Na      20.47102045       4.09291135       8.31920592      -0.00011393       0.00046490       0.00626571
Na      22.51634413       6.14393023      10.43953911      -0.00189773       0.00052971       0.00588034
Na      20.46689246       4.09386076      12.64735205      -0.00350143       0.00014170       0.01322452
Na      22.49898647       6.19409630      14.82380379       0.00076495       0.00404686      -0.00305863
Na      20.45252465       4.08484981      16.76674780       0.00801599       0.00170047      -0.00362385
Na      22.55173592       6.05902594      18.73363880       0.00625839      -0.00431612       0.01725897
Na      20.61501867       4.09452913      21.16534185       0.00551561       0.00598124       0.01438056
Na      22.70314735       6.15327154      23.00258183      -0.01143689       0.00840056       0.04783041
Na      20.47248892       8.18883537       0.40025630       0.00001188      -0.00000962       0.02802332
Na      22.51957548      10.23602181       2.25711204       0.00003433      -0.00002242      -0.00270198
Na      20.47238992       8.18854626       4.36978969       0.00004454      -0.00003530      -0.01378169
Na      22.51978593      10.23699601       6.34557565      -0.00025613      -0.00006375      -0.00185766
Na      20.47063734       8.19156456       8.31634722      -0.00016384       0.00006100       0.00687952
Na      22.51983180      10.23701672      10.44149863      -0.00117706       0.00165746       0.00488252
Na      20.47009852       8.20228096      12.63440162      -0.00510362       0.00314388       0.00800377
Na      22.51838965      10.22972467      14.83056257      -0.00333935      -0.00279922      -0.00380505
Na      20.46575204       8.22656808      16.91033786       0.00432013      -0.00297954      -0.00127798
Na      22.59294696      10.31576064      18.90697107      -0.00725748      -0.00071507       0.00757451
Na      20.63598833       8.00095464      21.07593802       0.00187501      -0.01140398      -0.01032474
Na      22.53762030      10.10448355      22.79705532       0.01069037      -0.00376012      -0.00502615
Na      20.47244643      12.28321377       0.40011856       0.00000180       0.00003943       0.02793575
Na      22.51960090      14.33058839       2.25669452       0.00003338       0.00006487      -0.00289310
Na      20.47247095      12.28386376       4.36922712       0.00006504       0.00013243      -0.01388376
Na      22.51946293      14.32978395       6.34823420      -0.00028303       0.00007730      -0.00194151
Na      20.47082767      12.28118877       8.31931176       0.00013383       0.00031039       0.00607754
Na      22.51820643      14.33077164      10.43907577      -0.00099943      -0.00042024       0.00545818
Na      20.47158027      12.28358030      12.63926511      -0.00292409       0.00046995       0.01224560
Na      22.51642208      14.33669926      14.83870400      -0.00099925       0.00082360      -0.00710279
Na      20.47121791      12.28913061      16.85128379       0.00260959       0.00273657      -0.00541581
Na      22.58503389      14.28650162      18.79461346      -0.00302347      -0.00229470       0.00964787
Na      20.55654207      12.40651919      21.20292615       0.00073347       0.01039086       0.01497784
Na      22.60664931      14.46333382      23.10671310       0.01609725       0.00578244       0.00044345
Na      20.47237848      16.37801270       0.40007058      -0.00002577       0.00003010       0.02787791
Na      22.51960658      18.42512471       2.25719313       0.00004330      -0.00000000      -0.00271153
Na      20.47249927      16.37718011       4.36956558       0.00005966      -0.00016569      -0.01384195
Na      22.51951317      18.42495573       6.34560200      -0.00025227       0.00016617      -0.00197878
Na      20.47099737      16.37956011       8.31752997       0.00013832       0.00015919       0.00651915
Na      22.51768522      18.42782566      10.44006159      -0.00116390      -0.00044025       0.00525113
Na      20.47341106      16.38034600      12.64026774      -0.00328587      -0.00112337       0.01142479
Na      22.51888336      18.42436962      14.82705689      -0.00330159      -0.00090295      -0.00385144
Na      20.47603414      16.38668664      16.88417100       0.00023287      -0.00420138      -0.00105488
Na      22.61663740      18.42919723      18.85886226      -0.00426488      -0.00171413       0.00057102
Na      20.56866234      16.35159159      21.06045088       0.00417559      -0.00089576       0.01505886
Na      22.67975139      18.44504042      22.79473004       0.00707789      -0.00252774      -0.00298814
Na      20.47243877      20.47225195       0.40012257      -0.00000783      -0.00004178       0.02792746
Na      22.51955441      22.51965710       2.25711271       0.00003020      -0.00001251      -0.00284461
Na      20.47235289      20.47284921       4.36970478       0.00003079       0.00010675      -0.01386914
Na      22.51933159      22.52013107       6.34782225      -0.00024530      -0.00024177      -0.00224383
Na      20.47003871      20.47115017       8.31538883      -0.00010777       0.00020424       0.00673359
Na      22.51747408      22.51518788      10.44071958      -0.00147696      -0.00060025       0.00623429
Na      20.46762050      20.46652595      12.64379709      -0.00418005      -0.00267550       0.00871674
Na      22.50535375      22.48491371      14.82438660      -0.00414829      -0.00356141      -0.00830387
Na      20.46006529      20.44266081      16.88087728       0.00197575       0.00317486       0.00046602
Na      22.56660494      22.57775154      18.74556929      -0.00011943       0.00458251       0.01234590
Na      20.58530851      20.51187910      21.10952734       0.00101581       0.00371767      -0.00479009
Na      22.59430505      22.43593373      22.99291238       0.00974771      -0.00506649       0.00407691
Na      20.47244587      24.56684294       0.40019071       0.00000431       0.00003154       0.02799546
Na      22.51955919      26.61377860       2.25715191       0.00002289       0.00001090      -0.00275475
Na      20.47235843      24.56667403       4.36999531       0.00006944      -0.00012700      -0.01398000
Na      22.51955955      26.61413528       6.34629793      -0.00029659      -0.00007160      -0.00189595
Na      20.47088282      24.56756221       8.31902694       0.00009883      -0.00092501       0.00619322
Na      22.51984033      26.61266789      10.44041910      -0.00135694      -0.00099541       0.00425818
Na      20.47242397      24.56495160      12.64346276      -0.00339533       0.00175695       0.01122893
Na      22.51903813      26.64842808      14.82004038      -0.00102822       0.00175176      -0.00897525
Na      20.46727458      24.57734158      16.78731792       0.00438757      -0.00178159      -0.00310928
Na      22.60855619      26.48418331      18.83189694      -0.00008279       0.00947924      -0.00484718
Na      20.64148757      24.59302100      21.16938439       0.00493653       0.00061174       0.01707437
Na      22.58243024      26.82798220      23.06725526       0.02842452      -0.01060199      -0.03338168
Na      24.56660256      -0.00003702       0.40053504       0.00001651       0.00000947       0.02811302
Na      26.61382102       2.04743778       2.25707634       0.00004986       0.00000041      -0.00276102
Na      24.56685412       0.00011906       4.36977207       0.00002545      -0.00000775      -0.01374350
Na      26.61491691       2.04707832       6.34593377       0.00000436      -0.00002004      -0.00175066
Na      24.56797713      -0.00005532       8.31580365      -0.00067418      -0.00004712       0.00722428
Na      26.61120337       2.04842708      10.44126003      -0.00014062       0.00131998       0.00461089
Na      24.56722188      -0.00333257      12.62370583       0.00066127       0.00033369       0.00726954
Na      26.62399104       2.01859238      14.79348167       0.00481151      -0.00308811      -0.00183950
Na      24.58602426      -0.00020328      16.86978538       0.00213067       0.00295081      -0.00929036
Na      26.54952423       2.18764264      18.84636244       0.00573240      -0.01732801      -0.00651299
Na      24.57277194      -0.01304253      20.93282243       0.01018978      -0.00038049       0.02037602
Na      26.54321427       2.02007219      22.89014600       0.00920505      -0.00593382       0.00724848
Na      24.56668747       4.09455548       0.40061493       0.00004051      -0.00002432       0.02802540
Na      26.61383486       6.14160790       2.25716728       0.00008064      -0.00000155      -0.00278188
Na      24.56683861       4.09446580       4.37056797      -0.00000294       0.00009258      -0.01400704
Na      26.61505271       6.14118119       6.34701887       0.00002531       0.00022451      -0.00191000
Na      24.56707802       4.09370501       8.31793738      -0.00106948       0.00040842       0.00633853
Na      26.61132240       6.14246574      10.43767967      -0.00022447      -0.00020562       0.00476504
Na      24.55935520       4.10134159      12.63216310      -0.00025933      -0.00000006       0.01520659
Na      26.63187484       6.18434877      14.80364251       0.00329661       0.00220304      -0.00270131
Na      24.56929080       4.10160130      16.69777784       0.00206458      -0.00046425       0.00405059
Na      26.55621675       6.01899692      18.81868351      -0.00155328      -0.00195937      -0.00301306
Na      24.53326965       4.09442632      21.12193597      -0.00508970       0.00596417       0.00120074
Na      26.56563404       6.06153968      23.04790420       0.00454834      -0.00472059      -0.00866712
Na      24.56677041       8.18892498       0.40046751       0.00006314       0.00001371       0.02808041
Na      26.61379767      10.23605116       2.25703273       0.00006791      -0.00001782      -0.00269300
Na      24.56682551       8.18844314       4.37022894       0.00000439      -0.00005559      -0.01377365
Na      26.61473517      10.23700857       6.34502406       0.00003382      -0.00001139      -0.00168431
Na      24.56744256       8.19036992       8.31564986      -0.00090321       0.00004590       0.00702884
Na      26.61123615      10.23636192      10.44222642       0.00013503       0.00140502       0.00314062
Na      24.56454837       8.19682471      12.62867885       0.00176005       0.00360049       0.00933641
Na      26.65398478      10.22393564      14.81223524       0.00471735      -0.00193919      -0.00357722
Na      24.59826960       8.21013728      16.86693546       0.00024655      -0.00271730       0.00027484
Na      26.60152980      10.29909593      18.93371130       0.00571375       0.00255515      -0.00955410
Na      24.62214289       8.03009208      20.99408902      -0.00340835      -0.00852646      -0.00082691
Na      26.66333319      10.08052798      22.77156855       0.00316393       0.01535548       0.00820605
Na      24.56673259      12.28311507       0.40035996       0.00005047       0.00002570       0.02798124
Na      26.61386290      14.33062295       2.25655628       0.00007997       0.00005085      -0.00288123
Na      24.56681322      12.28386534       4.36962611       0.00001808       0.00018351      -0.01389414
Na      26.61479345      14.33004456       6.34736120       0.00003794       0.00012153      -0.00183790
Na      24.56752002      12.28182877       8.31858636      -0.00077688       0.00024010       0.00614605
Na      26.61106701      14.33175800      10.43635916      -0.00045678      -0.00054532       0.00330118
Na      24.56821241      12.28460853      12.62959655       0.00157963      -0.00136514       0.01407099
Na      26.64071426      14.34253933      14.80953575       0.00343424       0.00077344       0.00018357
Na      24.60517071      12.27798280      16.79795130      -0.00104255       0.00043722      -0.00443334
Na      26.55968868      14.30117025      18.84578118       0.00971474      -0.00285070       0.00717645
Na      24.61001601      12.39401576      21.22789575       0.00431426       0.01582727       0.00435109
Na      26.66999519      14.41950071      23.18969511      -0.00369025       0.00044728      -0.00798768
Na      24.56673627      16.37802572       0.40028594       0.00006059       0.00001677       0.02795963
Na      26.61382430      18.42507765       2.25713896       0.00008320      -0.00000175      -0.00268191
Na      24.56670710      16.37718033       4.37006230       0.00002784      -0.00015087      -0.01381420
Na      26.61503066      18.42476394       6.34508595       0.00016414       0.00011826      -0.00177674
Na      24.56691623      16.37953777       8.31720579      -0.00087249       0.00014087       0.00639794
Na      26.61327412      18.42679368      10.43896137       0.00013127      -0.00038245       0.00311799
Na      24.56459574      16.37901302      12.62561740       0.00100705      -0.00035587       0.01197486
Na      26.65080446      18.41290476      14.80721768       0.00101310      -0.00179141      -0.00211213
Na      24.59589124      16.37284237      16.81555490      -0.00176937      -0.00553261      -0.00035136
Na      26.55902610      18.41078418      18.88156301       0.00341320      -0.00628714      -0.01060770
Na      24.66234631      16.27568929      21.10919179       0.00655129      -0.00000022       0.00062867
Na      26.56633624      18.49298651      22.91682204       0.01132031      -0.00729240      -0.01020681
Na      24.56680366      20.47226749       0.40031476       0.00006614      -0.00004669       0.02807960
Na      26.61384692      22.51964385       2.25703430       0.00007419      -0.00003292      -0.00282829
Na      24.56685798      20.47294545       4.37027500       0.00003882       0.00011307      -0.01385197
Na      26.61514696      22.52042172       6.34705672       0.00006877      -0.00017031      -0.00210953
Na      24.56794714      20.47141151       8.31536739      -0.00079202       0.00023551       0.00660154
Na      26.61353907      22.51834527      10.43831318       0.00018523      -0.00015706       0.00490631
Na      24.57002491      20.46752030      12.63146781       0.00070457      -0.00313678       0.01069598
Na      26.64682774      22.49859280      14.78829169       0.00020229      -0.00039122      -0.00602746
Na      24.60555357      20.46459894      16.79838531      -0.00278840       0.00327786       0.00317727
Na      26.52963417      22.59761631      18.80532362       0.00335168       0.00710668      -0.00122976
Na      24.62288547      20.59232009      21.02269156       0.00074955      -0.01294966       0.00017346
Na      26.68278087      22.37155292      23.04783942       0.00459288       0.01090265      -0.01004536
Na      24.56666031      24.56674951       0.40041448       0.00004335       0.00000901       0.02814441
Na      26.61377292      26.61376085       2.25703215       0.00005481       0.00000836      -0.00274107
Na      24.56670472      24.56660955       4.37035820      -0.00001232      -0.00015105      -0.01398513
Na      26.61465714      26.61381886       6.34555671       0.00006497      -0.00019126      -0.00172696
Na      24.56723178      24.56715617       8.31800530      -0.00079305      -0.00084864       0.00628158
Na      26.61267887      26.61111734      10.44145658       0.00018855      -0.00110905       0.00336883
Na      24.56363738      24.56038646      12.63007508       0.00002293       0.00132892       0.01078198
Na      26.64401509      26.63752670      14.79800652       0.00216667       0.00312016      -0.00135036
Na      24.59067252      24.56192931      16.71823177      -0.00587374      -0.00120061      -0.00671554
Na      26.54186478      26.50210075      18.83274780       0.00106773       0.01075723      -0.00656608
Na      24.59519748      24.56630924      21.26488550       0.01400541       0.00867010       0.00673958
Na      26.71929700      26.78874514      22.87934413       0.01023174       0.01539078       0.01292213
Na      14.01194446       3.43979165      28.13998872      -0.02910364      -0.00214309      -0.03058888
Na       3.50572146      14.42766603      33.75383159       0.00348584      -0.00246597      -0.00092787
Na       3.61021894      -0.03958834      28.72983168       0.02202161      -0.00020650      -0.00439270
Na      -0.05813751       3.30430907      31.61714783      -0.01324643       0.01250004      -0.01227906
Na      14.36178435      14.21943207      29.28964167       0.01567060       0.02468841      -0.05749067
Na       3.51450098       3.44717761      27.60592509       0.01276095       0.02257038      -0.01882484
Na       0.15975820       3.61360077      35.25241214      -0.01658478       0.00194173       0.00821592
Na       3.57176827       0.07440253      41.58015932       0.00283937      -0.00029914      -0.01696080
Na       3.60162745      -0.00969037      37.78400928      -0.00091856       0.00614924      -0.01652926
Na       0.04608416       3.59697226      38.94991736      -0.00704003       0.01284462      -0.01258356
Na       0.00419657      -0.02312068      38.39856484       0.00066761      -0.00165262       0.00260240
Na       3.83974312       3.55365449      34.94629179      -0.02501990      -0.01123706      -0.02758002
Na      14.22431847      10.72002781      28.31207788      -0.00772145      -0.02178115       0.00841872
Na       3.54052853       7.15438362      34.09691504      -0.00848031       0.00209061       0.00398428
Na       3.39771627       7.40890101      30.35815558       0.02610968      -0.00220112       0.01940170
Na      14.30851617      10.87742522      31.87125943       0.02190556       0.00841706      -0.02205756
Na      14.14360348       7.02581833      30.97855203      -0.03086047       0.01083313      -0.01561944
Na       3.69549021      10.36877267      27.66978943      -0.01474428       0.06216690      -0.00630059
Na      14.28373688      10.76962207      35.51211019       0.00458547       0.00507723      -0.03034657
Na       3.55596784       7.24426356      41.62864105       0.00363215      -0.00141419      -0.00740794
Na       3.46375730       7.16376173      37.93023278      -0.00297469       0.00614328      -0.00740344
Na      14.32332964      10.77403090      39.08876705       0.00203974      -0.00284165      -0.01722775
Na      14.12874152       7.21717147      38.43185362       0.00813700      -0.01611114      -0.00207017
Na       3.44350549      10.70778906      34.92419384       0.00700759       0.01879483      -0.01394415
Na       7.35542046       3.32432645      28.17845928      -0.00426134       0.02344781      -0.04306161
Na      10.76372405      14.38100879      33.83452695       0.00059246      -0.01510787      -0.03540492
Na      10.73250427      -0.14851079      28.90013332       0.01269411      -0.05314370      -0.03950970
Na       7.14118895       3.76459321      31.78088421      -0.00723826      -0.00261402      -0.03648377
Na       7.08430472      14.43770638      31.22900871       0.01452747      -0.00961276      -0.01420534
Na      10.74943728       3.84718873      42.06979508      -0.00043329      -0.01887819       0.00009572
Na       7.33425284       3.60295194      35.38751645      -0.01737299       0.00341120      -0.00714829
Na      10.73999171       0.18286663      41.58209041       0.00006231      -0.00805447      -0.00486280
Na      10.77875979      14.34381134      37.80424147       0.00322608       0.00858033      -0.00951991
Na       7.22577390       3.63256597      39.01558047      -0.00638578       0.00375406      -0.00913481
Na       7.20909963      14.38932865      38.48917302      -0.00768772      -0.00730953      -0.00508775
Na      10.98718874       3.62120424      34.74695375      -0.01372676      -0.01997318      -0.00838747
Na       7.03382758      10.85547618      28.25118601       0.00317462      -0.03788756      -0.00718727
Na      10.71084574       7.19570125      34.03974879       0.01565106      -0.00470349       0.00927193
Na      10.70487019       7.01512841      30.07183062      -0.04100383       0.00537776       0.00065539
Na       7.16176712      10.77432346      31.91521129       0.00451791       0.00007594      -0.02074827
Na       7.17512915       7.36461094      30.99917365      -0.05944041      -0.07286168      -0.00561655
Na      10.84811292      10.98988682      27.66866883       0.02372608      -0.05418470       0.01083410
Na       7.11840602      10.73293806      35.52262705       0.00976007       0.00999751      -0.02998075
Na      10.72106432       7.37042553      41.70375059       0.00099857      -0.01324171      -0.01768564
Na      10.62428110       7.17943885      37.96579925       0.01251711       0.00661943      -0.02366482
Na       7.15835246      10.80069354      39.04790847      -0.00051728      -0.00678949      -0.01750496
Na       6.97819064       7.16904093      38.45726591       0.01534385       0.00435381       0.00044347
Na      10.81525432      10.84134875      34.85643999      -0.00065093       0.01615915       0.02090418
S        1.68365415       1.56251424      27.82611650      -0.02608862      -0.01852622      -0.05114808
S        1.14540205       5.76331392      33.34350054      -0.00537759      -0.00506646      -0.00506377
S        5.67610415       5.05024539      26.83663656      -0.00125601      -0.00673319      -0.05069925
S        5.95728197       1.53243406      33.52290403      -0.01037564       0.02354171      -0.00482316
S        5.19749110       2.37873042      29.78223434       0.01957562       0.02423783       0.00126677
S        4.93493670       5.53838008      31.92736718      -0.00295331       0.00460184      -0.02021608
S        1.90228419       4.97856710      29.65278174       0.01212035      -0.00568327      -0.00912535
S        2.49191050       2.62582870      32.60527073      -0.00293847      -0.03727093      -0.01380352
S        1.52359208       1.21513546      36.05255419      -0.00314774       0.01219433       0.01664009
S        1.23833433       5.71117637      40.73576268      -0.00074158      -0.00318103       0.00057054
S        5.57134063       5.91134536      36.02753856       0.01109574      -0.00440752       0.00239903
S        5.95148109       1.51591886      40.76923997       0.00235756      -0.00088046      -0.00457893
S        5.20197896       2.34181907      37.21451859      -0.00366159       0.00739354      -0.00081768
S        4.84040856       5.13587136      39.79989139      -0.00574001       0.00681732      -0.00082595
S        2.15314044       4.77107488      37.10021425       0.00258297       0.00726985      -0.01203979
S        2.36677491       2.10129782      39.81450979      -0.00591103       0.01083165      -0.00153876
S        1.78392844       8.55575439      28.29165770      -0.00489384       0.01865574      -0.03285630
S        1.28812535      12.69920028      33.55630541      -0.01130914       0.01563691      -0.00202254
S        5.25002233      12.59023054      27.03136613       0.01344318       0.00651414       0.03947248
S        5.84067221       8.80493403      33.58275096       0.00788504      -0.02604900      -0.02499760
S        5.24140250       9.54670454      29.83245970      -0.02214813       0.00143540      -0.01380281
S        4.90941381      12.52159995      32.13479407       0.00592687       0.00300273      -0.01003653
S        2.08452244      11.94436908      29.54531391       0.00212991       0.01695208      -0.00399758
S        2.39480360       9.42025509      32.38069546       0.00024892       0.00932921      -0.00322699
S        1.43311451       8.38461731      36.11252638       0.00827378      -0.00387299      -0.00327182
S        1.25307292      12.83439513      40.80611113      -0.00073595       0.00080440      -0.00757410
S        5.67955399      13.07215984      36.16799246      -0.00954890       0.00021225      -0.01748333
S        5.92394123       8.67156659      40.77029964       0.00219213       0.00447660      -0.00027278
S        5.01892094       9.49566690      37.21412390       0.00781825       0.00476042      -0.00977338
S        4.81637995      12.28863396      39.83433080       0.00895667      -0.00154057      -0.00330015
S        2.03388998      11.97139659      37.21806217       0.00790464       0.00095181      -0.00762814
S        2.30982912       9.27004016      39.90278862       0.00603529       0.00560136      -0.00357227
S        7.86059393       0.55689399      28.16290953       0.04089763       0.01566643       0.00151198
S        8.35742217       5.73579604      33.45529952       0.00852784      -0.01360313      -0.00654193
S       13.40641124       6.18075559      28.11089516       0.02109488      -0.04139407       0.01586013
S       13.10533867       1.56252874      33.47947465       0.00589854       0.02699488       0.01356794
S       12.12863683       2.19992268      29.67695881       0.00924138      -0.04859279      -0.01101141
S       12.03071341       5.14466689      32.06562646      -0.00481036      -0.02583556      -0.01702506
S        9.10941887       4.83592520      29.63755901       0.01415657      -0.03362032      -0.01835419
S        9.42918306       2.28388702      32.44137353       0.00308191      -0.02505310      -0.01495741
S        8.70750964       1.22831269      36.12585390      -0.00708875       0.00514395      -0.01006793
S        8.44639872       5.73868410      40.78084975      -0.00492170      -0.00179181      -0.00379557
S       12.74267411       5.92990145      36.00900993      -0.00166485      -0.00407782      -0.01312507
S       13.14157905       1.50800261      40.70685418      -0.00448334      -0.00377523       0.00394322
S       12.31219896       2.37495200      37.14395459      -0.00224405       0.01434738      -0.00222566
S       12.01847518       5.16604705      39.75865493      -0.00355464       0.00567490      -0.00054162
S        9.28411047       4.81434071      37.11775185      -0.00468983       0.00763719      -0.00329525
S        9.53894076       2.16257360      39.84717571      -0.00370349      -0.00406955      -0.01296643
S        7.70225140       8.07860844      28.08330579       0.03350757      -0.02469152      -0.01938364
S        8.42059760      12.81895216      33.50411148      -0.02324014       0.00452718      -0.00500991
S       12.65133208      12.82321004      27.84007565       0.02388992      -0.02016053      -0.04730160
S       13.00474737       8.84246314      33.51032807       0.01394765       0.00620004       0.00183890
S       12.10842437       9.29449856      29.54809455       0.00946149      -0.00420577       0.03754333
S       11.83421254      11.98855146      32.36636220       0.03593323       0.02839381       0.00342144
S        9.10440263      11.90833532      29.70749057       0.01703530      -0.02229323      -0.00307703
S        9.37339327       8.93151122      32.06327384       0.00635855       0.01488785       0.03318324
S        8.61940815       8.40261111      36.16362561      -0.00954958       0.00443670       0.00223631
S        8.42683361      12.88375411      40.80833513       0.00257855      -0.00099273      -0.00133055
S       12.76554201      13.11383006      36.01169038       0.00386805      -0.00200277       0.01341803
S       13.08268129       8.70618469      40.78105297       0.00053951      -0.00463499      -0.00689514
S       12.21538413       9.49122096      37.22143663       0.00875394       0.01318089      -0.00216949
S       12.00656720      12.36409735      39.76184533       0.00040134      -0.00077646       0.00312718
S        9.22951617      11.97497582      37.17289257       0.00155776       0.00355127      -0.00453781
S        9.49901471       9.36192283      39.93959700      -0.00236530      -0.00037020      -0.00846719
Sb      -0.02217735       0.00402050      42.09946150       0.00091573      -0.00277212       0.00012454
Sb       3.65748214       3.79653028      30.94637081      -0.00714360      -0.00829428       0.00063739
Sb       0.01370638      14.31556064      34.71049351      -0.00196294       0.01397392       0.01118170
Sb       3.64488989       3.57602830      38.49008596      -0.00439557       0.00773714      -0.00290765
Sb       1.34045928       6.40374859      27.37594720       0.01942581      -0.00232213       0.00745220
Sb       3.63413005      10.89663256      31.01436732      -0.00376965       0.00902047      -0.00604463
Sb      -0.08173412       7.23711543      34.69910471       0.00459395      -0.00487378       0.00382953
Sb       3.54967283      10.75921665      38.56139726       0.00815223       0.00219850      -0.00674512
Sb       6.77560966      14.30037111      26.42129884       0.00506660      -0.00122066      -0.00117517
Sb      10.66981861       3.57495649      30.91017237       0.01175865      -0.03913398      -0.01904352
Sb       7.18256037      -0.01908689      34.83582728      -0.01200732       0.01576978      -0.01186598
Sb      10.80073496       3.60819595      38.46482804      -0.00639229       0.00838485      -0.00204841
Sb       6.55538675       7.16404871      26.24588572      -0.09097379       0.05225258       0.01916784
Sb      10.65412067      10.56761602      30.93924562       0.01600007       0.00948510       0.03502058
Sb       7.10789261       7.21890242      34.79198054       0.00872727      -0.01090423      -0.00589323
Sb      10.74504199      10.79039369      38.53479259       0.00033847       0.00376970      -0.00094928
Na      14.31373282       3.58512041      42.53098442       0.00856547      -0.00221233      -0.00175095
Na       3.61781429      14.23242580      48.79612967      -0.00305118       0.00654228       0.01049947
Na       3.56971110      -0.02394154      45.20500690      -0.00214645       0.00305827       0.00323944
Na       0.00939282       3.43323218      46.09881413      -0.00285615       0.00789530       0.00515701
Na      14.31490480      14.14030083      45.69238135      -0.00371863       0.00769240       0.00517497
Na       3.58733833       3.67194261      42.08178620       0.00612599       0.00419419      -0.00100297
Na       0.05706028       3.54806271      49.70805037      -0.00078121       0.00214071       0.00849463
Na       3.58440373       0.08470197      55.96615565      -0.00438263      -0.00102194       0.00973515
Na       3.58628673      -0.00665374      52.37153310      -0.00335028      -0.00175492       0.01556974
Na       0.03551317       3.63095354      53.33280331      -0.00860557       0.00450056       0.00672559
Na      -0.00944056       0.00640064      52.90137744      -0.00424126       0.00810138       0.01305902
Na       3.69264107       3.48802718      49.29076670      -0.01310549       0.00453584       0.00174914
Na      14.32871656      10.74559123      42.64789441       0.00036301      -0.00269166      -0.01638034
Na       3.60542601       7.07473515      48.81289115       0.00065845       0.00183932       0.00578185
Na       3.54977438       7.13130740      45.21958365      -0.00030818       0.00443888       0.00904300
Na      14.31615330      10.61548135      46.20677594       0.00265318       0.00510924      -0.01466006
Na      14.27062141       6.99628187      45.68974858       0.00529743       0.01019736       0.00337081
Na       3.57021005      10.87654671      42.11975246      -0.00345668      -0.00530563       0.00172056
Na      14.29196241      10.71103074      49.81005175       0.00387714       0.00669540      -0.01330342
Na       3.56628229       7.24499227      55.93367667       0.00188799       0.00345141       0.01910106
Na       3.50254813       7.15417137      52.38948484      -0.00459608       0.00176686       0.00232208
Na      14.34187254      10.80090125      53.41638640      -0.00256051      -0.00243479      -0.01044831
Na      14.16922051       7.23725859      52.88298510       0.01605610      -0.00829297       0.00827702
Na       3.52347251      10.65958708      49.31241400       0.00182221       0.00721363       0.00212232
Na       7.17279358       3.57958106      42.55825183       0.00358409      -0.00162518       0.00134125
Na      10.77596135      14.34915814      48.80637522      -0.00138044      -0.00323206       0.00711998
Na      10.72275196       0.01454040      45.21092561      -0.00186209      -0.00295346       0.00580221
Na       7.17683689       3.35165633      46.09102198      -0.00384459       0.01031384       0.00420809
Na       7.12990027      14.05520582      45.73274655       0.00418633       0.01582723      -0.00518116
Na      10.74784290       3.85293243      56.50734279       0.00868038      -0.03290875       0.01778743
Na       7.23626250       3.55877517      49.70431616      -0.01239709      -0.00099620       0.00196125
Na      10.75499010       0.17302213      55.96266448      -0.00578584      -0.00392368       0.01703365
Na      10.73468493      14.36565632      52.38680524       0.00258524      -0.00313037       0.01447884
Na       7.20735390       3.63146245      53.31758168      -0.01085159      -0.00308539       0.00190273
Na       7.14538812      14.37282928      52.92636693      -0.00118802      -0.00309618       0.00298349
Na      10.83831180       3.64942608      49.29710864      -0.00969968      -0.01235474       0.00302806
Na       7.17170590      10.74040489      42.56588757       0.00067063       0.00502111      -0.00641308
Na      10.76723939       7.19582678      48.88974269      -0.00439420      -0.00544754      -0.00788930
Na      10.70190370       7.17528758      45.29348070      -0.00208950      -0.00151872      -0.00526638
Na       7.15562773      10.49890400      46.08373765      -0.00157234       0.02118852       0.00991219
Na       7.09639231       6.87453799      45.72159490       0.00274809       0.01743062      -0.00406934
Na      10.77884217      11.01941486      42.11033892      -0.00192217      -0.00927892       0.00377189
Na       7.11876463      10.72009560      49.69448797       0.00709764       0.00261718       0.00132740
Na      10.72886340       7.35289068      55.99668608      -0.00213883      -0.01228885       0.00790349
Na      10.61686896       7.20751557      52.45358527       0.02011096      -0.00688289       0.00341044
Na       7.17344230      10.78875209      53.31241127       0.00060151      -0.00088543      -0.00123201
Na       7.00517546       7.17736903      52.90471382       0.01435494       0.00744969       0.00545095
Na      10.73443284      10.82261167      49.32231927      -0.00543743      -0.00318651      -0.00158924
S        1.42742106       1.23422048      43.49794825       0.00292393      -0.00177249      -0.00320350
S        1.26375538       5.64051841      47.94481432      -0.00493687      -0.00089596       0.00710879
S        5.60438792       5.87181051      43.38862711       0.00351513       0.00473117       0.00323396
S        5.94380753       1.41677568      47.95112123      -0.00384047       0.00446287       0.00020143
S        5.02633168       2.30452212      44.29864250       0.00011158       0.00306979       0.00354239
S        4.88520379       5.00725336      47.01835505      -0.00571499       0.00524089       0.00249782
S        2.06555847       4.80009816      44.37725171       0.00027967       0.00481540       0.00009607
S        2.37235171       2.06031603      47.07114760      -0.00252350       0.00213304       0.00006642
S        1.50345915       1.21448819      50.63900419      -0.00135396       0.00560010       0.00703308
S        1.24284603       5.70687296      55.17909463      -0.00587890      -0.00281360       0.00814485
S        5.67741822       5.87174764      50.63751069       0.00431574      -0.00171113       0.00540750
S        5.94900069       1.52782910      55.20940126       0.00310739      -0.00072644      -0.00082725
S        5.13984337       2.30883883      51.59760645      -0.00707267       0.00116825       0.00439157
S        4.84509700       5.10642396      54.23229844      -0.00420460      -0.00252496       0.00759217
S        2.14385975       4.78135674      51.50733634      -0.00533190       0.00373479       0.00976241
S        2.35623340       2.13538200      54.26913725      -0.00656871      -0.00070983       0.00042918
S        1.42470095       8.37160543      43.51142097      -0.00195774       0.00237527      -0.00505331
S        1.25902441      12.75988508      47.97788718       0.00027449       0.00533364       0.00533158
S        5.61687640      13.05356415      43.42046261       0.00393939       0.00135293      -0.00011518
S        5.91888828       8.57545376      47.93738085      -0.00070983      -0.00025389       0.00017526
S        4.99563028       9.48024477      44.30103024       0.00164808      -0.00158992       0.00544694
S        4.87589173      12.14964958      47.05694909      -0.00584090       0.00438671       0.00036407
S        2.04685922      11.98218979      44.42187102       0.00080749       0.00109420      -0.00268235
S        2.35017249       9.19880581      47.06732469      -0.00589927       0.00464290       0.00048225
S        1.46719292       8.39116374      50.66335216       0.00505222       0.00368805      -0.00187143
S        1.26039879      12.86259822      55.23151480      -0.00599456       0.00005879      -0.00286408
S        5.70782579      13.06114641      50.68076710      -0.00533084       0.00093870      -0.00344912
S        5.92731553       8.69492784      55.18180124      -0.00355800       0.00293159       0.00363666
S        5.05380793       9.47830285      51.57398499       0.00179918      -0.00097325       0.00723813
S        4.84027398      12.26802828      54.23247240       0.00314486      -0.00573463       0.00724994
S        2.08169103      11.98268320      51.56625427       0.00497828       0.00066605       0.00370674
S        2.32884391       9.31068624      54.29501677      -0.00410292      -0.00109890       0.00380355
S        8.57928101       1.24113305      43.55118435       0.00276493       0.00130595      -0.00381195
S        8.46685071       5.65670537      47.99810514      -0.00559082      -0.00324914      -0.00369126
S       12.77409807       5.91293618      43.39040679       0.00416177      -0.00334388       0.00480828
S       13.12549656       1.44094071      47.92557271      -0.00169335       0.00293968       0.00674794
S       12.17428376       2.35309791      44.28244965       0.00005359      -0.00391666       0.00379237
S       12.04471787       5.07065300      47.00538241      -0.00526979      -0.00132843       0.00126250
S        9.20551146       4.83889279      44.40339423      -0.00110423      -0.00307896      -0.00138410
S        9.55551187       2.11333363      47.09974016      -0.00324127      -0.00437041      -0.00073843
S        8.66771394       1.25320062      50.66829701      -0.00353928      -0.00162262       0.00210280
S        8.44288104       5.73322955      55.19191550      -0.00394313      -0.00160198       0.00223724
S       12.84209512       5.89851321      50.63062788       0.00198495       0.00201643       0.00621866
S       13.13438781       1.53952117      55.19391957      -0.01161051       0.00308773       0.00928076
S       12.27800277       2.34696185      51.59513674      -0.00583091       0.00071186       0.00171809
S       12.01269127       5.17517750      54.21565667       0.00107262      -0.01391910       0.00994067
S        9.28594698       4.82722191      51.53567780      -0.00338252       0.00279171       0.00735689
S        9.52593797       2.20373867      54.30932323      -0.00812476      -0.00821390      -0.00319463
S        8.54360595       8.38962353      43.57444362       0.00748486       0.00522676      -0.01067176
S        8.44566408      12.79194682      48.00477118      -0.00555512       0.00266730      -0.00309070
S       12.76262088      13.09850952      43.40088421       0.00808884      -0.00760963       0.00388923
S       13.08733255       8.61649436      47.94958396      -0.00051633       0.00241638       0.00298609
S       12.16191511       9.50850343      44.32421447       0.00377492      -0.00574522       0.00248779
S       12.01850746      12.24517423      47.02439025       0.00361414      -0.00439926       0.00371131
S        9.19162438      11.99008844      44.41410520       0.00625498      -0.00064510       0.00129196
S        9.53114618       9.27020516      47.11773230      -0.00151245      -0.00011038       0.00064753
S        8.59381271       8.43034750      50.70172087       0.00454423      -0.00121453      -0.00515247
S        8.44323291      12.89962419      55.21378625       0.00229637      -0.00139279       0.01095292
S       12.83574072      13.08539477      50.64461962       0.00366385       0.00140099       0.00775043
S       13.09441176       8.73341689      55.19687146      -0.00231527      -0.01153967       0.00053948
S       12.20658401       9.49169737      51.59882151       0.00693008       0.00153312       0.00646389
S       12.02341174      12.34008600      54.21582245      -0.00117836      -0.01223275       0.01570891
S        9.25288371      12.00590186      51.57155170       0.00548067       0.00016704       0.00578692
S        9.50177576       9.39405813      54.35074551      -0.00405093      -0.01081908      -0.00233373
Sb      -0.01707984       0.02362077      56.53580393      -0.01045787      -0.01248140       0.01981552
Sb       3.58367071       3.54450370      45.68949353      -0.00232215       0.00358654       0.00130371
Sb       0.02639598      14.28671231      49.29229540      -0.00010453       0.00428772       0.00744682
Sb       3.62703304       3.57959532      52.89445681      -0.00720733      -0.00319432       0.01165307
Sb      -0.02922419       7.17228400      42.09106349      -0.00192505      -0.00250520      -0.00082403
Sb       3.56454207      10.70755431      45.71682575      -0.00160587       0.00129534      -0.00013274
Sb       0.01502953       7.12979080      49.28608107      -0.00165406       0.00287543       0.00665300
Sb       3.58459582      10.75736658      52.91291159       0.00030417      -0.00099846       0.00792452
Sb       7.14087357      14.34204085      42.14726461       0.00202198       0.00023953      -0.00315438
Sb      10.74799817       3.59151647      45.69420775      -0.00255183      -0.00298179       0.00067615
Sb       7.20297753      -0.03400538      49.33052546      -0.00548790       0.00265575       0.00071803
Sb      10.78914412       3.63132223      52.90666649      -0.00739240      -0.00421822       0.00649092
Sb       7.13292896       7.16681655      42.12989352       0.00132179       0.00235871      -0.00210069
Sb      10.72737586      10.75446376      45.72261377       0.00395750      -0.00368380       0.00128012
Sb       7.18024078       7.13231422      49.31814687      -0.00068971      -0.00139416      -0.00018628
Sb      10.75913392      10.80596669      52.93232565       0.00076769      -0.00599788       0.00763362
Na      14.30902463       3.59206244      57.03300323       0.00216197       0.00220466       0.00107160
Na       3.63923705      14.30739235      63.05567314      -0.01649314       0.02792512       0.01399038
Na       3.57724962       0.00079610      59.52647924      -0.03648364      -0.03353858       0.07316835
Na      -0.01602394       3.44141376      60.70760158      -0.00685494      -0.05363528       0.04574455
Na      14.31529806      14.13538526      60.20591126      -0.00235654       0.00194790       0.00431032
Na       3.57766477       3.68430455      56.51790732      -0.00392606       0.00171175       0.00297919
Na      -0.01622001       3.63273682      64.62496395       0.12458852       0.09796873       0.13830590
Na       3.50192170      -0.31662070      69.91805435      -6.25187956     -13.86066988      -5.39022593
Na       3.40651737      -0.08326068      66.60623040      -9.46330940     -10.42778771       1.92701680
Na       0.11534102       3.75704897      68.51760892      -1.25956194      -1.05108481       1.72409019
Na      -0.12871989       0.45521857      67.70489515       3.51647191     -12.05102410       0.87419890
Na       3.53663094       3.51518287      63.78820517      -0.03495011      -0.05803245       0.09734935
Na      14.32660106      10.77530376      57.07515204      -0.00206912      -0.00992954      -0.01751296
Na       3.62470356       7.13881196      63.02885588       0.01825278      -0.00430764      -0.00866009
Na       3.57014490       7.16611906      59.45295907      -0.00969383       0.00508791       0.02535826
Na      14.29294803      10.64641047      60.77431499       0.00109007       0.00725248      -0.04443832
Na      14.34179566       6.97261372      60.09415790       0.00903536       0.00170589       0.03536286
Na       3.58293568      10.89143659      56.50665871      -0.00610053      -0.01248671       0.01520494
Na      14.27931930      10.79198928      64.47279031      -0.01381330       0.01646822      -0.03168220
Na       4.51902764       7.86343643      69.96848587       0.60765609       0.03536239      -0.39995678
Na       3.41635408       7.20132625      66.71769371       0.07440210      -0.00492276      -0.03582074
Na      14.17992862      10.79335187      67.96924417      -0.10575056       0.00229196      -0.16888713
Na      14.35767586       7.12708870      67.38622730      -0.06258098       0.01707648      -0.14507186
Na       3.55673118      10.81162372      63.79181728      -0.00644077       0.00295504       0.06080267
Na       7.17972590       3.59918296      56.90762279      -0.00300120      -0.00488960       0.00567517
Na      10.72808073      14.30936708      63.28658330      -0.01710632      -0.00979164       0.00548094
Na      10.73539557       0.03468426      59.52424736      -0.00364353      -0.00146394       0.00111513
Na       7.14971445       3.33172776      60.47659379      -0.00047418       0.01516962       0.00318082
Na       7.14764918      14.04960978      60.19165060      -0.00513564       0.02000430       0.01465920
Na      11.47789209       3.78724745      70.79588701      -0.17340228       0.09391573       0.00598896
Na       7.10221214       3.56911188      64.14177758      -0.05081000      -0.17544337       0.11316269
Na      11.23504322       0.26049642      70.35919105       1.58732978       1.83381527      -0.51704110
Na      10.67877089      14.34143168      67.05114011      -0.02973430      -0.00830875      -0.06627561
Na       7.19247980       3.45843262      67.88705069       0.14579994      -0.01059273      -0.04736182
Na       7.00604667      13.88996125      67.74931636      -0.09072350      -0.05836965       0.04789220
Na      10.88014681       3.66157470      63.78310237       0.00169304      -0.02588215       0.03638685
Na       7.19111979      10.76868635      56.93589019      -0.00520527       0.00325365       0.00906755
Na      10.77397529       7.14771809      62.99697955      -0.01436128       0.02163561       0.01021678
Na      10.72806980       7.21570487      59.52102205      -0.00720106      -0.00395845      -0.00905550
Na       7.15856380      10.58533483      60.63425399      -0.02081725       0.01111401       0.02104056
Na       7.13640003       6.92098046      60.10940453       0.01548259       0.00076427      -0.01341541
Na      10.78249617      11.02485614      56.53756431      -0.00520320      -0.02244493       0.01097940
Na       7.04420279      10.76835714      64.72604280      -0.02187399      -0.04858422       0.01530697
Na      11.05218102       7.44653948      70.22417611      -0.04335125      -0.09930179       0.10329899
Na      10.68326636       7.07168520      66.48308238      -0.02500849       0.03190143       0.03771300
Na       6.65338674      10.24466276      68.69769135       0.14021990       0.21463991      -0.09230765
Na       6.98008873       6.98395240      67.02380846      -0.13669545      -0.05571354       0.13596449
Na      10.57219716      10.69787387      63.81705124      -0.01109112       0.02224525       0.03439984
S        1.42205866       1.25537520      57.94199155       0.00573013       0.04906462      -0.06663578
S        1.25905082       5.62234076      62.62758495       0.04394016       0.10690182      -0.03619117
S        5.63424675       5.88653660      57.81474847       0.00391315       0.01027289       0.00317195
S        5.96819102       1.35248740      62.60086771       0.26998733      -0.28373958       0.27971043
S        5.01411896       2.32427010      58.78746313       0.00829204       0.01599919      -0.02893931
S        4.89376114       4.96081989      61.51897096       0.00648558       0.01934751      -0.02915668
S        2.01505861       4.82567276      58.91538217      -0.01110979       0.00813155      -0.00971282
S        2.35084911       2.04805505      61.54846843       0.00530646       0.01847209      -0.04379553
S        1.48868966       1.38123498      65.25559772       2.36029694       1.90558706       0.51081449
S        0.93666551       6.70861528      70.32867875       0.07879462       0.66688748      -0.85765132
S        5.54069508       5.91714954      64.95873153      -0.00892332       0.04876993      -0.01631180
S        6.69999972       0.43911713      70.38959028       0.93969046       0.17573718      -1.63748490
S        5.03945174       2.49141360      66.24289870      -0.48286426       0.49371760       0.76621294
S        5.10484228       5.28869469      68.80341610      -0.16640658      -0.26679251      -0.25105249
S        1.88226950       4.93023354      66.59393919       0.80752012       0.69259344      -0.01577860
S        2.47271430       2.23046805      69.06817582       0.12530751      -2.72635764       0.53859608
S        1.41920879       8.40063515      57.92604167      -0.00064251       0.00318600       0.00215258
S        1.22759953      12.84207105      62.75646094       0.03084510      -0.05957266      -0.04994347
S        5.63982170      13.06668066      57.82719943      -0.00027117      -0.00956271      -0.00015778
S        5.87666246       8.84193000      62.58136668      -0.01433033       0.01167472       0.01275219
S        5.02571877       9.52921312      58.76195281      -0.01558807      -0.00615986       0.00218940
S        4.84118225      12.23238378      61.45670350      -0.00607523       0.01941153      -0.01816073
S        1.98092324      12.00837271      58.90882522      -0.00554403      -0.00705273      -0.00029834
S        2.34449327       9.25475248      61.51631380      -0.00681583       0.00487005       0.01999648
S        1.51446470       8.57399206      65.17019258       0.02166885       0.02482787       0.08059508
S        1.19669464      12.81973514      71.50446529       0.28715766      -0.82698308      -0.30900266
S        5.50907208      13.05249159      65.21420878       0.03545146      -0.04793271      -0.02653544
S        5.84601744       9.30121795      71.86853414       0.03620157      -0.01606687       0.20107408
S        4.92192857       9.45905254      66.79047869      -0.00388082      -0.06778960       0.13471927
S        4.85846798      12.34886541      69.16463983       0.03761846       0.01929401      -0.03147658
S        1.98135950      12.11317476      66.68513881       0.16451219      -0.05841121      -0.04051211
S        1.71420740       8.89047199      69.52270240      -1.38033961      -0.84775754       1.44566407
S        8.57447583       1.27888509      57.99909134       0.00249113      -0.00055427       0.00797424
S        8.40415326       5.72569331      62.50302311      -0.02316764       0.00930161      -0.01393455
S       12.77399440       5.94160001      57.81713730       0.00536997      -0.00106553       0.01475125
S       13.13681544       1.45014952      62.77542144      -0.00580084       0.05383702      -0.02806620
S       12.23103676       2.34758404      58.88004880       0.00893001       0.00439611       0.01013600
S       12.04793311       5.09489402      61.48678598       0.00152296       0.01099307       0.00977292
S        9.20510011       4.84109832      58.87982121       0.01142233      -0.00118921      -0.00617899
S        9.51833347       2.17598224      61.62757026       0.02016574       0.02242023       0.00721059
S        8.55583814       1.23835928      65.38014136       0.00080461      -0.10066499      -0.42802400
S       10.30884729       5.71524021      72.55815327      -0.08134255       0.20216523       0.15289942
S       12.82459665       5.91429194      65.15359564       0.01371362      -0.02557995       0.02632380
S       13.46381504       1.91530272      70.43504136      -0.07643586      -0.10740130      -0.03819899
S       12.26734005       2.40342700      66.40511148       0.04199814      -0.03272152       0.02190201
S       11.99174077       5.44743610      68.63300763      -0.06825846      -0.03858793       0.05853088
S        9.10843598       4.81050480      66.25530854      -0.03110909      -0.01832608      -0.00375188
S        9.51377574       2.27364914      69.11020496      -0.00197654       0.10922312      -0.00189382
S        8.56334606       8.41425409      57.96005569       0.00436735       0.01037982      -0.00957406
S        8.40153195      12.68974121      62.77391842       0.00189176       0.06517867       0.02844314
S       12.77223582      13.11596885      57.84821111       0.01230329      -0.01113598       0.01537903
S       13.02696340       8.79547883      62.65230786       0.00577716      -0.01117106       0.02264240
S       12.23021535       9.56662507      58.84145105      -0.00411767      -0.00959821       0.00157390
S       11.98630182      12.27626748      61.56011345       0.00117786      -0.01889307      -0.00677460
S        9.18990620      12.02713233      58.92299865      -0.00569823      -0.00297368       0.00003277
S        9.52702251       9.25244847      61.52104203      -0.00558287      -0.00548323      -0.00070850
S        8.54510906       8.44504358      65.25196600       0.05883886      -0.02308090      -0.04353950
S        8.10893173      13.95629376      70.76730528      -0.02626253       0.21027925       0.23425901
S       12.81697367      13.11194718      65.36617238      -0.01647581      -0.01460420       0.00110903
S       13.86249468       7.85269251      71.03495527      -0.17877652       0.01380434      -0.10881362
S       11.98505341       9.42975297      66.79334361       0.05714945       0.01149428      -0.00147685
S       12.08061001      12.25318054      69.16212284      -0.03686037      -0.06876077       0.04311845
S        9.01051824      12.01271378      66.74737279      -0.00301946       0.03997464       0.05419965
S        9.20006443       9.47165127      69.64411054       0.07238351      -0.06220027      -0.01497901
Sb       0.13057876       0.19280986      71.20787866      10.93145375       1.54856602     -42.83612583
Sb       3.55914312       3.55323479      60.17182385      -0.02595548      -0.05123295       0.03361548
Sb      -0.00870127      14.37002976      64.05911537       0.11643841      -0.23437965      -0.26166812
Sb       3.65520529       3.76541549      67.67239487       0.09440511       0.32273932      -0.23649847
Sb      -0.02876485       7.18840128      56.50956657      -0.00475621      -0.00872495       0.01723194
Sb       3.55286802      10.74478164      60.13981506      -0.00539568       0.00598515       0.01737998
Sb       0.04558631       7.21158415      63.86527442      -0.00579353      -0.01848682      -0.03856034
Sb       3.27998896      10.70931666      68.18788511      -0.36840063      -0.24368223       0.68942343
Sb       7.15698274      14.36094629      56.55042008      -0.00491634      -0.00105988       0.00918592
Sb      10.73776709       3.60999014      60.18672622      -0.00350901      -0.00469407       0.02159187
Sb       7.13919079      -0.12183446      64.04376234      -2.02849763      -1.86617725       1.87677339
Sb      10.69552941       3.68608275      67.60606748      -0.01530422      -0.01888582      -0.03678157
Sb       7.14350145       7.18669023      56.52622579      -0.00280387       0.00033407       0.00375557
Sb      10.74463036      10.78975206      60.19922968      -0.01293203      -0.01035276      -0.00022216
Sb       7.11321860       7.23901261      63.76289520      -0.02440787      -0.00269335       0.01979778
Sb      10.52348130      10.78895054      68.07322631      -0.01134116      -0.02647843      -0.00312008
Na      13.96861779      17.61403064      27.99902301      -0.01433604       0.01080101      -0.02449667
Na       3.49538565      28.78213950      33.68024074       0.00092093      -0.00549979      -0.01352379
Na       3.65067068      14.28265615      28.93431590       0.02208571      -0.01005306      -0.01639150
Na      -0.04433291      17.65603783      31.59839931      -0.00801311      -0.00050437      -0.01581055
Na      14.36987229      28.52414011      29.13780570       0.01361919       0.03542324      -0.06837133
Na       3.52471100      17.67085059      27.64990757       0.02487596       0.01893899      -0.03656852
Na       0.18472171      17.94734292      35.21030313      -0.01757796       0.00121826       0.00811535
Na       3.57057097      14.40915934      41.58885553       0.00219058      -0.00021452      -0.01640946
Na       3.59797619      14.32542864      37.80577102      -0.00159614       0.00586837      -0.01357493
Na       0.04484311      17.92877343      38.93541021      -0.00649200       0.01252534      -0.01197210
Na       0.00334490      14.30661411      38.39792150      -0.00222464      -0.00244971       0.00203569
Na       3.84838943      17.87887734      34.95771724      -0.01612684      -0.00353044      -0.01630199
Na      14.22842942      24.88733290      28.30182704      -0.02603442       0.02230781       0.01043299
Na       3.53576885      21.49562303      34.13561695      -0.00629020       0.00555961       0.00878469
Na       3.38231182      21.75295781      30.46676201       0.01471298      -0.00223210       0.02740849
Na      14.35139399      25.23241770      31.84455567       0.01574872       0.00185452      -0.01456154
Na      14.15676789      21.37002017      30.80836256      -0.04107202       0.00230329      -0.01802355
Na       3.67190246      24.61207718      27.65879147      -0.01837590       0.05671533      -0.01731039
Na      14.29031756      25.09209019      35.49683723       0.00938049       0.00769608      -0.02793555
Na       3.55534889      21.57659058      41.62684382       0.00283554      -0.00139425      -0.00711680
Na       3.45801682      21.49384397      37.93240163      -0.00124423       0.00740680      -0.00448403
Na      14.32131098      25.10299565      39.08635303       0.00232527      -0.00233339      -0.01749123
Na      14.12591229      21.54816481      38.41295764       0.00668124      -0.01629692      -0.00047928
Na       3.45308316      25.07571982      34.90980338       0.00950350       0.02707720      -0.00819144
Na       7.30868339      17.71731253      28.18120426       0.00522165       0.00941444      -0.02777488
Na      10.75898461      28.70946944      33.78755830       0.00366910      -0.02129259      -0.04386776
Na      10.71951055      14.19663056      29.13462246       0.02299378      -0.04555169      -0.06370448
Na       7.16545417      18.09257147      31.77844190      -0.02225302       0.00056276      -0.01980283
Na       7.07403040      28.80159720      31.16361379       0.00511237       0.00382679      -0.01303429
Na      10.74960596      18.17897214      42.07042727       0.00084446      -0.01787346      -0.00058638
Na       7.33466654      17.93380684      35.38525600      -0.01251249       0.00264199      -0.00285057
Na      10.74048229      14.51457085      41.58781198       0.00043625      -0.00861520      -0.00511158
Na      10.77585043      28.67283712      37.79378532       0.00494942       0.00695472      -0.01165507
Na       7.22546961      17.96391573      39.02084680      -0.00616742       0.00347766      -0.00981508
Na       7.20587457      28.71566890      38.48295453      -0.00600989      -0.00657979      -0.00805820
Na      10.97798604      17.97611002      34.76255798      -0.00934352      -0.02000922      -0.01226898
Na       7.01463959      25.18176627      28.20596082      -0.01334300      -0.02740011      -0.01816591
Na      10.72527351      21.54217565      34.08047534       0.00609961      -0.00068379       0.00883433
Na      10.61919633      21.35070861      30.22732327      -0.03859661       0.00563996       0.01259058
Na       7.16073223      25.12366873      31.89893594       0.00149869       0.00123686      -0.02443275
Na       7.13260891      21.72272181      31.06093854      -0.06223792      -0.06520990      -0.02772361
Na      10.86157370      25.18779820      27.67152558       0.02197459      -0.03013097      -0.00185947
Na       7.12781587      25.05735996      35.50691347       0.01100565       0.01318014      -0.02840267
Na      10.72108134      21.70442411      41.71129432       0.00151447      -0.01289791      -0.01701364
Na      10.61685397      21.51024094      37.98455438       0.01235850       0.00573575      -0.02175164
Na       7.15680604      25.12640994      39.03885823       0.00080477      -0.00709583      -0.01786970
Na       6.96792183      21.49557194      38.45749433       0.01520654       0.00322421       0.00217146
Na      10.83044942      25.17993644      34.87039453      -0.00249663       0.01960236       0.01002780
S        1.70001433      15.80781941      27.95804315      -0.01408945      -0.01311695      -0.02738221
S        1.15181009      20.12225608      33.30815624      -0.00662059      -0.00009243      -0.00326253
S        5.62680132      19.20607148      26.58253582       0.00868865      -0.00112212       0.00081984
S        5.95598011      15.86127995      33.52634931      -0.00919662       0.02341799       0.00304541
S        5.20440116      16.75420386      29.82154763       0.02097573       0.02804125       0.00944787
S        4.94238551      19.87939661      31.95832252      -0.01300592      -0.00709983       0.00186289
S        1.87421425      19.26794080      29.73165798      -0.00296407       0.01429572      -0.03603265
S        2.49427687      16.93519531      32.65264311      -0.00524315      -0.01820687      -0.00718448
S        1.52260364      15.54534508      36.05363143      -0.00225313       0.00801036       0.01668025
S        1.23902832      20.04061590      40.73404382      -0.00032758      -0.00313926      -0.00013425
S        5.56791580      20.23712774      36.02533896       0.01419903      -0.00239776       0.00725845
S        5.95159505      15.84779961      40.77275097       0.00188997      -0.00076687      -0.00475575
S        5.20447563      16.67174347      37.21996698      -0.00481256       0.00747697      -0.00028164
S        4.83914277      19.47173715      39.79742867      -0.00494969       0.00634364       0.00009102
S        2.15512557      19.10049636      37.09333540       0.00180545       0.00840539      -0.01061655
S        2.36605508      16.43733894      39.81617738      -0.00600989       0.00924097      -0.00344940
S        1.77589748      22.80198127      28.39027607      -0.04374954      -0.00197307      -0.00730447
S        1.28221877      27.04619878      33.54046670      -0.00947489       0.01567239      -0.00565746
S        5.18251819      26.85847349      26.91008263       0.00985327       0.01657580       0.01276714
S        5.85071510      23.11800663      33.56640517       0.00424314      -0.01905532      -0.01796202
S        5.25204247      23.86028749      29.80373576      -0.02501158      -0.00243654      -0.01988486
S        4.93020894      26.87548271      32.09159165       0.00580193       0.01370709      -0.02345507
S        2.09846875      26.25884311      29.48507597      -0.00568509       0.02194731       0.00975015
S        2.42539098      23.80729242      32.38927355       0.00509998       0.00983968       0.00047019
S        1.44555355      22.71001425      36.09198738       0.00750561      -0.00087344       0.00089502
S        1.25341689      27.16281231      40.80601225      -0.00005994       0.00064919      -0.00607713
S        5.69017408      27.39100457      36.15661708      -0.01059158       0.00221528      -0.02185885
S        5.92367413      23.00278977      40.76973609       0.00143808       0.00422149      -0.00041905
S        5.01654688      23.82212126      37.19997511       0.00774508       0.00689476      -0.00973396
S        4.81620911      26.61340438      39.82510637       0.00960093      -0.00131426      -0.00369577
S        2.03177861      26.30150389      37.21307131       0.00655099       0.00309866      -0.00606419
S        2.30944234      23.59624119      39.89228974       0.00634197       0.00552245      -0.00392466
S        7.87012084      14.97571004      28.41019117       0.02292904      -0.00446322      -0.01445685
S        8.37692774      20.06247955      33.47087985       0.00164863      -0.01197183      -0.00776148
S       13.51677456      20.34887431      27.81905342       0.02110526      -0.02345068       0.05941984
S       13.12027759      15.86953061      33.44650996       0.00380149       0.02943584       0.02055620
S       12.13432131      16.54291727      29.70867538       0.00881278      -0.04080557      -0.00343593
S       12.04152627      19.51170483      32.05510198      -0.00750384      -0.01563373      -0.00802910
S        9.09451392      19.16780559      29.66789484       0.01715793      -0.02845861      -0.02034686
S        9.45954088      16.63323002      32.48632283       0.00012738      -0.01530206      -0.01043646
S        8.70655959      15.56434382      36.13406715      -0.00376343       0.00164598      -0.00318335
S        8.44745808      20.07002342      40.78242374      -0.00489735      -0.00139185      -0.00451264
S       12.75610369      20.24837835      35.98080205      -0.00018257       0.00036997      -0.00688687
S       13.14078201      15.83940628      40.70555148      -0.00456559      -0.00321604       0.00347807
S       12.30666847      16.70770548      37.13661800       0.00060898       0.01411608      -0.00292029
S       12.02066312      19.49669221      39.75427661      -0.00321064       0.00635657      -0.00053318
S        9.27915589      19.14930196      37.12490004      -0.00271549       0.00562953      -0.00576941
S        9.54007846      16.49185755      39.84855470      -0.00138321      -0.00076994      -0.01152591
S        7.50750809      22.32556424      28.05756436       0.00672687      -0.02554669       0.01567749
S        8.42327690      27.14603264      33.48861403      -0.02084523       0.00242888      -0.00725328
S       12.68361335      27.00254463      27.79725355       0.00578357       0.01210707      -0.07382512
S       13.01105650      23.20212551      33.51535389       0.00774449       0.00664845       0.00267792
S       12.09280477      23.54316816      29.57421671       0.00206079      -0.00053281       0.01731050
S       11.85092776      26.28949190      32.36388374       0.03202059       0.04299613      -0.02385758
S        9.12979836      26.21149368      29.66689144       0.01442237      -0.02436748      -0.01241266
S        9.35233032      23.27956239      32.09473958       0.00160464       0.01690587       0.02081626
S        8.61021726      22.72993793      36.17813055      -0.00552694       0.00690904      -0.00159266
S        8.42592006      27.21287046      40.80582890       0.00263785      -0.00121400      -0.00134985
S       12.76598520      27.43772330      36.01388722       0.00924944      -0.00175220       0.01563719
S       13.08148933      23.03661706      40.77839288       0.00017005      -0.00608053      -0.00841254
S       12.21155539      23.81640032      37.22094788       0.00923406       0.01166792      -0.00075896
S       12.00635316      26.69433457      39.75885908       0.00049923      -0.00137210       0.00548367
S        9.22700675      26.30077532      37.17302524       0.00404993       0.00444368      -0.00314018
S        9.49849725      23.69259274      39.94313509      -0.00259997      -0.00018964      -0.00701171
Sb      -0.02293474      14.33631155      42.09923840       0.00085439      -0.00285240      -0.00057236
Sb       3.65537894      18.13055212      31.00980755      -0.01946587      -0.00102906      -0.01024411
Sb       0.00944055      28.64904850      34.71375305       0.00228494       0.01559483       0.00767940
Sb       3.64520145      17.90909845      38.48938248      -0.00500506       0.00855010      -0.00226715
Sb       1.51322452      20.61219391      27.44998523       0.01112287      -0.00796161      -0.00653425
Sb       3.65636950      25.24702074      30.97555285      -0.00253342       0.00847945      -0.00625227
Sb      -0.08004906      21.57551953      34.67789695       0.00386531      -0.00041568       0.00582656
Sb       3.54962447      25.08517726      38.55019366       0.00771642       0.00313121      -0.00647096
Sb       6.81435095      28.43334739      26.17352418       0.02886124       0.00229687       0.01585200
Sb      10.67573829      17.92136250      30.93266961       0.01008980      -0.02858859      -0.01205243
Sb       7.17904333      14.31588617      34.84941289      -0.01156942       0.01621463      -0.00555188
Sb      10.79889544      17.93856230      38.46440826      -0.00368105       0.00860478      -0.00358627
Sb       6.82300329      21.19878733      26.09325549      -0.01273987       0.01087101       0.00360519
Sb      10.65881463      24.87923889      30.94026699       0.01303449       0.00881557       0.02037281
Sb       7.11189922      21.54176426      34.79701061       0.00739960      -0.00711372      -0.00568709
Sb      10.74393183      25.11871921      38.53569190       0.00188638       0.00262167       0.00030301
Na      14.31430588      17.91635149      42.52779184       0.00847082      -0.00174018      -0.00125302
Na       3.61804438      28.56217614      48.79205455      -0.00297157       0.00625924       0.01086264
Na       3.57035548      14.30751035      45.20957195      -0.00220743       0.00298854       0.00370653
Na       0.00908495      17.76413089      46.10051193      -0.00304824       0.00812052       0.00514014
Na      14.31518280      28.47026755      45.69267915      -0.00352618       0.00804460       0.00508290
Na       3.58901547      18.00869518      42.08263085       0.00558765       0.00395343      -0.00141639
Na       0.05697024      17.87846158      49.71527019      -0.00064060       0.00271470       0.00731715
Na       3.58980831      14.42008509      55.96427288      -0.00385984      -0.00087516       0.00232018
Na       3.58550097      14.32533264      52.37647502      -0.00305419      -0.00048354       0.01138509
Na       0.03443277      17.96123473      53.34685628      -0.00485108       0.01084894      -0.00042993
Na      -0.01146287      14.34793762      52.90628243      -0.00532556       0.00906069       0.00923172
Na       3.69207612      17.81812417      49.29180224      -0.01370807       0.00544164       0.00025423
Na      14.32771863      25.07610262      42.64726797      -0.00016510      -0.00338473      -0.01669592
Na       3.60425312      21.40505593      48.81116713       0.00018005       0.00242053       0.00701023
Na       3.55006410      21.46250696      45.21817524      -0.00052919       0.00420457       0.00890085
Na      14.31622108      24.94557796      46.20595792       0.00255790       0.00535395      -0.01453423
Na      14.27125299      21.32698984      45.68928394       0.00526237       0.01021801       0.00249456
Na       3.56973107      25.20514035      42.11444580      -0.00390257      -0.00505689       0.00136362
Na      14.29277846      25.04125529      49.80804338       0.00386465       0.00665173      -0.01291931
Na       3.56069361      21.57317307      55.94516794      -0.00255125       0.01002211       0.03046969
Na       3.50142463      21.48186046      52.38908327      -0.00669315       0.00446552       0.01005075
Na      14.34519173      25.12882031      53.41071215      -0.00072561      -0.00021523      -0.00614077
Na      14.17024746      21.56142035      52.88076878       0.01673096      -0.00467255       0.01068885
Na       3.52398680      24.98892618      49.31041709       0.00060792       0.00830927       0.00509647
Na       7.17358358      17.91062755      42.56360775       0.00399087      -0.00180080       0.00105891
Na      10.77629532      28.67906290      48.80242664      -0.00159114      -0.00290684       0.00728022
Na      10.72354579      14.34506314      45.21418896      -0.00174200      -0.00293180       0.00578619
Na       7.17653324      17.68300128      46.09575607      -0.00382074       0.01039073       0.00431874
Na       7.12865294      28.38425742      45.73044154       0.00394249       0.01577500      -0.00480790
Na      10.74808498      18.16957615      56.49839275       0.00631893      -0.02770789       0.01266298
Na       7.23522312      17.89002096      49.71292702      -0.01357319      -0.00099875       0.00105255
Na      10.75539958      14.50158759      55.97780921      -0.01009160      -0.00178952       0.02487730
Na      10.73759529      28.69547783      52.38042702       0.00322423      -0.00107456       0.01247369
Na       7.20862719      17.95684836      53.33736200      -0.01114519      -0.00214867       0.00170792
Na       7.14645303      28.69887224      52.93361177      -0.00082327      -0.00339082       0.00808261
Na      10.83566274      17.98079227      49.29884794      -0.01056013      -0.01177132       0.00072085
Na       7.17216401      25.07154669      42.56206039       0.00068427       0.00519892      -0.00732663
Na      10.76690140      21.52623067      48.89178504      -0.00477233      -0.00458869      -0.00894754
Na      10.70199529      21.50580138      45.29626125      -0.00219119      -0.00163698      -0.00482501
Na       7.15550644      24.82786654      46.08017197      -0.00154853       0.02095544       0.00880343
Na       7.09604738      21.20382924      45.72183694       0.00264189       0.01692283      -0.00430359
Na      10.77909812      25.35159582      42.11001668      -0.00162545      -0.00853603       0.00382881
Na       7.11900554      25.05004900      49.68800514       0.00597927       0.00289343      -0.00022381
Na      10.73523015      21.68634482      55.98046341      -0.00053827      -0.01606596      -0.00278953
Na      10.61702530      21.53563935      52.45680623       0.01756865      -0.00500578      -0.00237049
Na       7.17252317      25.11114740      53.28996927      -0.00242610      -0.00353025      -0.00552754
Na       7.00864371      21.49396708      52.89791652       0.01160173       0.00795855       0.01059636
Na      10.73577191      25.15262660      49.32285894      -0.00625654      -0.00170854      -0.00030499
S        1.42631961      15.56578350      43.49889642       0.00329126      -0.00189211      -0.00427325
S        1.26273855      19.97028918      47.94576443      -0.00522647      -0.00035510       0.00543694
S        5.60314244      20.20277096      43.38789938       0.00370308       0.00450062       0.00287444
S        5.94322823      15.74792237      47.95149976      -0.00361575       0.00446501      -0.00141478
S        5.02551493      16.63625912      44.29882719       0.00020790       0.00290452       0.00340697
S        4.88467843      19.33894732      47.01847681      -0.00579572       0.00547177       0.00188839
S        2.06472245      19.13169877      44.37812726       0.00016957       0.00461558      -0.00024152
S        2.37237741      16.39126596      47.07162291      -0.00258216       0.00197795      -0.00048315
S        1.50486973      15.54488438      50.64036042      -0.00085905       0.00445027       0.00640009
S        1.23467578      20.04218448      55.16520071       0.00531302      -0.00919683      -0.00245722
S        5.67498000      20.20280562      50.63469834       0.00426809      -0.00086821       0.00409138
S        5.94978124      15.87140785      55.19505739       0.00065886      -0.00666332      -0.00035947
S        5.14065146      16.63949859      51.59435535      -0.01031304       0.00097316       0.00035421
S        4.84268312      19.43830334      54.22974395      -0.00391516      -0.00458016       0.00234036
S        2.14224810      19.10928184      51.50727853      -0.00462732       0.00374464       0.00381412
S        2.35769229      16.46384482      54.26678811      -0.00860765      -0.00384185      -0.00218464
S        1.42665470      22.70272723      43.50821022      -0.00189844       0.00210580      -0.00524690
S        1.25905184      27.09035579      47.97623022       0.00009804       0.00493209       0.00662420
S        5.61521118      27.38299296      43.41589351       0.00391702       0.00115357      -0.00029142
S        5.91939578      22.90665063      47.93602116      -0.00048418      -0.00017658      -0.00083163
S        4.99530192      23.81096967      44.29919206       0.00137114      -0.00175136       0.00507337
S        4.87617356      26.47986248      47.05499416      -0.00552743       0.00440303       0.00025880
S        2.04619132      26.31199672      44.42051839       0.00073728       0.00093388      -0.00243162
S        2.34994224      23.52907732      47.06607920      -0.00580417       0.00494472       0.00038286
S        1.46565099      22.72062428      50.66410480       0.00502221       0.00469404      -0.00456058
S        1.26147890      27.18299693      55.23363518      -0.00091319       0.00347301      -0.01075808
S        5.70906022      27.38999640      50.68028059      -0.00527141       0.00210918      -0.00232077
S        5.92959321      23.02315257      55.16822805       0.00013706       0.00125652       0.00046372
S        5.05105239      23.80814234      51.57013923       0.00251822       0.00152060       0.00494903
S        4.84593083      26.59498655      54.23250963       0.00609170      -0.00437697       0.00764970
S        2.08230755      26.31285871      51.56613477       0.00755420       0.00269115       0.00370443
S        2.32989450      23.64027714      54.29579571      -0.00274873       0.00056065       0.00241151
S        8.58104075      15.57256955      43.55299040       0.00237721       0.00133358      -0.00369353
S        8.46731389      19.98707781      47.99930450      -0.00541454      -0.00287373      -0.00413728
S       12.77488570      20.24401379      43.38936207       0.00424453      -0.00318190       0.00339862
S       13.12525040      15.77186863      47.92450732      -0.00154679       0.00245330       0.00589035
S       12.17388152      16.68457028      44.28235976      -0.00001285      -0.00381053       0.00353455
S       12.04479741      19.40156414      47.00616609      -0.00510432      -0.00116351       0.00068731
S        9.20554872      19.17064372      44.40472316      -0.00128029      -0.00287512      -0.00149757
S        9.55590845      16.44418414      47.10074220      -0.00314157      -0.00425681      -0.00100185
S        8.66867829      15.58392061      50.66745141      -0.00312664      -0.00243186       0.00097479
S        8.45569917      20.06661107      55.19423144      -0.00436789       0.00461441       0.00555732
S       12.84110890      20.22945924      50.63083996       0.00174896       0.00285552       0.00610942
S       13.14024825      15.87428087      55.18132158      -0.01223869      -0.01021760       0.00268314
S       12.27643896      16.67922794      51.59059883      -0.00672232       0.00030861      -0.00192137
S       12.01352109      19.50267065      54.21632263       0.00601475      -0.01357086       0.00383826
S        9.28130196      19.15887076      51.54102860      -0.00259838       0.00229611       0.00383561
S        9.53191964      16.52843921      54.30779026      -0.00675235      -0.00736487      -0.00468391
S        8.54142011      22.72080406      43.57609312       0.00735652       0.00513605      -0.01073743
S        8.44637536      27.12240959      48.00425712      -0.00583493       0.00267307      -0.00193961
S       12.76255218      27.42847164      43.40064169       0.00770420      -0.00833074       0.00455905
S       13.08633701      22.94837804      47.95097755      -0.00047121       0.00272164       0.00312076
S       12.16077650      23.83831074      44.32361522       0.00359380      -0.00625049       0.00269327
S       12.01888727      26.57554377      47.02340278       0.00360048      -0.00437480       0.00398297
S        9.19124894      26.32060911      44.41343924       0.00606232      -0.00078722       0.00155967
S        9.53093513      23.60133817      47.11813533      -0.00160022       0.00037280       0.00086814
S        8.59277505      22.76060344      50.70272156       0.00428002       0.00059427      -0.00673055
S        8.44519924      27.23272760      55.24207884       0.00925580       0.00127336       0.00632457
S       12.83586652      27.41402317      50.64462800       0.00380094       0.00181294       0.00822279
S       13.09583764      23.07534049      55.19313075      -0.00310921      -0.00807936       0.00721370
S       12.20234778      23.82130919      51.60105512       0.00592388       0.00356335       0.00711261
S       12.02378834      26.67259770      54.21857412       0.00157546      -0.00977810       0.01250339
S        9.25183056      26.33716088      51.57613509       0.00416692       0.00388915       0.00704068
S        9.49755290      23.73113454      54.35707175      -0.00085983      -0.00725889      -0.00209454
Sb      -0.01359323      14.35806336      56.54600128      -0.00513142       0.00310614       0.00969986
Sb       3.58305357      17.87601419      45.69006040      -0.00228084       0.00355385       0.00096726
Sb       0.02584628      28.61677221      49.29030234      -0.00041996       0.00374794       0.00950399
Sb       3.62844689      17.90945407      52.89222192      -0.00849857       0.00159808       0.00929727
Sb      -0.02788144      21.50245694      42.08895405      -0.00172493      -0.00276736      -0.00119986
Sb       3.56417667      25.03781498      45.71509650      -0.00144775       0.00120497      -0.00003905
Sb       0.01365473      21.45968280      49.28635522      -0.00167410       0.00363999       0.00681939
Sb       3.58423613      25.08603099      52.91318259       0.00075648      -0.00000493       0.01771586
Sb       7.14033699      28.67177195      42.14409077       0.00229230      -0.00001628      -0.00313501
Sb      10.74796438      17.92240801      45.69504740      -0.00265322      -0.00282068       0.00032778
Sb       7.20244281      14.29711303      49.33067282      -0.00521102       0.00295578      -0.00115404
Sb      10.78873503      17.96078216      52.90581184      -0.00663640      -0.00261560       0.00347070
Sb       7.13231641      21.49791508      42.13007604       0.00128444       0.00240650      -0.00237120
Sb      10.72695991      25.08510984      45.72219579       0.00404323      -0.00366367       0.00144587
Sb       7.17947956      21.46303864      49.31739039      -0.00095420      -0.00087986      -0.00007403
Sb      10.75914549      25.13777987      52.93683662      -0.00104979      -0.00333303       0.00924386
Na      14.31352929      17.92217908      57.01387790       0.00648126       0.01099935      -0.01906824
Na       3.60502725      28.56059258      63.09972578      -0.02889470      -0.40323747       0.28688226
Na       3.56483801      14.30802736      59.50136929      -0.00223605       0.01928947       0.01056138
Na      -0.02927388      17.78534117      60.65104002       0.01490269       0.12843267       0.09087617
Na      14.32996698      28.48896942      60.30514636       0.00585049      -0.00288347      -0.00632667
Na       3.57721601      18.00680757      56.50691879       0.00303772       0.00535205       0.01718027
Na       0.05289038      17.97144519      64.29912451      -0.38548137       4.45151320       1.72035883
Na       3.46999983      14.50486005      70.12521517      -0.05692934       0.05877514       0.03782051
Na       3.54868459      14.38944215      66.65554209       0.07477000       0.03616282      -0.06282688
Na       0.02104798      18.16455856      67.64587991      -2.28609909       2.92729937      -0.16041875
Na      -0.02222311      14.78865921      67.77558354      -0.37053044       0.46980479      -0.02428114
Na       3.67697068      17.94110351      63.88686989      -0.69085648       0.15506768       0.39679686
Na      14.33699838      25.10633435      57.05228321      -0.00193547      -0.00380631      -0.00122004
Na       3.58827186      21.45380185      63.05098060      -3.60483520       0.69394429       2.18884238
Na       3.59074868      21.48050703      59.49949396      -0.09131180      -0.00863167       0.09033867
Na      14.30237444      24.94725902      60.73022017       0.01632072       0.00051817       0.01104818
Na      14.35909171      21.26704082      60.09987162       0.00297244       0.00668788       0.02348564
Na       3.57477255      25.22564131      56.51208176      -0.02175042      -0.00911545       0.02770110
Na      14.32807798      25.09243178      64.51017860      -0.04072763       0.00654542      -0.00264070
Na       5.17679547      22.52820466      69.32494542       8.67028223      -0.59029049     -11.42015579
Na       3.43238190      21.60689599      66.61757610      -1.21460403       7.99259464      -1.37136587
Na      14.22976276      25.26787034      67.98656027       0.06060926       0.09364203       0.13185527
Na      14.38294494      21.43474018      67.36391221      -0.06834749       0.03883224      -0.08347894
Na       3.31902744      25.11862463      64.06113620      -4.36886640       0.80287454       7.86966248
Na       7.16988227      17.91339143      56.95127753      -0.00085255       0.00368552       0.01772450
Na      10.75941424      28.68328259      63.08215043      -0.12057541      -0.04412289       0.08562758
Na      10.73316128      14.36333236      59.58698666      -0.00600335       0.00099532       0.00724810
Na       7.14979443      17.69301462      60.65421763       0.00046232      -0.01029453       0.00650664
Na       7.15051644      28.33821099      60.25332822      -0.05674712      -0.04409614       0.14985195
Na      11.29421562      17.85648577      71.06140111       0.05206555      -0.20739471       0.00424338
Na       7.19383360      17.86897859      64.59073361      -0.07814737      -0.09041086       0.09341275
Na      11.13069985      14.28714511      70.84147773      -0.20725570      -0.00890728      -0.03654428
Na      10.70288841      28.67097109      66.66414830      -0.12593053      -0.03677223      -0.00914827
Na       7.10059723      17.36452045      68.33943355       0.19882706      -0.03934613       0.09507101
Na       7.04247184      28.54759121      67.44432955       1.22669745       2.01028372      -2.29620265
Na      10.89680218      17.89887597      63.79573178       0.03259659      -0.02622005       0.01242538
Na       7.18817497      25.10076441      56.86637937      -0.02049019       0.00194974       0.00131762
Na      10.77757080      21.43958722      62.88238466      -0.00022907       0.01067599      -0.00280044
Na      10.73524109      21.53983465      59.45199633      -0.00182162      -0.00383407      -0.01058951
Na       7.17577153      24.78358680      60.37253063      -0.06708803       0.02056277       0.09202221
Na       7.14200723      21.15187630      60.07596626      -0.00215028      -0.01166655       0.02537207
Na      10.78316081      25.36642027      56.55336303      -0.00145202      -0.02136919       0.00813902
Na       6.91638216      24.97672831      64.13806184      -1.69817982       0.35984678       1.43516957
Na       9.82227172      20.60837926      69.92840961      -0.16794880      -1.64643180      -0.51730874
Na      10.75403676      21.53592248      66.38260518      -0.07545043      -0.12377701       0.10280072
Na       7.22496700      24.97691700      67.76796172       0.07389562      -3.89470629      -2.02276733
Na       6.90955554      21.16631492      67.14099930       1.67455418       0.49171071      -1.25976424
Na      10.61617206      25.16138402      63.94033631      -0.10349554       0.06309268       0.09587843
S        1.42587625      15.58509917      57.95638680       0.00080238      -0.00388611      -0.00756580
S        1.27304308      19.92957029      62.46012968       3.03290654      -0.35350194      -3.76164326
S        5.62187099      20.21396738      57.78569276       0.01259287       0.00293761       0.01320971
S        5.98454382      15.83224531      62.66090574      -0.01617727       0.00263729      -0.03195911
S        5.02318633      16.64893484      58.81605307       0.01823030      -0.00757257      -0.01590892
S        4.86488753      19.38241417      61.42396096       0.21384222       0.05999151      -0.03861831
S        2.00827464      19.14572803      58.87350482       0.10285920      -0.10431075      -0.16320923
S        2.34537666      16.43464977      61.58234417       0.02899597      -0.09390540      -0.24004840
S        1.44099573      15.71319533      65.36738446       0.01461687       0.11674316       0.27818017
S        0.30358166      22.58527547      69.18580466      30.76275345      14.45044578    -138.31737175
S        5.56452942      20.13019249      64.98021223      -1.32202748       1.16632775       1.64590694
S        6.47313836      15.29843709      70.73948719      -0.02101868       0.06301668      -0.03383471
S        5.18930267      16.60108831      66.64030782      -0.53724358       0.75891149       0.60019636
S        5.10207142      19.48826174      69.17471451      -0.97333727       0.10247109      -4.88164482
S        2.26113030      19.15412804      66.41689572       6.01911660      -4.24671893       1.42780746
S        2.12539213      16.78324837      69.26828025      -0.11826366      -0.53062082      -0.60378428
S        1.42393247      22.72569125      57.91864147       0.01465083      -0.00588407      -0.12119664
S        1.26946161      27.07278239      62.60283206       0.17424182      -0.04730915      -5.51802751
S        5.64934830      27.38658673      57.86073529       0.01352959      -0.00672062      -0.01273418
S        5.97286825      22.86032476      62.36061600      -0.76302174      -0.22639095       0.62974685
S        4.97755884      23.85720184      58.72911624       0.00865978       0.00107197       0.00897545
S        4.90880208      26.43861392      61.54118268       0.76399421       0.05208338      -2.02772344
S        2.01247939      26.36000232      58.94709789       0.10036993      -0.07679863      -0.15339182
S        2.32852840      23.55332112      61.49258373       0.90340018      -0.17886454      -1.99563747
S        1.77875241      22.91608052      65.02703245      20.08129256      22.98277192       6.78709713
S        0.44848925      25.44620548      69.81926294     110.02948630    -119.05980137     -86.34877138
S        5.62109666      27.23823660      65.43014967      -3.06229635       3.23629206       0.24239596
S        5.63853163      22.52640735      72.38641343     -17.41622558       5.56451434      -0.24110530
S        4.89890060      24.14381684      67.78012167     -23.60070895      53.27880415      70.36486502
S        5.07770283      25.49281058      68.71823077     -33.19330189     -51.29365860     -57.28309392
S        2.22256437      26.36459713      66.41461595      -1.23664533      16.83920717     -60.63145965
S        1.33541496      24.03765111      69.69999972      25.60647155     -17.32499684     -37.73270457
S        8.57845614      15.58988504      57.97927342       0.00159403      -0.00218581       0.00366196
S        8.47821928      19.80262420      62.66750144       0.05421103       0.08174738       0.06599730
S       12.77784661      20.27618535      57.79777896       0.00717146      -0.00491113       0.01712368
S       13.08541168      15.82108042      62.67620294      -0.00788722       0.00168580      -0.00624237
S       12.22849353      16.67981721      58.81515038      -0.01372115       0.01099730       0.00313949
S       12.07904390      19.41190371      61.44340208      -0.00235795      -0.00149920       0.02582119
S        9.20290924      19.16856547      58.87611290      -0.00522011       0.00964296       0.02722353
S        9.57128576      16.45307018      61.57851518       0.00828496       0.01215533       0.01622388
S        8.61199269      15.50473096      65.38136879       0.03234408       0.01722337       0.02012037
S        9.91137241      19.64268634      72.34692019       0.72962066      -0.59224260      -0.34257582
S       12.88638224      20.13293751      65.18947740      -0.05932883       0.00396988      -0.02668729
S       13.41765901      16.15758893      71.16435551       0.09226426       0.07101805       0.05865665
S       12.17040211      16.71238507      66.43498344      -0.05087076      -0.00687137       0.02323558
S       12.32016314      19.60002481      69.12217005       0.18044616       0.02499529       0.04544963
S        9.15047618      19.28289197      66.88251995      -0.44021382       0.30312247       0.14775121
S        9.73284250      16.42462356      69.30639765       0.06238819      -0.07121450      -0.13853301
S        8.54491072      22.75233235      57.96614579       0.00253073       0.00900888       0.00639063
S        8.46192106      27.04866038      62.77654048      -0.00205774       0.30506805       0.04032851
S       12.78082851      27.43573292      57.86438732       0.00659920      -0.00254041       0.00416895
S       13.03481453      23.06740038      62.70140746      -0.00800869       0.01112264       0.00077741
S       12.20134482      23.89875995      58.85074057       0.01397782      -0.02591559       0.01763925
S       12.04324323      26.60316055      61.56458603      -0.01642762      -0.00441351      -0.02517770
S        9.18849465      26.36592241      58.95386810       0.02545055      -0.02326526      -0.01280805
S        9.51762812      23.64583763      61.60043322      -0.03491256      -0.04116002       0.00114965
S        8.47344969      22.75447720      65.20586938       2.48449126      -1.03260793      -1.43832085
S        8.13405222      27.54713510      70.29706592       2.21238612      -0.56582600      -3.40287392
S       12.88730479      27.38260508      65.49288744       0.01095002       0.02800685      -0.04904404
S       13.97894118      22.79244412      71.96186611       0.01789713      -0.01556247      -0.20936815
S       12.34601487      23.63803342      66.93156445      -0.07515361      -0.13678063       0.01542031
S       12.00979008      26.34745279      69.57951888      -4.09963444      -1.38109813       1.58928720
S        9.50894369      26.11730851      66.60974737       0.11750593      -1.07540981       4.53461947
S        9.44854476      23.49771626      69.69936077       4.26675099       4.85920677      -0.58858826
Sb      -0.64313420      14.15698811      72.56129847       0.37106454       1.25662281      -0.03631756
Sb       3.54646339      17.89365828      60.15911773      -0.04289363      -0.00791275       0.00343126
Sb       0.01829443      28.62874515      63.99706218      -5.07417360       6.09493287      -4.62033968
Sb       3.59984106      18.14744755      67.96555792       0.57723429      -1.35900883      -2.03664534
Sb      -0.03168017      21.52038450      56.50409442      -0.00194785       0.00360252       0.03410564
Sb       3.55464801      25.05584717      60.17822064      -0.01862106       0.06097054       0.24595973
Sb      -0.01541122      21.55646586      63.80057877      -1.70772289       2.60826646      -6.41834679
Sb       3.10110567      24.72862419      68.82398229       6.72830379      80.78259168      28.92664060
Sb       7.15569639      28.69226467      56.58039382      -0.01427399      -0.01041795       0.02056901
Sb      10.75222172      17.92565523      60.15642722       0.00852100       0.00007420       0.00983693
Sb       7.14217678      14.27143521      63.99733993      -0.01410028       0.03294242       0.04195149
Sb      10.89154153      18.03359862      67.92254753       0.11755824       0.01602075       0.05227346
Sb       7.13938686      21.51384693      56.51542881      -0.00976283       0.00987739       0.01019205
Sb      10.74817737      25.13102807      60.23584571       0.01036109       0.00963870      -0.02067286
Sb       7.14664768      21.39482114      63.77817332      -0.13072112      -0.25147563      -0.31962251
Sb      10.76731237      24.88590693      68.19384590      -0.56362552       0.30758398      -0.23523697
Na      28.45599315       3.39585417      28.11380237      -0.05001836      -0.00687042      -0.04303014
Na      17.83650295      14.43156294      33.73813488       0.00767983      -0.01475898      -0.00194200
Na      17.91092028       0.03571753      28.75557472       0.01597591      -0.00842264      -0.02684251
Na      14.26796640       3.28215976      31.59812556       0.00844469       0.01755244      -0.00704095
Na      28.69058566      14.17765248      29.24507699       0.01772004       0.03325574      -0.05737382
Na      17.71229142       3.52620756      27.62033902       0.04560662       0.01564521      -0.01030897
Na      14.51661074       3.61148598      35.22596677      -0.02758409       0.00513139       0.01715180
Na      17.90215240       0.07591752      41.58130312       0.00409356      -0.00036810      -0.01632209
Na      17.93991926      -0.00741127      37.79053286       0.00112178       0.00559119      -0.01231046
Na      14.37509303       3.60161669      38.93254923      -0.00436284       0.01033477      -0.00774014
Na      14.34190521      -0.01862052      38.40546241      -0.00270118      -0.00357307       0.00126175
Na      18.19802616       3.58631986      34.96257535      -0.02468464      -0.00743954      -0.02969293
Na      28.50244859      10.65056897      28.22941812      -0.00938632      -0.00014982       0.01043022
Na      17.86154216       7.17786204      34.05433838       0.00604302      -0.00738250       0.02212449
Na      17.76905233       7.41667336      30.32641795      -0.00485923      -0.00659514       0.00228479
Na      28.69176907      10.88481976      31.81580946       0.00867655       0.00504561      -0.01830137
Na      28.44382281       6.98763207      30.84525485      -0.02791239       0.01280624      -0.00867498
Na      18.00834710      10.47828354      27.66563201      -0.00077548       0.02803178      -0.01365962
Na      28.60593587      10.76229856      35.47716058       0.01248100       0.00154779      -0.02334087
Na      17.88841986       7.24449082      41.62265370       0.00255728      -0.00088999      -0.00815245
Na      17.80164260       7.16423864      37.91109452      -0.00531825       0.00743342      -0.00177780
Na      28.65030757      10.76845347      39.07676705       0.00378836      -0.00298176      -0.01555301
Na      28.45185107       7.20906172      38.40362232       0.00610506      -0.01670059       0.00368936
Na      17.77886337      10.72370547      34.89427100       0.00808230       0.03121513      -0.01019749
Na      21.59940025       3.33478811      28.18578120      -0.01492571       0.00949342      -0.03265689
Na      25.10069752      14.37594805      33.80682992       0.00494232      -0.01749673      -0.04217183
Na      25.01711162      -0.12981307      28.89839763       0.01724429      -0.05197773      -0.02591118
Na      21.48013055       3.76370207      31.77296703       0.00549053      -0.02352357      -0.03520733
Na      21.37492008      14.39702808      31.24606708       0.01035366       0.00923756      -0.01687310
Na      25.07781367       3.84943233      42.06836501       0.00216937      -0.01665672       0.00040307
Na      21.66811498       3.60204625      35.39744194      -0.01672084       0.00320369      -0.01065220
Na      25.07009358       0.18351695      41.57885639       0.00096997      -0.00768799      -0.00400443
Na      25.11099186      14.34266780      37.79522718       0.00519881       0.00680269      -0.01117147
Na      21.55720759       3.64073002      39.02155863      -0.00529192       0.00501760      -0.00859850
Na      21.54802890      14.39898758      38.49440195      -0.00544071      -0.00557524      -0.00640739
Na      25.30321617       3.59636120      34.73665060      -0.01629068      -0.02025696      -0.00895361
Na      21.32306972      10.87404479      28.26225108       0.00964653      -0.03654508      -0.01602109
Na      25.05940044       7.18654110      34.03501802       0.01781520      -0.00327464       0.00841678
Na      24.95483679       7.01844193      30.09974845      -0.03089150       0.00507449       0.00156958
Na      21.51178890      10.75425047      31.91267152       0.00862505      -0.00254022      -0.01857668
Na      21.48799125       7.38785367      30.98915603      -0.06076766      -0.06743013      -0.02621597
Na      25.06817900      10.97505002      27.67443304       0.01205162      -0.03240452       0.00009255
Na      21.44205388      10.73240730      35.51232110       0.01130651       0.00697155      -0.02768595
Na      25.05052353       7.37222118      41.70106998       0.00195788      -0.01342436      -0.01821823
Na      24.95327222       7.18185269      37.95877244       0.01136321       0.00595211      -0.02368495
Na      21.48984292      10.80622967      39.04190904       0.00049089      -0.00579821      -0.01871657
Na      21.31005433       7.17684164      38.45310700       0.01546177       0.00399384      -0.00118242
Na      25.13429173      10.83487191      34.85203497       0.00093205       0.00728752       0.02975284
S       15.93239555       1.61888801      27.90184790      -0.00954779      -0.01179687      -0.05031329
S       15.46520127       5.76918638      33.39406247      -0.00184546       0.00143454      -0.01356070
S       19.92722981       5.06260168      26.85478330      -0.00884257      -0.01666089      -0.05390464
S       20.30059962       1.53568614      33.52914047      -0.00722370       0.02188637       0.00007146
S       19.49274616       2.38829644      29.82739850       0.00217146       0.02787977      -0.04286026
S       19.28334801       5.55526663      31.93481055      -0.04132894       0.01664246      -0.01290113
S       16.17425406       5.01653613      29.74273366       0.03140693      -0.02008476       0.00360947
S       16.82421744       2.65168353      32.66091694      -0.02303476      -0.02575058      -0.01662459
S       15.85250274       1.21622665      36.06347227      -0.00927484       0.00774583       0.01236710
S       15.56790325       5.71001168      40.73634250      -0.00235783      -0.00082400       0.00061792
S       19.89639511       5.90721226      36.01555476       0.01382841      -0.00316504       0.00363433
S       20.28286757       1.51732328      40.76934647       0.00305280       0.00001624      -0.00359785
S       19.53833301       2.34228261      37.22093282      -0.00497868       0.01013544      -0.00403751
S       19.17237491       5.14404586      39.79650830      -0.00452710       0.00461490       0.00358138
S       16.48795390       4.77053029      37.09880547       0.00218099       0.00565007      -0.00881998
S       16.69819543       2.10415847      39.81405071      -0.00596552       0.01385825       0.00363430
S       16.15501951       8.58650125      28.26810168      -0.01131320       0.02682871      -0.02893110
S       15.61841368      12.68800417      33.55955984      -0.00914839       0.01884834       0.00373460
S       19.57399715      12.68735153      27.01494138      -0.00319992       0.00848727       0.05328128
S       20.18533803       8.79610458      33.56376752       0.00081336      -0.02065823      -0.01296757
S       19.55335392       9.56546352      29.81121555      -0.01020942       0.01136471      -0.00369723
S       19.24812979      12.42844568      32.24490911       0.00467746       0.01898834      -0.01314074
S       16.45610191      12.03480145      29.57008437      -0.00148691       0.00296091      -0.01128779
S       16.67672745       9.38946299      32.33382280       0.01030889       0.01505150       0.00000194
S       15.76621442       8.40959436      36.13255717       0.00345312      -0.00997588      -0.00025435
S       15.58525822      12.83490688      40.80900808      -0.00073057       0.00101230      -0.00769891
S       20.03659147      13.08360336      36.19429821      -0.00261423      -0.00094024      -0.01475534
S       20.25710629       8.67384131      40.76941588       0.00236166       0.00425078      -0.00043557
S       19.35446301       9.49765771      37.20697255       0.00447210       0.00533412      -0.01000257
S       19.14783090      12.28534552      39.83471408       0.01141343      -0.00182455      -0.00197292
S       16.37252112      11.97909718      37.21728839       0.00695726       0.00017742      -0.00490926
S       16.64443166       9.27009761      39.89975483       0.00373010       0.00451079      -0.00426131
S       22.15584593       0.56603092      28.21175361       0.03243883       0.00870021       0.00963286
S       22.70104797       5.71978105      33.45071096       0.00140768      -0.01366252      -0.00025775
S       27.75747055       6.11207366      27.98634142       0.02533649      -0.04105622       0.02846568
S       27.43136924       1.57584188      33.48633384       0.00427795       0.01309590       0.00242483
S       26.48640039       2.21031280      29.62359892      -0.00508189      -0.05474275      -0.00500154
S       26.36156365       5.16554468      32.00569430       0.00125314      -0.03156415      -0.01598258
S       23.43065535       4.81191677      29.59304183       0.00982969      -0.02400540      -0.01849274
S       23.79351666       2.28462755      32.40639171      -0.00702305      -0.01880669      -0.01527614
S       23.07069166       1.24006919      36.10914465      -0.00749353       0.00759614      -0.00847256
S       22.77837018       5.73879770      40.78205524      -0.00416781      -0.00102613      -0.00337975
S       27.07017492       5.92399050      35.95999661      -0.00457194      -0.00165762      -0.00317994
S       27.47055764       1.50710591      40.70811609      -0.00398733      -0.00313885       0.00293891
S       26.64721907       2.37597197      37.14756049      -0.00117244       0.01140108      -0.00128715
S       26.35188809       5.17335400      39.75077422      -0.00348787       0.00481117       0.00087768
S       23.61770272       4.81981330      37.11762780      -0.00579798       0.00436990      -0.00408715
S       23.87012309       2.16672461      39.84638818      -0.00163120      -0.00110994      -0.01069553
S       21.97185585       8.11561149      28.01137833      -0.00415473      -0.02753146      -0.00824482
S       22.74149644      12.83261778      33.49603444      -0.01770762       0.00647087      -0.01132721
S       26.91633138      12.76639572      27.88952897       0.02268877       0.00113131      -0.07237035
S       27.35527028       8.85806273      33.48980755       0.01009086      -0.00163494       0.00452041
S       26.40392338       9.25453724      29.52077139       0.00338913      -0.00265345       0.01988804
S       26.19880719      11.94162465      32.38535972       0.02023673       0.03446825      -0.01375595
S       23.42346935      11.88221867      29.76735377       0.01236481      -0.02043777      -0.01412209
S       23.71057222       8.91138378      32.08262219       0.00867607       0.01088610       0.02709472
S       22.93594071       8.39340767      36.16020525      -0.00176533       0.01378213       0.00242838
S       22.75933244      12.88465011      40.80747610       0.00306316      -0.00101036      -0.00116203
S       27.09357588      13.11417803      36.00188462       0.00820749       0.00335785       0.01283425
S       27.41156577       8.70519282      40.77493517       0.00068548      -0.00557761      -0.00719508
S       26.54557621       9.48775315      37.20897179       0.01076579       0.01160382      -0.00051438
S       26.33693257      12.36240917      39.75182316       0.00130548      -0.00237390       0.00589778
S       23.55899402      11.97052680      37.16433954       0.00329887       0.00273923      -0.00332870
S       23.82937899       9.35993051      39.92947678      -0.00124994       0.00006549      -0.00713094
Sb      14.30803338       0.00559015      42.10064655       0.00094743      -0.00376952       0.00058565
Sb      17.96949816       3.82233787      30.98451604      -0.00475400      -0.01738212       0.00055578
Sb      14.34613513      14.30740208      34.71285916      -0.00786915       0.01423667       0.01311760
Sb      17.97856403       3.57884628      38.49189298      -0.00369065       0.00760841      -0.00060031
Sb      15.65814670       6.40588646      27.46779523       0.01790898       0.00428381       0.01354507
Sb      17.95103977      10.89471993      31.02633004       0.00022982       0.01637837      -0.00517466
Sb      14.24130596       7.24720860      34.74660472       0.00579212      -0.00342620      -0.00527228
Sb      17.88397804      10.75833949      38.55664575       0.00773741       0.00243609      -0.00426663
Sb      21.60991214      13.79304472      26.51888787      -0.01337059      -0.00454534      -0.00553737
Sb      25.01763004       3.57278604      30.85806559       0.00422168      -0.03280543      -0.01871915
Sb      21.52915789      -0.01099182      34.84246575      -0.00711196       0.00974856      -0.00871798
Sb      25.13293684       3.61130724      38.46310823      -0.00484244       0.00810135      -0.00260315
Sb      20.94283478       7.08092134      26.14718944      -0.11115304       0.05344300       0.00259729
Sb      25.00332667      10.53934202      30.95432256       0.00973086       0.00598178       0.02032750
Sb      21.44030330       7.20313442      34.77811093       0.01062476      -0.00303286      -0.00031234
Sb      25.07654738      10.78743285      38.52462042       0.00228141       0.00311612       0.00082476
Na      28.64381631       3.58516031      42.53584375       0.00880672      -0.00206149      -0.00161826
Na      17.94656026      14.23415459      48.79342509      -0.00204672       0.00628400       0.00970938
Na      17.90052037      -0.02349372      45.20625127      -0.00151975       0.00293211       0.00286248
Na      14.33959740       3.43314904      46.09990263      -0.00243821       0.00857394       0.00506284
Na      28.64539266      14.13938650      45.69153295      -0.00383794       0.00775563       0.00568877
Na      17.91893984       3.67533207      42.08064085       0.00592995       0.00445221       0.00115442
Na      14.38818846       3.54849485      49.71879849       0.00046809       0.00305107       0.00703089
Na      17.89873881       0.10231105      55.95382559       0.01009663      -0.00685129       0.00934950
Na      17.91339109      -0.00821060      52.36905495       0.00042674       0.00153537       0.01234075
Na      14.36574340       3.63600038      53.35391071      -0.00617304       0.00448925      -0.00318510
Na      14.31771413       0.01494618      52.91479698      -0.00301254       0.00713638       0.00443984
Na      18.01772455       3.49219824      49.29226211      -0.01237237       0.00391270      -0.00003698
Na      28.66032833      10.74505466      42.64086499      -0.00058123      -0.00260467      -0.01618318
Na      17.93405694       7.07583012      48.81425936       0.00191032       0.00095275       0.00468054
Na      17.88053599       7.13136058      45.21936404      -0.00001105       0.00447357       0.00829468
Na      28.64707753      10.61435484      46.20205009       0.00157262       0.00482128      -0.01468412
Na      28.60011222       6.99737524      45.68786736       0.00435114       0.00951215       0.00294332
Na      17.89994974      10.87382366      42.11884749      -0.00330693      -0.00444561       0.00069757
Na      28.62235248      10.71000786      49.80147591       0.00343058       0.00604139      -0.01353455
Na      17.88386112       7.25654383      55.92400520       0.00823381      -0.00507244       0.01169428
Na      17.83048685       7.15469241      52.39040837      -0.00334929       0.00217224      -0.00174941
Na      28.67141618      10.79704369      53.39423915      -0.00137452       0.00007225      -0.00555637
Na      28.50142059       7.23195603      52.88349452       0.01701833      -0.01167944       0.01335029
Na      17.85224295      10.66001018      49.31470338       0.00220541       0.00744801       0.00084566
Na      21.50323559       3.58055785      42.56117229       0.00388241      -0.00158370       0.00173521
Na      25.10634936      14.35031486      48.80460953      -0.00157386      -0.00278704       0.00790534
Na      25.05400741       0.01357902      45.20985100      -0.00171801      -0.00265659       0.00590247
Na      21.50658506       3.35309605      46.09277888      -0.00363595       0.01041221       0.00425086
Na      21.46130586      14.05625570      45.73186433       0.00418223       0.01590416      -0.00512042
Na      25.05849076       3.87987299      56.52235930       0.01482551      -0.03323852       0.01539300
Na      21.56353147       3.55792920      49.70637080      -0.01232657      -0.00061293       0.00112830
Na      25.06998159       0.19142261      55.97559485       0.00509783      -0.01039470       0.01523800
Na      25.06387532      14.36467949      52.38381089       0.00294198      -0.00133506       0.01517432
Na      21.53102283       3.64075905      53.31107800      -0.00683873      -0.00247884       0.00058468
Na      21.47059575      14.38549473      52.92098319       0.00150790       0.00007971       0.00697798
Na      25.16096468       3.65436230      49.29680259      -0.00964790      -0.01209861       0.00509216
Na      21.50086440      10.74079932      42.56612130       0.00075360       0.00485627      -0.00744923
Na      25.09592713       7.19850975      48.89419243      -0.00392821      -0.00546504      -0.00735649
Na      25.03278643       7.17545758      45.29358451      -0.00249422      -0.00147331      -0.00556286
Na      21.48575389      10.50015568      46.08541244      -0.00152178       0.02126594       0.00958984
Na      21.42571556       6.87604063      45.72256037       0.00339830       0.01772018      -0.00409300
Na      25.10867831      11.01851732      42.10479278      -0.00161593      -0.00878157       0.00485975
Na      21.44821258      10.71906148      49.69547215       0.00714073       0.00345608       0.00026149
Na      25.04894567       7.38555171      56.02741977       0.00274181      -0.02021313       0.00979762
Na      24.94371794       7.20395741      52.46611165       0.02047842      -0.00580426       0.00432422
Na      21.49221240      10.79865484      53.30870037       0.00474856      -0.00077501      -0.00400101
Na      21.32681835       7.19156091      52.90999693       0.01782451       0.00622303       0.00779957
Na      25.06190543      10.82504467      49.32165797      -0.00516590      -0.00288714      -0.00078518
S       15.75767174       1.23555007      43.49902840       0.00342607      -0.00225076      -0.00365910
S       15.59338807       5.63836063      47.94787115      -0.00346331      -0.00068926       0.00538358
S       19.93423875       5.87313216      43.38774302       0.00456575       0.00473120       0.00417754
S       20.27346185       1.41746565      47.95122935      -0.00332680       0.00408650      -0.00066736
S       19.35603086       2.30561226      44.29805953       0.00119510       0.00305533       0.00436826
S       19.21482357       5.00829138      47.01861572      -0.00531863       0.00496297       0.00257338
S       16.39547837       4.80086583      44.37756745       0.00012097       0.00410095       0.00010528
S       16.70244719       2.06116616      47.07148725      -0.00220268       0.00166517      -0.00016360
S       15.83528972       1.21361113      50.64191758      -0.00052106       0.00558129       0.00678502
S       15.57522836       5.69415048      55.18820066      -0.00074660      -0.00303924       0.00879454
S       20.00542487       5.87243474      50.64167272       0.00495039      -0.00119970       0.00474257
S       20.26963179       1.52989690      55.20380762      -0.00077273       0.00328013       0.00194430
S       19.46640161       2.31005317      51.59794424      -0.00774168       0.00240614       0.00362118
S       19.17007159       5.10657331      54.23694764      -0.00102805      -0.00430563       0.00831134
S       16.47108502       4.78521001      51.51023042      -0.00366678       0.00236632       0.00899060
S       16.67801210       2.13829805      54.26605444      -0.00617267      -0.00353350       0.00431956
S       15.75885656       8.37146080      43.51216699      -0.00123711       0.00325255      -0.00355113
S       15.58875654      12.76018916      47.97876477       0.00095970       0.00568858       0.00557316
S       19.94799675      13.05381916      43.42033127       0.00388726       0.00070211      -0.00040526
S       20.24830532       8.57546028      47.94062050      -0.00051567       0.00033577      -0.00076311
S       19.32705694       9.48019908      44.30288184       0.00235169      -0.00101744       0.00515314
S       19.20565161      12.14974125      47.05823113      -0.00552310       0.00455308       0.00022251
S       16.37778819      11.98197211      44.42268714       0.00110803       0.00144815      -0.00264836
S       16.68034440       9.19877482      47.06856292      -0.00517551       0.00496058       0.00052465
S       15.79954811       8.39056633      50.66396028       0.00574762       0.00398902      -0.00444861
S       15.59218520      12.84770150      55.24584524      -0.00042475       0.00240578       0.00256514
S       20.03684312      13.06178393      50.68078096      -0.00572077       0.00201893      -0.00230464
S       20.23950052       8.69955901      55.19595850       0.00387973       0.00059709       0.01025837
S       19.38348135       9.47972191      51.57994181       0.00304763      -0.00060223       0.00538722
S       19.16271464      12.26962341      54.23769215       0.00429151      -0.00674493       0.00719322
S       16.40905482      11.98291733      51.56855215       0.00555497       0.00264933       0.00363905
S       16.65304202       9.31095028      54.29561639      -0.00198358      -0.00202181       0.00186433
S       22.91152799       1.24272598      43.55024851       0.00296085       0.00024388      -0.00304034
S       22.79535685       5.65674807      48.00019801      -0.00467293      -0.00300661      -0.00296853
S       27.10332952       5.91368002      43.38786531       0.00317863      -0.00388124       0.00315223
S       27.45537966       1.43863308      47.92249038      -0.00137349       0.00348859       0.00792146
S       26.50472548       2.35299044      44.28195249      -0.00012110      -0.00301644       0.00415978
S       26.37495720       5.07019918      47.00553415      -0.00518666      -0.00112264       0.00154329
S       23.53597058       4.83955805      44.40452482      -0.00160003      -0.00267647      -0.00064895
S       23.88507901       2.11294733      47.09904230      -0.00293863      -0.00433078       0.00000629
S       22.99627698       1.25129792      50.66844318      -0.00401927      -0.00061199       0.00106984
S       22.76364721       5.74401521      55.20636315      -0.00232577       0.00285547       0.00331820
S       27.17396887       5.89584497      50.62953654       0.00150367       0.00217072       0.00887087
S       27.45364936       1.53763483      55.17300306      -0.00543330       0.00955176       0.00206649
S       26.59450531       2.34595159      51.58750085      -0.00452629       0.00315258       0.00375879
S       26.33673037       5.16998554      54.21902370       0.00096409      -0.00868285       0.01018762
S       23.61015464       4.83002955      51.53916170      -0.00278684       0.00261200       0.01115751
S       23.84177027       2.20664747      54.31064138      -0.00791337      -0.00465945      -0.00094250
S       22.87428900       8.39029358      43.57381167       0.00843875       0.00574244      -0.01089310
S       22.77529962      12.79097426      48.00419469      -0.00579868       0.00264993      -0.00253771
S       27.09309924      13.09655636      43.39833981       0.00775493      -0.00740190       0.00347433
S       27.41669170       8.61633273      47.94908915      -0.00021698       0.00215852       0.00459284
S       26.49258422       9.50852845      44.32315362       0.00359727      -0.00591119       0.00221437
S       26.34956576      12.24475401      47.02396040       0.00289606      -0.00481022       0.00296512
S       23.52294197      11.99017656      44.41312128       0.00568542      -0.00069793       0.00090449
S       23.86124870       9.27080572      47.11746114      -0.00144889      -0.00073689       0.00054984
S       22.92214457       8.42994205      50.70468935       0.00537692      -0.00084539      -0.00588700
S       22.76019328      12.90506493      55.21343164       0.00540076      -0.00371113       0.01065188
S       27.16812441      13.08241270      50.64544234       0.00278048       0.00107469       0.00725264
S       27.42376479       8.72639441      55.18861811      -0.00257574      -0.00761912       0.00637764
S       26.52895239       9.48990641      51.59992764       0.00680658       0.00053233       0.00619744
S       26.34737201      12.33723449      54.21662972      -0.00099068      -0.01308152       0.01329144
S       23.57848239      12.00782590      51.57208322       0.00535849       0.00004689       0.00652865
S       23.81574819       9.39665879      54.35060830       0.00013293      -0.01083786       0.00054032
Sb      14.31612968       0.02126045      56.56161261      -0.00273498       0.00131814       0.00669324
Sb      17.91358861       3.54529032      45.68953047      -0.00202019       0.00339981       0.00130806
Sb      14.35631441      14.28799501      49.29208820       0.00032596       0.00466102       0.00677094
Sb      17.95401561       3.58122087      52.89471161      -0.00501110      -0.00148095       0.01055763
Sb      14.30347828       7.17132288      42.09485743      -0.00223984      -0.00072001       0.00048184
Sb      17.89498020      10.70721497      45.71801556      -0.00114196       0.00144692      -0.00051642
Sb      14.34606540       7.13020877      49.28726907      -0.00113574       0.00312659       0.00384586
Sb      17.91036512      10.75766418      52.91647207       0.00190170      -0.00103172       0.00541543
Sb      21.47237907      14.34203985      42.14740573       0.00227330      -0.00017513      -0.00293236
Sb      25.07846679       3.59108030      45.69418292      -0.00293622      -0.00260330       0.00132290
Sb      21.53112713      -0.03483527      49.33043134      -0.00507267       0.00242088       0.00065536
Sb      25.11206929       3.62949521      52.90835330      -0.00399865      -0.00529025       0.01303594
Sb      21.46367345       7.16759233      42.12929843       0.00172618       0.00268492      -0.00165124
Sb      25.05818373      10.75436337      45.72175819       0.00319063      -0.00407667       0.00084493
Sb      21.50888037       7.13168878      49.32149274      -0.00026024      -0.00052244      -0.00075238
Sb      25.08110625      10.80424735      52.93297357       0.00224323      -0.00577452       0.00842288
Na      28.64338934       3.60061967      56.98457730       0.00342176      -0.00569520       0.01569425
Na      17.90656752      14.26396852      63.10467980       0.00612299       0.01578203       0.00625207
Na      17.89727736      -0.01553547      59.48827119       0.00809301      -0.00391978       0.03573157
Na      14.29857114       3.43542725      60.75681541       0.00586548       0.00251953      -0.02484313
Na      28.64948034      14.15794825      60.21378647       0.00149140       0.00415015       0.02784669
Na      17.86412778       3.70910377      56.52400285       0.00761951      -0.00263054       0.01687403
Na      14.34726754       3.61660372      64.47815353       0.04484019      -0.04078357      -0.00013251
Na      17.67471150      -0.21523637      70.13636046       0.05293110      -0.02051540       0.07894392
Na      17.96408273      -0.09276122      66.64995504       0.05502789       0.09607118      -0.00986556
Na      14.32909773       4.01928254      68.32794222       0.04937394      -0.17034135      -0.08528166
Na      14.38822096       0.68262955      67.87160311      -0.01684383      -0.05522326      -0.00805098
Na      17.91954652       3.46832808      63.92738277       0.04066594      -0.03569244       0.01280243
Na      28.65913238      10.77473078      57.00889799      -0.00410935      -0.00658420       0.00392464
Na      17.94695970       7.11174878      62.93527275       0.00304940      -0.03377117       0.01298274
Na      17.88256069       7.15188830      59.41520514       0.00250850       0.01850460       0.02791356
Na      28.62187771      10.58854403      60.64710895       0.02167177       0.01728669      -0.00868280
Na      28.66410501       6.96114353      60.13901957       0.00722303      -0.00706493       0.00626650
Na      17.89154783      10.90572882      56.52198275      -0.00583990      -0.01752153       0.01373720
Na      28.58089879      10.80360788      64.36727725       0.01676898       0.04205012       0.00363329
Na      18.21755765       7.45230692      70.03685386       0.17137975      -0.05798264       0.04860115
Na      17.86770930       7.22250484      66.46205895       0.02694125       0.00563219      -0.00863693
Na      28.57047907      10.93069619      67.80993661      -0.10443666       0.39363933      -0.76561407
Na      28.62199249       7.43919900      67.23012800      -0.10382187      -0.10859811      -0.97005417
Na      17.87090234      10.71587371      63.91861093      -0.00769865      -0.03024051       0.01417827
Na      21.48912369       3.59969622      56.88664576       0.00524434      -0.00368872       0.00065082
Na      25.09068893      14.29182509      63.09676664       0.01410651       0.13277980       0.09858807
Na      25.05931503       0.02036614      59.53060537       0.01606310      -0.04090193       0.02452657
Na      21.45093713       3.32066661      60.39956518       0.02112290      -0.01645973       0.01000262
Na      21.48842783      14.05712969      60.15171975       0.00423362       0.00231515       0.02050367
Na      25.40407330       3.63019604      70.74757615       1.35538284      -0.95711237      -0.43146654
Na      21.62296997       3.54504796      63.87280513      -0.11222143       0.07442830      -0.08350682
Na      24.95523758       0.05157349      69.98923770       7.46217802      -6.78869744      -1.93636654
Na      24.97776993      14.38916848      66.58542560       0.18477649       0.26437679       0.26797497
Na      21.47151523       3.82621907      67.15324080      -0.01245787       0.07429020       0.09205381
Na      21.53178765      14.27008659      67.61546897       0.18042694       0.16839602       0.01784804
Na      25.22083870       3.58697430      63.79755875       0.09782167       0.18844434      -0.15387323
Na      21.50737303      10.76951476      56.92315537       0.00090889       0.00310945       0.00300326
Na      25.08913524       7.11619969      63.12576924       0.04076897       0.00213545       0.02494993
Na      25.04560155       7.20410160      59.55917525      -0.00195453       0.00440937       0.01315576
Na      21.45116221      10.54599499      60.57184884       0.01243670       0.00009885       0.01645580
Na      21.45427272       6.93188240      60.16066068       0.00541809      -0.00371782       0.01451532
Na      25.09122998      11.04871319      56.52639640       0.00396492      -0.02668656       0.02110328
Na      21.47208725      10.75536111      64.31166374      -0.01526559       0.03156506      -0.03951069
Na      24.85693384       6.95087934      70.22069195      -0.34230794      -0.25233041       0.02273847
Na      25.05822542       7.23484914      66.67345577      -0.02574243      -0.10325155       0.04295207
Na      21.24677643      10.67211347      67.94945941      -0.03316435       0.00127110       0.06869438
Na      21.04533319       7.61812939      67.61356934      -0.02769817       0.02225426       0.05450611
Na      25.06256794      10.58276794      63.83195486       0.02217703       0.01002211       0.02943392
S       15.76134958       1.25227165      57.96030928      -0.00050047       0.00126224      -0.00122435
S       15.56278580       5.67244664      62.61204924       0.01689224      -0.02752954       0.00640840
S       19.94553421       5.87690571      57.82207130       0.00762230       0.00979327       0.01787770
S       20.27004408       1.39423423      62.58004240       0.05013343      -0.06728088       0.00864955
S       19.29545724       2.34018525      58.79687522      -0.01664021       0.01294256      -0.02839833
S       19.22528073       4.93694043      61.57382070      -0.00622914       0.01938697      -0.01003100
S       16.32160773       4.81911930      58.96342643       0.00638651       0.01934695       0.01126739
S       16.64806833       2.05881845      61.60946725      -0.01240439       0.01134031      -0.02247810
S       15.85463658       1.34674041      65.40491472      -0.03527091      -0.02237374      -0.02754939
S       15.33083674       6.51403372      70.29114278       0.04795251       0.15078148      -0.02357025
S       20.12237716       5.85992309      65.30712470      -0.03110044       0.05162697      -0.05035325
S       20.84721211       0.51497920      70.39307279       1.48393513       0.54670713      -0.02768159
S       19.24447537       2.41313321      66.42232950       0.14156461      -0.10520787       0.03752044
S       19.55629327       5.11302970      69.21628647      -0.07291965      -0.02899336      -0.01641879
S       16.42808068       4.96144306      66.74244921      -0.02845502      -0.02571496      -0.02509429
S       16.67768544       2.23546630      69.30020655      -0.05999463       0.06182383      -0.01931427
S       15.76782615       8.39729526      57.90835156      -0.00127863       0.00358189       0.00359014
S       15.55616964      12.75793237      62.71487636      -0.01575188       0.01543378       0.00294928
S       19.95843018      13.06361074      57.83297830      -0.00269009      -0.00094882       0.00512319
S       20.21077207       8.70441003      62.67351466      -0.02669386       0.03635193       0.04088937
S       19.33415123       9.52919790      58.79574178      -0.00117307      -0.00669804       0.01189613
S       19.17868822      12.18973430      61.52382391      -0.00958978       0.00727594       0.00551985
S       16.30717778      12.00542472      58.95468577       0.00556064       0.00025290       0.00270599
S       16.65464447       9.21664875      61.53658675      -0.00002694       0.01552274       0.02290448
S       15.73448098       8.47712631      65.25549920      -0.02911014       0.03179482      -0.01014618
S       15.17517619      12.86656509      70.84142115      -0.08521633       0.07170391      -0.02287052
S       20.08013150      13.00804522      65.28748261      -0.02119639       0.01636662       0.01387533
S       20.34515250       9.00465239      70.14159479      -0.07785641       0.07385787      -0.07605729
S       19.14442582       9.61385841      66.40352932      -0.01672665       0.02840723      -0.01691958
S       19.07758080      12.47506944      68.92961379       0.01844935      -0.06385380      -0.03452336
S       16.21328328      12.01593560      66.57710083       0.02335841       0.04043009       0.00310927
S       16.33260054       9.19082905      69.16981299       0.02617853      -0.00860716       0.12256867
S       22.87083793       1.27195552      58.01185457      -0.00744587       0.01399655      -0.00296073
S       22.71661640       5.75661270      62.52286050       0.02903734       0.05568369      -0.00918347
S       27.10418858       5.93554567      57.82215966      -0.00087906       0.00146769       0.01336686
S       27.41656264       1.39513403      62.63899044       0.00463022       1.59349325      -1.01547534
S       26.51421107       2.35863421      58.85704528       0.02230931       0.00638803       0.01541323
S       26.37119132       5.08520806      61.51403986       0.00448025       0.00780364       0.01698050
S       23.50915540       4.85379471      58.90897002       0.01157559       0.01307540      -0.01561790
S       23.80892998       2.18513177      61.62804694       0.03474266      -0.10895758       0.24040562
S       22.82244089       1.25582360      65.37745465       0.13071613       0.94952323       0.33388670
S       23.58110945       5.58145734      72.24906761       0.16697468      -0.23673007      -0.04107796
S       27.21604454       6.00990447      65.24970510      -0.03811363       0.00065883      -0.06216717
S       27.19188044       1.68907814      70.00655503      -5.31250475      -6.30345151       1.70844646
S       26.49062347       2.28464973      66.31849755      -3.01727750       4.72422915       0.64560423
S       26.41769693       5.40118493      68.76454702      -0.43408677       1.89083239      -0.33862207
S       23.72332002       4.86168304      65.96698487       0.28937581      -0.32416678       0.20800288
S       23.56993542       2.48291494      68.88663686      -0.29967911       0.47159153      -0.26320630
S       22.86320777       8.41926122      57.97981674       0.00474250       0.01099078       0.00195017
S       22.75413953      12.81279843      62.63875129      -0.01644125      -0.01886499       0.02814241
S       27.10905489      13.11397200      57.85168606       0.00448107      -0.01652393      -0.00136256
S       27.39778480       8.70392382      62.59215348       0.00680335       0.02959316       0.01224689
S       26.51625047       9.55201256      58.79844258      -0.00886244      -0.00877019      -0.00534934
S       26.35190577      12.22230995      61.54151410       0.00218056      -0.00607373       0.00004167
S       23.51266272      12.03384052      58.90514827      -0.00858676      -0.00956500       0.02222920
S       23.84005233       9.26424793      61.52925398       0.01334183      -0.00522225       0.01939819
S       22.99804056       8.55592607      65.24009889      -0.01238500       0.03521052       0.03499477
S       22.87408832      13.90526835      71.86616199       0.09065927      -0.04339153       0.21365155
S       27.17564647      13.07937511      65.40650020       0.02707507      -0.00685078      -0.14529924
S       27.85962931       7.85394858      70.21919945      -0.19329962       0.39429123      -0.56980957
S       26.49457327       9.59078328      66.58123528      -0.01570702      -0.01981081      -0.13505200
S       26.52275925      11.84401603      69.62602806       0.24427773      -0.30085821       0.43820551
S       23.48602145      12.09174162      66.98888319      -0.03159862      -0.13377554       0.05483002
S       23.55582984       9.07132632      69.15488613       0.05737924       0.10472720      -0.06124127
Sb      13.78773346       0.74642058      72.61789170       0.01302230      -0.07998746      -0.05117084
Sb      17.86216859       3.54396152      60.22570638       0.02382090      -0.00605032       0.01311770
Sb      14.34155505      14.32373743      64.00247771      -0.02232808       0.00537066      -0.00281265
Sb      18.02343117       3.69472742      67.97620210       0.05373469      -0.09491210      -0.11192035
Sb      14.30481001       7.18851323      56.50375724      -0.00113050      -0.00414877       0.01021056
Sb      17.86662069      10.73347433      60.19241396       0.00630312       0.00431339       0.01241688
Sb      14.30293474       7.22437991      63.85497067       0.00292703      -0.03211620      -0.00092474
Sb      17.69829806      10.74581648      67.95754785      -0.02666070      -0.03142649       0.01277721
Sb      21.47084160      14.36351758      56.54929414       0.00537654       0.00435543       0.01434413
Sb      25.05239798       3.61878211      60.20394060      -0.00499244      -0.01407450       0.02108752
Sb      21.48262620      -0.09078768      63.98555935      -0.29162938       0.53990261      -0.12461439
Sb      25.12356083       3.73677972      67.52320983      -0.53801696       1.36869193      -0.85537652
Sb      21.45305961       7.18831512      56.54093414       0.00708122       0.00059407       0.01465940
Sb      25.05602575      10.77735302      60.18035633       0.00873105      -0.00111192       0.02272556
Sb      21.52630908       7.21215682      63.93913513       0.03515078       0.01706912       0.00287229
Sb      25.00793189      10.65646671      68.12604925       0.07783388       0.05155000      -0.03495449
Na      28.42541015      17.59347680      28.02741030      -0.03523658       0.00452596      -0.03155159
Na      17.82449068      28.80329137      33.69864582       0.00163789      -0.00929296      -0.01382930
Na      17.97059186      14.39022862      28.85375028       0.01275659      -0.02630013      -0.02494969
Na      14.27188613      17.65133063      31.58570985       0.01002758       0.00173487      -0.00822823
Na      28.69761134      28.50110317      29.00611650       0.01438879       0.02766468      -0.06716323
Na      17.74896428      17.72194901      27.67113176       0.04411541       0.01792708      -0.01569473
Na      14.53054373      17.94179244      35.19270988      -0.02000827       0.00110659       0.01030776
Na      17.90143243      14.40889670      41.58750898       0.00316428      -0.00057746      -0.01610551
Na      17.93497410      14.32672001      37.80566953       0.00044837       0.00599539      -0.01028257
Na      14.37373794      17.93433099      38.92535045      -0.00429522       0.00961677      -0.01021446
Na      14.34607742      14.31465454      38.40045023      -0.00537599      -0.00417534       0.00213883
Na      18.19437080      17.88411695      34.96177841      -0.01073622       0.00026825      -0.01226091
Na      28.51302512      24.87607855      28.17102735      -0.01905019       0.02332832      -0.01125010
Na      17.86406237      21.49938314      34.14109798       0.00166964       0.00592231       0.01406730
Na      17.75958671      21.74118591      30.46693068       0.01363274      -0.01255151       0.02695146
Na      28.69605171      25.23017576      31.79760067       0.01459304       0.00138073      -0.02080847
Na      28.45015800      21.32741472      30.72584779      -0.03195348       0.00615143      -0.01530993
Na      17.94189958      24.66109884      27.69964819      -0.00724679       0.05323088      -0.01909882
Na      28.61966984      25.08868861      35.47241747       0.01400955       0.00470745      -0.02323185
Na      17.88806287      21.57540849      41.62607056       0.00170462      -0.00052786      -0.00631931
Na      17.79332299      21.49323332      37.93046081      -0.00248087       0.00821849       0.00106267
Na      28.65077260      25.10053943      39.07613537       0.00377095      -0.00175853      -0.01616709
Na      28.45412738      21.54305018      38.39363924       0.00649137      -0.01616592       0.00316789
Na      17.78131810      25.08662091      34.91211117       0.01003771       0.03137136      -0.01007528
Na      21.58431111      17.73714593      28.22397215      -0.01165949      -0.00555993      -0.02630810
Na      25.09519142      28.69858756      33.76633329       0.00946959      -0.01140986      -0.04666081
Na      24.98573365      14.23760104      29.09391972       0.03449275      -0.05433362      -0.02362998
Na      21.50788299      18.07718117      31.78125406      -0.01857455      -0.00790310      -0.01677606
Na      21.39208212      28.77769852      31.16643013       0.00692731       0.00944649      -0.00903104
Na      25.08065551      18.18237129      42.06935751       0.00256065      -0.01658062      -0.00026170
Na      21.66362852      17.93482660      35.39518989      -0.00926805       0.00358093      -0.00074169
Na      25.07130274      14.51493920      41.58616026       0.00083861      -0.00769238      -0.00479563
Na      25.11354507      28.66868125      37.78166197       0.00632103       0.00810295      -0.01179935
Na      21.55728725      17.97028811      39.02390318      -0.00491202       0.00395322      -0.00894736
Na      21.55523595      28.73032856      38.48716592      -0.00511454      -0.00446612      -0.01025914
Na      25.29912339      17.95932866      34.75566539      -0.01220436      -0.01883475      -0.01117503
Na      21.28420103      25.22791966      28.22653087      -0.01341408      -0.02889393      -0.01708162
Na      25.07055641      21.53619032      34.06016784       0.01273238       0.00032683       0.01203429
Na      24.93967306      21.35946889      30.21706584      -0.05169656       0.02014934       0.01811375
Na      21.49584244      25.12122366      31.90496977       0.00163119      -0.00866464      -0.02483018
Na      21.46749754      21.72945099      31.09253769      -0.05957440      -0.06146837      -0.04355144
Na      25.06819822      25.17222287      27.66347883       0.02182159      -0.02978879       0.00127947
Na      21.45792134      25.05699158      35.50026990       0.01229395       0.01377215      -0.02459300
Na      25.05213976      21.70665365      41.70736774       0.00200477      -0.01309784      -0.01675187
Na      24.95046698      21.51134903      37.97652645       0.01308052       0.00600894      -0.02196454
Na      21.49103396      25.13439600      39.03070929       0.00007473      -0.00635206      -0.01668944
Na      21.30532786      21.50097843      38.46240812       0.01721364       0.00380175      -0.00006846
Na      25.15792102      25.17978010      34.86158746      -0.00163568       0.01148241       0.00904357
S       15.94784029      15.85551967      27.92795288      -0.01114354      -0.00917211      -0.03981217
S       15.47359524      20.12598856      33.33723557      -0.00432290       0.00534431      -0.00696771
S       19.88801373      19.29206939      26.76425929       0.01136186      -0.00373919      -0.02037519
S       20.29049621      15.87414649      33.54490358      -0.00587791       0.01915056      -0.00166548
S       19.49485563      16.73145335      29.85423850       0.02755219       0.01529522      -0.03347341
S       19.28315953      19.84820283      31.99993425      -0.04426496       0.01431438      -0.00887333
S       16.17651624      19.28955674      29.79209962       0.00644205      -0.01489215      -0.01271297
S       16.80783780      16.92385231      32.69142310      -0.02660559       0.00024957      -0.02017556
S       15.85514632      15.54022479      36.05220434      -0.00830744       0.00850300       0.01631423
S       15.56755663      20.04156550      40.73364132      -0.00075646      -0.00170985      -0.00091161
S       19.90618879      20.23640291      36.03982234       0.01434541      -0.00538499       0.00090399
S       20.28315240      15.84815141      40.77335768       0.00251243      -0.00017598      -0.00412674
S       19.54017065      16.67048323      37.22680444      -0.00571679       0.01042173      -0.00425240
S       19.16836071      19.47214593      39.80258403      -0.00413732       0.00493821       0.00036854
S       16.49117110      19.09722402      37.09191719       0.00286201       0.00797883      -0.01184683
S       16.69465210      16.43664927      39.81521239      -0.00623521       0.01000336      -0.00283466
S       16.11778951      22.78416950      28.43237567      -0.03439808       0.00952042      -0.02197836
S       15.61773440      27.04753153      33.55554680      -0.00716125       0.01585258       0.00129512
S       19.44623433      26.90264271      26.94187512       0.00580671       0.00134197       0.03886101
S       20.19626648      23.10173801      33.56567699      -0.00291620      -0.01764538      -0.01221376
S       19.56147204      23.88500442      29.83064661      -0.01992877       0.00202396      -0.01914019
S       19.25562244      26.84981275      32.17267409       0.00846722       0.01142143      -0.02508019
S       16.41470639      26.29766331      29.55607716       0.00008192       0.02499600      -0.00036415
S       16.73531404      23.78547969      32.41163890       0.00834951       0.01451249       0.00031307
S       15.77060335      22.71852976      36.11609343       0.00624505      -0.00678128       0.00414563
S       15.58427824      27.16359264      40.80856755       0.00003834       0.00033624      -0.00595399
S       20.05342928      27.40592121      36.18786152      -0.00915025      -0.00118863      -0.01988437
S       20.25722423      23.00429867      40.76921303       0.00120313       0.00413917      -0.00055262
S       19.34727288      23.82691094      37.19564882       0.00454133       0.00622670      -0.00938711
S       19.14846833      26.61093781      39.82996405       0.00962629      -0.00144011      -0.00313983
S       16.36529673      26.30766930      37.21869096       0.00572986       0.00263441      -0.00417517
S       16.64330904      23.59556879      39.89396519       0.00362778       0.00461215      -0.00383260
S       22.17255487      15.03293641      28.46649136       0.01516103      -0.01549386      -0.01212905
S       22.72022893      20.04737880      33.48100642      -0.00983587      -0.00864399      -0.01165136
S       27.87399616      20.30043157      27.77701969       0.01278809      -0.01024123       0.03055384
S       27.44865035      15.88901913      33.45587492       0.00262851       0.01909282       0.01326922
S       26.48523295      16.54910068      29.66197417      -0.00018973      -0.04306391       0.00155828
S       26.38567668      19.52929549      32.00677829       0.00400572      -0.01919184      -0.00832949
S       23.43909434      19.17271312      29.62752261       0.00992999      -0.02603858      -0.01411175
S       23.82547006      16.64852197      32.45715792      -0.00250601      -0.01613880      -0.01058295
S       23.06285709      15.57692836      36.12523145      -0.00410891       0.00549315      -0.00280032
S       22.77958805      20.07007795      40.78351685      -0.00528427      -0.00051531      -0.00422125
S       27.08784239      20.25039877      35.94795919      -0.00312260       0.00091594       0.00036451
S       27.47065211      15.83887834      40.70631210      -0.00456762      -0.00344209       0.00244299
S       26.64141224      16.71049476      37.13952677       0.00021767       0.01114823      -0.00165519
S       26.35476439      19.50338970      39.74842572      -0.00240102       0.00553621       0.00176423
S       23.61205159      19.15229891      37.12674595      -0.00232208       0.00396394      -0.00536092
S       23.87272749      16.49618300      39.85091419      -0.00105243       0.00040126      -0.01058941
S       21.81953607      22.39567971      28.07838421       0.01228102      -0.04121096       0.02592236
S       22.75408304      27.14636995      33.49048829      -0.01623608       0.00000101      -0.00789223
S       26.92181286      26.97843933      27.77715679       0.01421896       0.01603725      -0.08660475
S       27.35274867      23.21328826      33.49585500       0.00680232       0.00229772       0.00627210
S       26.39897488      23.55438682      29.54236803      -0.00062142       0.00669864       0.01580199
S       26.19995398      26.28177895      32.36085893       0.02602342       0.04289210      -0.02963468
S       23.42729824      26.21667961      29.70840395       0.01465079      -0.01897685      -0.02328049
S       23.69941565      23.28176987      32.11279330      -0.01125884       0.01413318       0.00950689
S       22.94340380      22.72942487      36.18271236      -0.00359950       0.01358260       0.00135493
S       22.75840972      27.21532316      40.80476816       0.00267843      -0.00131691      -0.00107980
S       27.10036956      27.43287116      36.00486697       0.01200217       0.01191232       0.01328703
S       27.41284891      23.03482362      40.77311472       0.00094615      -0.00604162      -0.00770512
S       26.54953413      23.81399331      37.21632118       0.00915876       0.01254971      -0.00065158
S       26.33920749      26.69580790      39.75143123       0.00194436      -0.00316634       0.00786645
S       23.56301780      26.29716117      37.16577721       0.00393599       0.00499729      -0.00122692
S       23.83121108      23.69489781      39.93843030      -0.00144747      -0.00050126      -0.00597408
Sb      14.30722162      14.33719213      42.10001944       0.00114519      -0.00294915      -0.00014653
Sb      17.96352705      18.12504384      31.04622038      -0.00550029      -0.01500216      -0.02047013
Sb      14.34069507      28.64823223      34.72458122      -0.00713486       0.01236961       0.00820217
Sb      17.97833060      17.90833191      38.49253277      -0.00565319       0.00892558      -0.00282942
Sb      15.82719429      20.59912380      27.49654359       0.00500412       0.01182931      -0.02415997
Sb      17.97030275      25.25195662      31.02624164      -0.00251077       0.01054308      -0.01116741
Sb      14.24406441      21.57638976      34.71142850       0.00516067       0.00162309      -0.00041404
Sb      17.88217808      25.08595755      38.55221281       0.00599605       0.00266608      -0.00498777
Sb      21.21818468      28.32070731      26.21284267      -0.04358677       0.05665291       0.02415092
Sb      25.02853909      17.92840392      30.88598145       0.00658768      -0.02270885      -0.00868231
Sb      21.52057111      14.32789310      34.86071279      -0.00553443       0.01305337      -0.00691527
Sb      25.13157849      17.94146850      38.46456323      -0.00224444       0.00808334      -0.00226983
Sb      21.08277609      21.23504249      26.15328609      -0.10081495       0.07036795       0.00372177
Sb      24.99073345      24.88300487      30.94150977       0.00540390       0.00995818       0.01598250
Sb      21.45374467      21.53002556      34.80489005       0.00727327      -0.00137708      -0.00303601
Sb      25.07970559      25.11673529      38.52912893       0.00219549       0.00322389       0.00194211
Na      28.64552180      17.91654809      42.53170341       0.00876754      -0.00221304      -0.00163405
Na      17.94705860      28.56481485      48.79265455      -0.00222005       0.00611467       0.00938465
Na      17.90064403      14.30783097      45.20899630      -0.00179855       0.00309878       0.00322164
Na      14.33927286      17.76382681      46.09947395      -0.00244122       0.00832301       0.00448569
Na      28.64522500      28.46877404      45.69006074      -0.00380035       0.00796192       0.00609466
Na      17.91866353      18.00734294      42.08358341       0.00515674       0.00364248      -0.00057975
Na      14.38704504      17.87957885      49.71910927       0.00037992       0.00298208       0.00473461
Na      17.90222030      14.42926484      55.95274725       0.00744869      -0.00593310       0.00738663
Na      17.91279727      14.32513453      52.36808851      -0.00020377      -0.00002500       0.01341659
Na      14.36624746      17.96520221      53.35204152      -0.00340965       0.00715196      -0.01023417
Na      14.31651205      14.34675357      52.90741719      -0.00334531       0.00525990       0.00225904
Na      18.01813802      17.82305406      49.29247920      -0.01248790       0.00421726      -0.00079075
Na      28.65924512      25.07474862      42.64021537      -0.00071698      -0.00304429      -0.01605015
Na      17.93465631      21.40626777      48.81396023       0.00177927       0.00154587       0.00599284
Na      17.88077461      21.46291893      45.21982663      -0.00024053       0.00442470       0.00859961
Na      28.64637747      24.94416100      46.20043651       0.00149894       0.00494985      -0.01391680
Na      28.60178747      21.32700903      45.68730057       0.00459947       0.00981998       0.00305505
Na      17.89925700      25.20341456      42.11705445      -0.00361034      -0.00426899      -0.00006686
Na      28.62244916      25.03889761      49.80035789       0.00305679       0.00608222      -0.01168890
Na      17.89497041      21.57786430      55.93662087       0.01060604       0.00321955       0.02053755
Na      17.83036731      21.48554065      52.39237118      -0.00350469       0.00386897       0.00441931
Na      28.66700969      25.12069857      53.39473243       0.00091890       0.00028459       0.00006669
Na      28.49893368      21.55835838      52.88301371       0.01607394      -0.00821195       0.02008669
Na      17.85488721      24.99011066      49.31660003       0.00308837       0.00785468       0.00076031
Na      21.50433479      17.91102217      42.56457530       0.00412036      -0.00148407       0.00123256
Na      25.10518534      28.68147689      48.80384145      -0.00159431      -0.00293977       0.00813352
Na      25.05480206      14.34450898      45.21256155      -0.00172117      -0.00277525       0.00569093
Na      21.50708003      17.68482538      46.09632964      -0.00382716       0.01064147       0.00485784
Na      21.46048896      28.38601581      45.73093662       0.00451198       0.01541866      -0.00517394
Na      25.05881620      18.20208615      56.51205378       0.00790870      -0.02439061       0.03828668
Na      21.56331255      17.89162837      49.71317174      -0.01300461      -0.00065129       0.00213163
Na      25.07530634      14.51436392      55.97278597      -0.00022509      -0.00138685       0.01948319
Na      25.06760591      28.69005062      52.38646859       0.00324927      -0.00160216       0.01437441
Na      21.53377697      17.97147039      53.33377376      -0.00418148       0.00047301       0.00325991
Na      21.47555828      28.70347410      52.93197897       0.00355722      -0.00580630       0.00806633
Na      25.16251502      17.98474779      49.29885986      -0.01026828      -0.01105320       0.00352053
Na      21.50229027      25.07224648      42.56052948       0.00094457       0.00544900      -0.00676311
Na      25.09489722      21.52883018      48.89650811      -0.00394502      -0.00469042      -0.00583811
Na      25.03313654      21.50612835      45.29566819      -0.00229542      -0.00174976      -0.00438771
Na      21.48564331      24.83002828      46.08418159      -0.00173555       0.02148422       0.01018558
Na      21.42598624      21.20675961      45.72360929       0.00340693       0.01800555      -0.00349648
Na      25.10995781      25.35292020      42.10596794      -0.00161735      -0.00818529       0.00499027
Na      21.44996713      25.04901501      49.69999990       0.00718433       0.00379788       0.00297191
Na      25.04720879      21.71244374      56.04120760       0.00562205      -0.01536723       0.01579305
Na      24.94523091      21.53394330      52.47417143       0.01738222      -0.00493398       0.00546448
Na      21.49437936      25.12256722      53.32336304       0.00536312      -0.00345957       0.00382447
Na      21.33273108      21.51639508      52.91764028       0.01693918       0.00842593       0.00937716
Na      25.06136984      25.15505062      49.32467255      -0.00721610      -0.00133324       0.00119166
S       15.75596445      15.56709466      43.49981990       0.00428298      -0.00171613      -0.00475790
S       15.59273793      19.97026359      47.94826647      -0.00366281      -0.00048518       0.00534252
S       19.93456184      20.20424305      43.38867386       0.00414378       0.00462617       0.00380732
S       20.27242313      15.74780220      47.95050801      -0.00386311       0.00452656      -0.00119244
S       19.35568229      16.63703478      44.29883420       0.00082477       0.00323277       0.00408709
S       19.21431713      19.33998467      47.01895630      -0.00549602       0.00525178       0.00267979
S       16.39482584      19.13253723      44.37828224       0.00039382       0.00443104      -0.00025960
S       16.70225161      16.39245589      47.07185119      -0.00266924       0.00214934      -0.00024378
S       15.83548580      15.54531116      50.64051435      -0.00051736       0.00563406       0.00659625
S       15.57703289      20.03843711      55.16992163      -0.00230087       0.00476800       0.00914345
S       20.00448024      20.20525454      50.64211699       0.00438860      -0.00018408       0.00418742
S       20.26248292      15.87325699      55.19778309      -0.00270793      -0.00376252       0.00301735
S       19.46735036      16.64267824      51.59569122      -0.00752811       0.00001653       0.00178029
S       19.17176017      19.43960901      54.23526631      -0.00477730      -0.00460294       0.00321636
S       16.47103833      19.11506187      51.50929770      -0.00336039       0.00353459       0.00657993
S       16.68064819      16.47070094      54.26640462      -0.00709431      -0.00262406       0.00235519
S       15.75864019      22.70251773      43.50995285      -0.00180819       0.00280915      -0.00493184
S       15.58884166      27.09038508      47.97958346       0.00072829       0.00539709       0.00602306
S       19.94776071      27.38435886      43.41686991       0.00342260       0.00065635      -0.00064029
S       20.24868407      22.90759731      47.94123921      -0.00045759       0.00102513      -0.00013736
S       19.32620162      23.81136240      44.30142158       0.00202063      -0.00119162       0.00529025
S       19.20545285      26.48114887      47.05636187      -0.00530964       0.00469150       0.00023613
S       16.37652950      26.31217499      44.42231855       0.00079719       0.00103991      -0.00244189
S       16.68051924      23.52958905      47.06852486      -0.00508200       0.00516514       0.00088645
S       15.79839071      22.72200635      50.66541565       0.00525529       0.00422818      -0.00410498
S       15.59109800      27.17907071      55.25674998      -0.00565018       0.00738360      -0.00334588
S       20.03531227      27.39111314      50.67998981      -0.00669999       0.00269368      -0.00274539
S       20.25077400      23.03144497      55.20445533      -0.00097714       0.00040158       0.00166469
S       19.38423962      23.80927626      51.58345916       0.00290619       0.00076655       0.00300705
S       19.16615159      26.60554984      54.23605563       0.00372253      -0.00396329       0.00440748
S       16.40854797      26.31076784      51.57239679       0.00549466       0.00428715       0.00375372
S       16.66082505      23.64411143      54.30483514      -0.00298702       0.00003175      -0.00166056
S       22.91212919      15.57274649      43.55310245       0.00279987       0.00063650      -0.00350748
S       22.79429695      19.98738199      48.00068127      -0.00486726      -0.00273567      -0.00333311
S       27.10518927      20.24466947      43.38764657       0.00343294      -0.00401068       0.00294839
S       27.45595621      15.76992966      47.92447388      -0.00122654       0.00279474       0.00621802
S       26.50518073      16.68401866      44.28205617      -0.00000775      -0.00306812       0.00385227
S       26.37484459      19.40143746      47.00552636      -0.00538713      -0.00095871       0.00100233
S       23.53625410      19.17057443      44.40491367      -0.00160303      -0.00259485      -0.00087629
S       23.88626797      16.44385579      47.09996063      -0.00313916      -0.00447465      -0.00063372
S       22.99754998      15.58437774      50.66486038      -0.00358817      -0.00245854       0.00083676
S       22.76755843      20.07065953      55.21427132      -0.00458619      -0.00635032      -0.00341457
S       27.17175049      20.22630612      50.62911784       0.00091087       0.00253121       0.00623492
S       27.46046741      15.87473593      55.18297466      -0.00862224      -0.00521471       0.00101528
S       26.59933348      16.67796507      51.58959939      -0.00566664       0.00100080      -0.00098432
S       26.33623704      19.50114974      54.21888844       0.00128113      -0.01325619       0.00815879
S       23.60843324      19.16119331      51.54252227      -0.00208808       0.00046556       0.00477337
S       23.84897804      16.53147239      54.30727520      -0.00602505      -0.00937559      -0.00420064
S       22.87311736      22.72208672      43.57543132       0.00803831       0.00530651      -0.01049659
S       22.77555195      27.12142899      48.00520429      -0.00557693       0.00214241      -0.00132270
S       27.09359329      27.42614085      43.39864264       0.00789552      -0.00721984       0.00439911
S       27.41623726      22.94692264      47.94913663      -0.00033793       0.00226381       0.00332705
S       26.49165192      23.83872503      44.32202056       0.00313729      -0.00596887       0.00259497
S       26.34937200      26.57536148      47.02290556       0.00269403      -0.00483477       0.00374203
S       23.52218720      26.32092153      44.41275966       0.00558939      -0.00056347       0.00162471
S       23.86141135      23.60155214      47.11733490      -0.00198178      -0.00043273       0.00086625
S       22.92377799      22.75916769      50.70540853       0.00477311       0.00026240      -0.00774878
S       22.77107727      27.22910397      55.25094982      -0.00207844       0.00896251      -0.00298538
S       27.16777687      27.41108791      50.64316424       0.00281019       0.00254631       0.00724072
S       27.41645893      23.06223440      55.19209998      -0.00669919      -0.00157932      -0.01279033
S       26.52562037      23.82073139      51.60045132       0.00555975       0.00225389      -0.00036304
S       26.34347655      26.66325236      54.22385532       0.00053265      -0.00718609       0.00469304
S       23.57388871      26.33660314      51.58218529       0.00302443       0.00225413       0.00462650
S       23.81574911      23.72038383      54.35589675      -0.00288801      -0.00674491      -0.00791272
Sb      14.31789100      14.35280534      56.54624362      -0.00314473      -0.00151030       0.00661008
Sb      17.91319082      17.87682235      45.69011048      -0.00203156       0.00370013       0.00130725
Sb      14.35653006      28.61801401      49.29318614       0.00024256       0.00452914       0.00711909
Sb      17.95602399      17.91355969      52.89353464      -0.00420313      -0.00022759       0.00807471
Sb      14.30304904      21.50267729      42.09196334      -0.00179169      -0.00168584      -0.00152266
Sb      17.89455122      25.03806488      45.71721746      -0.00116833       0.00153492      -0.00030160
Sb      14.34542712      21.46162637      49.28794044      -0.00114251       0.00345480       0.00414080
Sb      17.91339478      25.08880794      52.92036337       0.00528623       0.00102828       0.00713324
Sb      21.47194029      28.67322245      42.14418888       0.00235936      -0.00035510      -0.00281600
Sb      25.07882540      17.92190036      45.69447772      -0.00291315      -0.00259393       0.00098310
Sb      21.53166108      14.29681451      49.32902836      -0.00537913       0.00300773      -0.00071089
Sb      25.11326798      17.96027771      52.90790876      -0.00327428      -0.00004154       0.01135068
Sb      21.46411015      21.49861816      42.13040836       0.00107161       0.00306357      -0.00165408
Sb      25.05775237      25.08500953      45.72123917       0.00305491      -0.00409788       0.00162398
Sb      21.50872605      21.46314264      49.32232261       0.00018920       0.00001713       0.00004276
Sb      25.07886550      25.13065269      52.94020491       0.00441799      -0.00320152       0.01465503
Na      28.64404625      17.93101608      56.99424315      -0.00194707       0.00831308       0.00641449
Na      17.93722990      28.57538399      63.04534464       0.04905984      -0.00686496       0.06003545
Na      17.89151965      14.30372321      59.50840771       0.00864364       0.01960353       0.01546178
Na      14.31276997      17.75809639      60.66598198       0.00994300      -0.01362847      -0.04787613
Na      28.66589921      28.48538031      60.18698467       0.04757754      -0.10211134       0.10298516
Na      17.88827417      18.02443610      56.50977748       0.01374888       0.00289209       0.01441077
Na      14.41987144      17.88587224      64.25838681       0.01976247       0.02777610       0.04575863
Na      17.60849062      14.17736886      70.40907890       0.05384009      -0.05968322       0.08498366
Na      17.98063840      14.23867875      66.76497441      -0.01269890       0.00414189      -0.05219934
Na      14.29993421      17.72547144      67.87724342       0.03726903       0.06375667      -0.24634603
Na      14.52712167      14.15512919      67.50445380      -0.03377324      -0.03162603      -0.09300037
Na      18.02138368      17.82717780      63.87816167       0.04074968       0.00166407       0.06310417
Na      28.66455309      25.09798281      57.01232223      -0.00500570      -0.00300715       0.02112990
Na      17.96403569      21.46736428      63.01868021       0.28143233       0.03058139       0.22928482
Na      17.89052886      21.49030138      59.45905021       0.01026278       0.00404910       0.02668413
Na      28.62353124      24.93830829      60.64696021       0.08752892      -0.01006889       0.38706256
Na      28.68791890      21.29523710      60.10225713       0.07931888       0.06052594       0.37476877
Na      17.91358555      25.23265164      56.52617172      -0.00421877      -0.01669529       0.01423721
Na      28.56046068      24.96454664      64.56443656      -4.78368648      -7.83399567      14.28774348
Na      18.41563428      22.03822261      70.24241021       0.07663558      -0.07979116      -0.19652951
Na      17.83812655      21.50868022      66.56443675       0.15311175      -0.09222652      -0.16045034
Na      28.44440418      26.02755812      66.75387454     -19.08555926       7.93438428       4.17867079
Na      28.65082611      21.77396343      66.31077846      -0.57525827      22.03502149      -0.11914525
Na      17.97691589      25.02213873      63.84961514       0.11097000      -0.01520679       0.06975320
Na      21.48187369      17.92964595      56.94417267       0.01290475       0.00718543       0.01314419
Na      25.04870180      28.65670602      63.02465179       1.70127371      -1.57858424       1.64294361
Na      25.04901476      14.36831417      59.54716522       0.00652555       0.00995601      -0.00992276
Na      21.45109884      17.69858765      60.59025251       0.02302085       0.00734319      -0.00564154
Na      21.48848405      28.33004364      60.21511470      -0.00404720      -0.01013109       0.06017975
Na      25.24756583      17.53981530      70.83483526       4.57843501       5.94554812      -1.21089260
Na      21.54122305      17.92600387      64.27652180       0.20103563       0.23219041       0.14320677
Na      25.15719794      14.41667375      70.25895526       0.39299045       0.23464415      -0.47224102
Na      25.07297162      28.40652498      66.49498961       5.54635716     -10.99395220       0.50295617
Na      21.47358697      18.05381981      67.71591054       0.80354594       0.56380637       0.06062743
Na      21.40532104      28.50313821      67.66476981       0.78877320      -0.73415572       0.27815404
Na      25.16116224      17.88830946      63.82641401       1.16814022       1.82753738       1.88642762
Na      21.51089241      25.08903103      56.95976473       0.00855196       0.00747022       0.02237289
Na      25.09504035      21.47322879      63.26256744       4.13518506       3.43586006       6.24649580
Na      25.05179707      21.52882736      59.57712584       0.04774564      -0.00725157       0.10219699
Na      21.46895321      24.84544741      60.64078992       0.02752464      -0.03199804       0.10885391
Na      21.47090673      21.21725416      60.19978533       0.06482020       0.03903698       0.16893625
Na      25.08257013      25.37693830      56.55014729       0.00176636      -0.02567904       0.03281041
Na      21.52551884      25.02973759      64.48764793       0.65876663      -0.70597147       0.30727818
Na      24.12339018      20.52038475      70.73316758     -16.93147180     -15.63674878      18.62765959
Na      25.20286740      21.68928287      66.95926281       6.86161941      12.74036417       1.22380426
Na      21.64985775      24.65973697      68.13231693       6.89633997       1.05185152      -2.71820999
Na      21.02287966      21.62783639      67.75653371       2.57774349       0.65459723      -0.17656480
Na      25.20179427      24.97477685      64.13759063       9.60551172      -5.65668605      21.19227176
S       15.76828221      15.57281658      57.95426813      -0.00575260       0.00564646      -0.00272168
S       15.61418643      19.99280019      62.62104925      -0.04151064      -0.02643804      -0.00856741
S       19.94263854      20.21515062      57.82510891      -0.00568018       0.00486499       0.00001346
S       20.20101708      15.86101749      62.68870599      -0.00402429      -0.03584472      -0.04122270
S       19.33509243      16.65982574      58.81736881      -0.00656272       0.00431539       0.00657172
S       19.19789653      19.36223883      61.48989354       0.01892646      -0.01105423       0.03318897
S       16.32401098      19.15084407      58.90832398       0.00983333       0.00174686       0.00030461
S       16.66558968      16.43372919      61.59551299       0.00775495       0.00427916       0.01290540
S       15.87059160      15.61877160      65.29076239      -0.03711541      -0.01459538       0.03249405
S       14.52322070      21.25075374      70.53784857      -0.14755237       0.12482865       0.02470113
S       19.97687253      20.14728254      65.30371357       0.24065616       0.05219100      -0.90420192
S       21.28322495      14.38616081      70.52268508      -0.28427031      -0.30978043       0.22375830
S       19.32197087      16.69615098      66.70590393      -0.33775423      -0.07418635       0.16295245
S       19.38296251      19.38985322      69.42231305       0.93321015      -0.57921041       0.00217364
S       16.39772780      19.21686237      66.84554485       0.03175195      -0.02547662      -0.06953762
S       16.44609763      16.46254168      69.38293946       0.04263142       0.11696690       0.10505287
S       15.76454770      22.73111218      57.91348772      -0.00250125       0.00372762       0.00985077
S       15.58791276      27.08500465      62.83281842      -0.04763624       0.01682782      -0.04549705
S       19.94973540      27.38689187      57.84438011      -0.01549852       0.00657610      -0.00733150
S       20.24956444      23.02228074      62.72910658      -0.18102563      -0.73831712      -0.21181356
S       19.34561191      23.85235949      58.80309691      -0.01605055      -0.01573766      -0.00286348
S       19.20516458      26.51220391      61.51310084      -0.02809671      -0.01728084      -0.02044618
S       16.30846979      26.34567896      58.97215307      -0.01247527      -0.01364039      -0.00590627
S       16.67394896      23.55404290      61.54268052      -0.00520835      -0.00387664       0.00944933
S       15.77028758      22.78975989      65.26344634      -0.01478769      -0.02259792      -0.03826291
S       15.39922002      27.66627139      71.68736741       0.03715412       0.08582553      -0.14890244
S       19.98310386      27.27213933      65.25515130      -1.09240352       0.34319725      -0.13821936
S       20.83903033      22.75020802      70.40906084      -6.22157580      -2.25878408       5.01300882
S       19.28433558      23.83011997      66.42065612      -1.56464343       0.37346577      -0.19153283
S       19.26865997      26.61162362      68.95341093      -0.76841183       0.19661269      -0.05619123
S       16.29481466      26.39264738      66.62955473       0.05219414      -0.09238478       0.10268662
S       16.45367595      23.63563170      69.21978985      -0.10701951      -0.05608785       0.06982159
S       22.88977405      15.60098866      57.97626170      -0.00738789      -0.00060057       0.00466847
S       22.69416913      20.00117834      62.68051118      -0.96140007       0.43088877      -0.36148874
S       27.10131453      20.26991180      57.82009952       0.00662988      -0.02359746      -0.04369321
S       27.39583279      15.83617832      62.69368733       0.23420115      -0.41439519      -0.00788455
S       26.52895690      16.70097806      58.84626380      -0.01976994      -0.01982412      -0.00873954
S       26.34510375      19.40967753      61.51721887      -0.92517195      -0.92024263      -2.32726545
S       23.50009310      19.18300602      58.92965848      -0.03976959      -0.03003934      -0.03165213
S       23.84128290      16.45497401      61.59337613      -0.05971562      -0.12735505      -0.32465028
S       22.93171996      15.65070314      65.26586594      -0.43145209      -0.37184181      -0.34983999
S       23.39013018      19.00062037      72.54115947      -1.33012851       0.07728116       0.83696457
S       27.14531493      20.10119533      65.08220447     -12.84618778     -13.32875330      -4.45677892
S       27.61549620      15.94575313      70.96467164      -1.15757068      -0.48674153      -1.29563177
S       26.63369204      16.61169583      66.37751846       2.37062974      -1.88655062      -1.07673223
S       26.28103100      19.33389899      68.94895370      -5.84871076     -11.41798142     -24.46090987
S       23.54912590      19.16277984      66.38295921      -3.27381905      -3.18848698      -2.67015294
S       23.61656961      16.36096693      68.87594916      -1.14059436      -0.88265073      -0.27240450
S       22.87150971      22.73801588      57.99520476      -0.00464579       0.00461902      -0.02253689
S       22.79748854      27.04192795      62.76370494      -0.10331598       0.18851788      -0.71471330
S       27.11414979      27.43485001      57.84684816      -0.01417316       0.01075935      -0.06307076
S       27.34253963      23.02903829      62.56691444       1.75254830       0.79758155       4.67369304
S       26.50131817      23.88394158      58.82138074      -0.07199151       0.06502204      -0.18353079
S       26.33972459      26.59146885      61.49446032      -1.01732893       0.86177066      -4.01599808
S       23.48701740      26.34642786      58.96046224      -0.02266416      -0.00723134      -0.03159950
S       23.84328108      23.58574159      61.57561312      -1.21144852       0.13812247      -1.98223363
S       22.91460460      22.80431015      65.39730466     -11.29612862      -4.67886929     -10.27598916
S       22.20275965      27.81431739      71.25083922       3.41111409      -2.49173356      -0.79012771
S       27.13466110      27.47860508      65.22343603       1.23821172      13.76109022     -13.73309663
S       28.18852703      22.87933882      70.16063624     -52.73511790     -26.62954704     -42.09704222
S       26.96046415      23.70752678      66.31733323       6.60480735       4.31883127     -37.28001236
S       27.88062421      24.11108974      69.39512677     -49.35463990      39.71911389      82.78864000
S       23.39710827      26.47589060      67.03279326     -13.58801730       4.29707173      -1.96695911
S       24.50123099      23.61561831      69.52974710       8.76493249      38.53528676     -61.75698892
Sb      13.89091975      14.12693335      72.54005847      -0.15166195       0.01739954       0.01501008
Sb      17.87229549      17.89807830      60.18269127       0.02077074       0.02224937       0.02713232
Sb      14.38188027      28.63786694      64.14831067      -0.00633139       0.02069595      -0.06617182
Sb      17.90972415      17.93229684      68.16406658       0.07970950       0.06551820      -0.00232805
Sb      14.31109290      21.52805298      56.49378521       0.00135967       0.00065614       0.01887091
Sb      17.88055066      25.06775864      60.18852387       0.02097522       0.01221005       0.02632851
Sb      14.32690110      21.50380159      63.89595838       0.01554446       0.00609386      -0.01616923
Sb      17.82595320      25.05824267      67.84226227       0.23416646       0.11992080       0.30065443
Sb      21.46699177      28.68703509      56.57370849       0.00953390      -0.00565011       0.02718799
Sb      25.05287043      17.93810555      60.20130719      -0.01371918       0.01975295       0.00444070
Sb      21.49637018      14.32995046      63.93741999      -0.06020397      -0.10391759      -0.06484588
Sb      25.04717065      17.85014692      67.68523295      -0.16402966      -1.25892693       8.07340057
Sb      21.45927728      21.51550910      56.55085569       0.01705026       0.00877161       0.02041433
Sb      25.04693374      25.09468628      60.22651276      -0.00862001      -0.11941407       0.24016750
Sb      21.49976559      21.51194291      64.05260013       3.03411767       3.13862429       2.53275479
Sb      25.87686482      24.55157541      68.62272772      16.57937204     -36.47680644     -64.32401831
Na       0.08190872      -1.46206493      74.97044254      -9.13721337     -67.61859407      48.43299458
Na       2.01918961       2.29876534      75.58133213       0.47927327      -0.26864629      -0.89550298
Na       0.10997942      -0.12338190      77.85950203       0.34873934       2.11977848       2.07320713
Na       2.04110450       1.96271165      79.68743950      -0.15073569      -0.51678340      -0.00358097
Na      -0.01735814       0.00378315      81.82544793       0.06005743      -0.15134332      -0.42102159
Na       2.03685244       2.03868631      84.01580050       0.01051581      -0.12535787      -0.14184995
Na       0.00450166       0.01088958      86.14089578      -0.00161782       0.00037037      -0.01082750
Na       2.04559785       2.04677786      88.20823378      -0.00001065      -0.00071704       0.00175943
Na      -0.00147993       0.00212785      90.15394629       0.00030302       0.00020257       0.00805940
Na       2.04720055       2.04707220      92.11871407      -0.00040119      -0.00024897       0.01639438
Na      -0.00012990       0.00005953      94.22820643      -0.00013776       0.00002929       0.00445767
Na       2.04760741       2.04731452      96.07075813       0.00004052       0.00006150      -0.02612805
Na       0.58842354       4.66677153      73.35602871       0.09280424       4.34296574       3.51272821
Na       2.10746245       6.21407955      75.88234917       0.03210733       0.40427470      -0.10109367
Na       0.08152636       3.99356087      77.71394146      -0.05169162      -0.78473848       0.80711051
Na       1.95999718       6.32659339      79.73996382       0.06244877      -0.06605888       0.07077374
Na      -0.00369639       4.06063556      81.79085234       0.00912485      -0.16099965      -0.13953478
Na       2.04780388       6.11651110      84.04269613      -0.00012902       0.00673747      -0.03760020
Na       0.00669182       4.07904077      86.14374162      -0.00032882      -0.00044619       0.00075097
Na       2.04685252       6.13729920      88.20290831      -0.00047478       0.00145559      -0.00072944
Na       0.00012349       4.09373990      90.15325842       0.00050816      -0.00004671       0.00848422
Na       2.04659365       6.14206799      92.11777939      -0.00014206      -0.00002932       0.01634226
Na       0.00004292       4.09466410      94.22756788      -0.00002564      -0.00001505       0.00447241
Na       2.04741261       6.14158483      96.07065992       0.00006589      -0.00022231      -0.02611363
Na       0.33615773       7.86631202      72.69729424       0.40334162      -0.18745895      -1.10102796
Na       1.81371786      10.20139355      75.48972404      -0.50562727      -0.37116767      -0.24607847
Na       0.09444715       8.27515704      76.63054848      -0.15683715       0.92118052      -0.24262918
Na       2.01376066      10.28228959      79.55324002       0.06985294       0.07599009       0.14812272
Na      -0.02222447       8.28244799      82.03205504       0.00302566       0.03077554       0.02270369
Na       2.05806886      10.28931956      84.08149940       0.00408590       0.00791259      -0.03910062
Na       0.00302669       8.18165332      86.14402526       0.00103697       0.00302135      -0.00979752
Na       2.04834254      10.23385387      88.20242883      -0.00055342       0.00038223      -0.00179339
Na      -0.00046599       8.18714269      90.15033513       0.00045688       0.00044977       0.00709826
Na       2.04675075      10.23419186      92.11695284      -0.00019130      -0.00038474       0.01648785
Na       0.00002292       8.18913052      94.22736038      -0.00002545      -0.00009900       0.00484216
Na       2.04752898      10.23624424      96.07028726       0.00008919       0.00011864      -0.02612313
Na      -0.48230736      10.80745004      72.12209075       0.24182904       0.18754042       1.01334657
Na       1.91537491      14.14288631      75.07046069      -0.08341250      -0.45728797      -0.48667532
Na       0.02986444      12.49813540      77.41008038       0.01785331       0.17636247      -0.04678784
Na       2.09624675      14.30342804      79.66193346      -0.18717151       0.38832867      -0.09950894
Na      -0.02750117      12.29503564      81.89528637       0.00845160      -0.00469475      -0.04950676
Na       2.05248362      14.32669057      84.02532240       0.00320717       0.00949068      -0.02848077
Na       0.00574849      12.29980485      86.15096980       0.00092931       0.00469553       0.00085815
Na       2.04796860      14.32594452      88.21222958      -0.00007596      -0.00139274       0.00636995
Na      -0.00012633      12.28095187      90.15282611       0.00060838      -0.00133892       0.00901299
Na       2.04673038      14.33072196      92.11788539      -0.00026719      -0.00014938       0.01645021
Na       0.00003921      12.28284642      94.22673931      -0.00009007      -0.00011283       0.00446576
Na       2.04768356      14.33039788      96.06998613       0.00008844       0.00009037      -0.02632253
Na      -0.07641855      18.08125768      73.38594729      -1.56271212      97.77783752      26.92954260
Na       1.29840388      19.99537266      74.87175960     -41.12129182      89.02786264      -3.53160782
Na       0.03810219      16.18076255      77.31353305       0.02274873      -0.20022381       0.58406589
Na       2.09338165      18.44932885      79.57078359       0.86175494       0.07264702       1.19836404
Na       0.00829480      16.36488493      81.83910389       0.04581663       0.13648034      -0.58982594
Na       2.06784187      18.38308973      84.10566314       0.01873120       0.43123904      -0.75863359
Na       0.00957379      16.35138203      86.16005540      -0.00239899      -0.00299904      -0.00730909
Na       2.05010238      18.42270268      88.20313862      -0.00010163       0.00012051       0.00404285
Na      -0.00024106      16.37982492      90.15342057       0.00096421       0.00038573       0.00783551
Na       2.04736130      18.42580942      92.11779892      -0.00012858       0.00021199       0.01523542
Na      -0.00007409      16.37801758      94.22719531      -0.00007338       0.00011896       0.00439101
Na       2.04774768      18.42499307      96.06981265       0.00020012      -0.00012820      -0.02599395
Na       0.05150803      22.12073175      72.21243829      -3.85909606     -43.27412902      81.79253468
Na       1.73926721      22.67201803      75.62746338     -29.55080809      -9.24359608     -70.29604214
Na      -0.06969709      21.38857152      75.80470338     -30.32500205      65.02975996     -24.58399258
Na       2.06274232      22.32922479      79.88547537       5.96768936      -1.71782300      10.28560323
Na       0.01919011      20.41980806      82.06205652       0.59441997       0.35315764       0.42531310
Na       2.05306807      22.51740255      83.98839727      -0.01201321      -0.10052987      -2.28217794
Na       0.01248894      20.47866170      86.15411467      -0.00099094       0.01195811      -0.01218395
Na       2.04480621      22.52692810      88.20824065      -0.00118243      -0.00051014      -0.00190742
Na       0.00024730      20.47200103      90.15105918       0.00051236       0.00041648       0.00593172
Na       2.04572948      22.51905851      92.11762519      -0.00067282       0.00056874       0.01521799
Na       0.00005585      20.47220469      94.22738654      -0.00011738       0.00003145       0.00444454
Na       2.04738723      22.51973803      96.07032648       0.00015810       0.00008343      -0.02565984
Na      -0.07173535      24.21866990      72.67139700      30.36079064     -39.21378524     109.05442525
Na       1.70509101      25.27773611      75.61023186     -32.42404237     -58.56000002      34.78029479
Na      -0.00330798      24.19132603      76.35751139      -5.69248813     -67.36228391     -31.60684716
Na       2.20337287      26.64061559      79.90750932       2.12649375       1.04160269       3.72571294
Na       0.03449134      24.52381566      81.88224921       0.37351276      -0.43588886       1.53241615
Na       2.04434606      26.64578654      84.01982969       0.04849826       0.00818957      -0.62269321
Na       0.01317887      24.58293851      86.13630092      -0.00038433      -0.01532031      -0.02670486
Na       2.04287357      26.62070377      88.20688289       0.00076351       0.00012228       0.00216408
Na      -0.00139554      24.56813691      90.15241238       0.00078180       0.00010545       0.00824379
Na       2.04575290      26.61529057      92.11836097      -0.00059518       0.00005750       0.01541207
Na      -0.00014086      24.56668116      94.22721660      -0.00007734       0.00007143       0.00379879
Na       2.04748441      26.61392430      96.07068095       0.00006125      -0.00000159      -0.02608325
Na       4.50495923       0.24011621      73.87994759      -1.10470839      -1.52000597       5.25454563
Na       6.47327792       2.29105603      75.79061547      -0.76584658      -1.54439543      -0.87313539
Na       4.18550486      -0.10210931      77.50916894       1.30536978       1.34174346       0.27004674
Na       6.34789331       1.87957587      79.59408127      -0.30779402      -0.31356900      -0.12728509
Na       4.14752158       0.03227292      81.85275235      -0.26067846      -0.42800318      -0.72724220
Na       6.12832508       2.06120994      84.06434353       0.00448808      -0.00223874      -0.01636922
Na       4.08053022       0.00825497      86.14556174       0.00337052       0.00074845      -0.00859363
Na       6.13326096       2.04940777      88.20410409       0.00094017      -0.00093616       0.00097800
Na       4.09398382       0.00110932      90.15383116      -0.00075262      -0.00016151       0.00713508
Na       6.14221962       2.04637011      92.11717713       0.00004478       0.00005566       0.01690115
Na       4.09478589      -0.00011656      94.22688572      -0.00014282       0.00005534       0.00488759
Na       6.14115106       2.04688763      96.07059483      -0.00007320       0.00009460      -0.02610895
Na       4.19848252       3.74500097      73.52597881       0.20320609      -1.02676351      -0.41005339
Na       6.16345555       6.05616970      75.54724671      -0.02190414      -0.09543379       0.00433843
Na       4.19595131       4.12771220      77.79670454       0.16806290      -0.16245640       0.58232026
Na       6.22528738       6.33208221      79.89977980      -0.01356389       0.03745864      -0.00347321
Na       4.10700619       4.06791736      81.81099001      -0.00196672      -0.00297362       0.00323052
Na       6.14730518       6.12455172      84.03119759      -0.00105282       0.00494502      -0.02317757
Na       4.08075909       4.08507525      86.14404182       0.00117407       0.00076869      -0.00172612
Na       6.13711265       6.13613771      88.19740773       0.00054726       0.00090279      -0.00086572
Na       4.09353224       4.09380556      90.15389996      -0.00078278       0.00054429       0.00763209
Na       6.14238933       6.14093207      92.11673921       0.00011110      -0.00003759       0.01646519
Na       4.09482607       4.09448166      94.22683073      -0.00003773       0.00007659       0.00471101
Na       6.14089560       6.14146552      96.07090625      -0.00002285      -0.00022792      -0.02622576
Na       4.26219089       8.32671926      73.75374279      -0.51614464       0.26972195       0.17668494
Na       6.53713884      10.35649934      75.23046798       0.02911665       0.00903028      -0.12501570
Na       4.40907036       8.39587053      77.56785909       0.05558563       0.03679084       0.02283575
Na       6.24680825      10.39522646      79.69275711      -0.01656917       0.00052485       0.01771900
Na       4.09498463       8.28110998      81.89530841      -0.01703392       0.04033981      -0.01551326
Na       6.14625270      10.27469245      84.07030170       0.00105640       0.00519739      -0.01283105
Na       4.09419739       8.18262524      86.13506332       0.00067260       0.00176945      -0.00591486
Na       6.13995478      10.23387825      88.19829435      -0.00008024       0.00000487      -0.00082638
Na       4.09510063       8.18648516      90.15085919      -0.00044588       0.00006895       0.00577581
Na       6.14227995      10.23406550      92.11679310       0.00001385      -0.00047118       0.01666773
Na       4.09463744       8.18874692      94.22673179      -0.00005285      -0.00024221       0.00490658
Na       6.14086397      10.23621202      96.07064566      -0.00007277       0.00008613      -0.02629685
Na       3.69347276      11.50204007      71.95633151       0.43745321      -0.14422799      -0.07293118
Na       6.53033432      14.07247910      75.30019282       0.02383734       0.24526328       0.10151566
Na       4.25422122      12.40289822      77.34807799      -0.06921831       0.09905250      -0.01402896
Na       6.32258534      14.43199525      79.53573352      -0.09350841       0.14824383      -0.13264164
Na       4.12682341      12.32299956      81.85420716      -0.02186792       0.00109327      -0.03138426
Na       6.13512484      14.33717705      84.05167458       0.00163842       0.00851056      -0.01838777
Na       4.09169322      12.29810064      86.15674413       0.00460618       0.00506711      -0.00025607
Na       6.14013694      14.32408048      88.21022245       0.00121594       0.00027921       0.00394890
Na       4.09493508      12.28075809      90.15514932      -0.00030905      -0.00126620       0.00767027
Na       6.14284712      14.33046770      92.11834673       0.00016232      -0.00030145       0.01671709
Na       4.09462087      12.28264570      94.22610726      -0.00015722      -0.00006792       0.00457954
Na       6.14098491      14.33026492      96.07018251      -0.00003423       0.00004511      -0.02642545
Na       5.26634180      16.16893879      73.11854351      -1.82634791       3.01712737      -0.13538783
Na       6.30964649      18.41675003      75.55310246       0.73058212      -1.09447106      -0.25198611
Na       4.17432759      16.15921855      77.18753420      -0.28655684       0.76843251       0.17953862
Na       6.32277745      18.33895041      79.46329754      -0.79953710       0.93482332      -0.32027294
Na       4.12847032      16.39554516      81.81477580      -0.14774173       0.12248273      -0.15297000
Na       6.12647661      18.39829551      84.10579330      -0.00816243       0.00497005      -0.02763269
Na       4.09384084      16.34910481      86.16597418       0.00149038      -0.00410979       0.00381092
Na       6.13631831      18.42745436      88.19936440      -0.00008268      -0.00058486       0.00132706
Na       4.09645702      16.37766487      90.15466223      -0.00112743       0.00004076       0.00725566
Na       6.14248296      18.42686812      92.11637001      -0.00002231       0.00028292       0.01663318
Na       4.09499081      16.37811429      94.22631521      -0.00002536      -0.00000010       0.00456464
Na       6.14092496      18.42504758      96.07000832      -0.00007907       0.00000160      -0.02626752
Na       3.20446996      20.86922464      73.66670173     -83.02205269      30.37958667      91.35573355
Na       5.94191481      22.92196951      75.10098818      -2.52602446      -1.80056817       8.92484290
Na       4.62743718      20.62361573      77.60928753       4.89873673       0.78132679       1.77889181
Na       6.19672052      22.38865013      80.00201871      -1.34602314      -0.08479570       1.22246671
Na       4.07724181      20.40101816      81.85013836      -0.46281795       0.69334428      -1.91660992
Na       6.14134593      22.51078701      84.04887058      -0.33480619      -0.02677333      -0.37622761
Na       4.08979816      20.48534037      86.15463442      -0.00687646       0.00610772      -0.01601152
Na       6.13650937      22.52804572      88.20223982      -0.00026062      -0.00054247       0.00160508
Na       4.09299985      20.47419124      90.15158520      -0.00098938       0.00075439       0.00583865
Na       6.14201553      22.52033654      92.11528236       0.00024490       0.00019345       0.01659965
Na       4.09486742      20.47285796      94.22637798      -0.00002837       0.00012358       0.00482513
Na       6.14083840      22.52004071      96.07054764      -0.00004998       0.00004007      -0.02622090
Na       3.33304731      24.54817882      72.59374489      45.60967422      -1.96261847     -13.12804364
Na       6.26133616      26.32359293      75.47470280      -4.66825818      -1.36178250      -3.00865620
Na       4.36231435      24.54042713      77.74967635      -1.05826901      -0.84090432     -10.03460115
Na       6.29598942      26.68834147      79.65475033      -0.37586700      -0.43127647       0.03058864
Na       4.07881600      24.51146938      81.87251083       0.10147612      -0.79078805      -1.75136874
Na       6.12326296      26.61293301      84.05075443      -0.15732804      -0.00132831      -0.20037974
Na       4.07953048      24.57472784      86.14380146      -0.00577165      -0.00848536      -0.01411001
Na       6.13194939      26.61446990      88.20299284       0.00058076       0.00089760       0.00052546
Na       4.09086387      24.56940817      90.15406300      -0.00080854       0.00003202       0.00705229
Na       6.14184987      26.61505574      92.11681965      -0.00004426       0.00024586       0.01661647
Na       4.09456030      24.56685041      94.22651772      -0.00006525       0.00005332       0.00450485
Na       6.14112462      26.61426993      96.07058574      -0.00009901      -0.00004588      -0.02615792
Na       8.06415001      -0.07132456      72.82859212      -2.90731978      -1.10366233      -0.23454020
Na       9.83323084       2.33448003      75.74413977      -0.05813997      -0.13935656      -0.00706330
Na       8.41157035      -0.25165954      76.93445103       0.96811587       0.56744433       0.79243623
Na      10.13833626       1.96706052      79.51128692      -0.00287809      -0.01431919      -0.00530237
Na       8.23841762       0.01598375      81.97400443       0.00054232      -0.02367621       0.00576996
Na      10.27214658       2.04576393      84.08050575       0.00540061       0.00197457      -0.01370999
Na       8.17433938       0.00328939      86.15224594       0.00412547      -0.00109869      -0.00558257
Na      10.23435705       2.04781898      88.20201583      -0.00130578      -0.00117008       0.00278372
Na       8.18719423       0.00058234      90.14784923      -0.00068948      -0.00050609       0.00729797
Na      10.23489529       2.04703073      92.11746546      -0.00047082       0.00001710       0.01641959
Na       8.18849967      -0.00010756      94.22712810       0.00008448       0.00005092       0.00496173
Na      10.23614571       2.04702334      96.07026568       0.00014258       0.00012072      -0.02620794
Na       8.25016612       3.87142168      72.95017357      -0.15255911      -0.06584219      -0.16143088
Na       9.78699511       6.35318769      75.12403384       0.00328401      -0.02171314       0.07777375
Na       8.17324693       4.48056423      77.84354732       0.05485089       0.01130310      -0.00464114
Na      10.32460149       6.27152025      79.76252896      -0.00261740       0.02766706       0.02398545
Na       8.24604935       4.05218242      81.85021804      -0.00553681       0.00553503      -0.00290321
Na      10.25772438       6.11796245      84.04763187      -0.00068963      -0.00489330      -0.01575907
Na       8.18257194       4.08694840      86.14305416       0.00437037       0.00343178      -0.00116587
Na      10.23020661       6.13731545      88.19963952      -0.00114528      -0.00021834       0.00217754
Na       8.18710816       4.09205981      90.14964167      -0.00070317       0.00031762       0.00812688
Na      10.23407655       6.14126921      92.11731716      -0.00036992      -0.00007224       0.01642024
Na       8.18829828       4.09425227      94.22775648       0.00006526       0.00000278       0.00478318
Na      10.23620314       6.14144775      96.07051357       0.00011883      -0.00024191      -0.02627053
Na       8.23031747       7.77645950      72.23086321      -0.11881852       0.03283332      -0.00142781
Na      10.27691567      10.34237814      74.86486493       0.05773779      -0.01191904       0.01632981
Na       8.22282558       8.34864824      77.51361538       0.03532594      -0.00369602       0.01025616
Na      10.32881160      10.21687599      79.76541488      -0.01801492      -0.00553211       0.00061258
Na       8.24983052       8.26342042      81.96678641      -0.00582809       0.01040600       0.00022489
Na      10.25833183      10.27346168      84.09214598       0.00564984       0.00683316      -0.00890956
Na       8.18426313       8.18366980      86.13401051       0.00410236      -0.00008149      -0.00541131
Na      10.23022334      10.23491564      88.19669002      -0.00077394      -0.00093538       0.00133567
Na       8.18761590       8.18657118      90.14751721      -0.00100363      -0.00035322       0.00637330
Na      10.23436486      10.23415848      92.11709706      -0.00040856      -0.00071128       0.01664440
Na       8.18823026       8.18867320      94.22805516       0.00004673      -0.00027553       0.00495751
Na      10.23614139      10.23608707      96.07030274       0.00008918       0.00005926      -0.02628940
Na       7.74103316      11.27688027      71.33598786      -0.21265804       0.00418730       0.20479162
Na      10.29876060      14.04661432      74.66895816       0.11332962      -0.02376770      -0.05740071
Na       8.43465035      12.25050616      77.44339508      -0.02514275       0.00410493      -0.00777824
Na      10.26692606      14.40433866      79.74015774      -0.01927459       0.02082369      -0.01234235
Na       8.24899401      12.33727980      81.92159463      -0.00782950       0.00414722       0.00693310
Na      10.25592379      14.34567833      84.07444871       0.00739261       0.00544417      -0.01135033
Na       8.18146042      12.29701519      86.14691155       0.00323642       0.00398468      -0.00058917
Na      10.22723062      14.32716623      88.20637573      -0.00243240       0.00009227       0.00735319
Na       8.18795605      12.28054161      90.15223484      -0.00046698      -0.00165801       0.00866397
Na      10.23449467      14.33058566      92.11810603      -0.00093778      -0.00011938       0.01671370
Na       8.18841184      12.28255071      94.22754985       0.00006845      -0.00015296       0.00477369
Na      10.23619791      14.33032802      96.06984535       0.00004455       0.00009332      -0.02646284
Na       8.41126813      16.80065610      71.89914220       0.07916801       0.29865744       0.02804743
Na       9.87179215      18.81616729      75.01730256      -0.19353076       0.05830203      -0.12954812
Na       8.54660105      16.35402862      77.09726814      -0.34657189       0.26528464      -0.08608671
Na      10.30041173      18.53111768      79.50700451      -0.11354019      -0.00142549      -0.15554778
Na       8.23614145      16.40798870      81.92743168      -0.01071686       0.01311937      -0.00819225
Na      10.26318803      18.38956601      84.12484176       0.00769706      -0.00288805       0.00017812
Na       8.17502639      16.36158479      86.15589370       0.00365357      -0.00254728       0.00168274
Na      10.23090705      18.42447447      88.19719102      -0.00056830       0.00114658       0.00391826
Na       8.18709021      16.37903635      90.15013029      -0.00103476       0.00092571       0.00887673
Na      10.23442277      18.42571577      92.11698226      -0.00081706       0.00042117       0.01642039
Na       8.18845243      16.37827200      94.22761698      -0.00002875       0.00019332       0.00460247
Na      10.23627298      18.42517372      96.06982352       0.00006574      -0.00007757      -0.02641171
Na       7.65256466      21.04807023      72.54494541      -0.26684795      -1.23147273       1.26284779
Na       9.88729733      22.43919556      74.78534029      -4.21603090       1.20764202      -0.19200779
Na       8.21757399      20.69570874      77.39464938      -0.65369429       0.33664858      -0.02730531
Na      10.41274345      22.37115245      79.72753487      -0.01353014       0.01127043      -0.00610538
Na       8.24032537      20.36057010      81.99439672      -0.47261876       0.03979012      -0.60113264
Na      10.25745036      22.52120078      84.05898330       0.00202204      -0.00454967      -0.01989982
Na       8.18180237      20.47928028      86.14619396       0.00517989      -0.00181797      -0.00165365
Na      10.23013101      22.52778956      88.20003162       0.00031392       0.00052004       0.00348172
Na       8.18793117      20.47360517      90.14671919      -0.00084376       0.00072389       0.00749134
Na      10.23423799      22.51996935      92.11667962      -0.00062411       0.00026256       0.01598568
Na       8.18833990      20.47294968      94.22760764       0.00010257       0.00013841       0.00472723
Na      10.23649340      22.51998188      96.07049063       0.00008891       0.00004351      -0.02651345
Na       7.57455679      24.90549278      71.57256738       2.91470242       6.43719233       2.85307013
Na       9.88669236      25.80821026      75.24747695      -2.79022987      -1.53757385      -0.23973243
Na       8.17188663      24.24279834      77.64603126       0.17597794      -0.86186014      -0.01447899
Na      10.19688567      26.62002167      79.61020426      -0.09877614      -0.02903957      -0.11337180
Na       8.24125512      24.57191430      81.92251125      -0.64587236      -0.01215396      -0.70447519
Na      10.26852742      26.61842375      84.07678163       0.01095614       0.00063950      -0.01128136
Na       8.17858344      24.57130470      86.13667474       0.00424809      -0.00131135      -0.00228754
Na      10.23545928      26.61438172      88.19840744      -0.00121162       0.00023985       0.00248854
Na       8.18748772      24.57092510      90.14942649      -0.00047623       0.00048853       0.00809632
Na      10.23521532      26.61541279      92.11762479      -0.00078042       0.00019024       0.01609131
Na       8.18840916      24.56698654      94.22758543       0.00007860       0.00003352       0.00445818
Na      10.23624741      26.61414772      96.07044038       0.00012481       0.00000023      -0.02635538
Na      11.27592820      -0.17726190      74.27255152       0.19894544       0.53306181       0.66591926
Na      14.56261388       2.03337560      75.47753798      -0.02052326       0.05892590      -0.00219214
Na      12.31003158      -0.05453515      77.49646109       0.00843075      -0.01737232      -0.02418933
Na      14.35984983       1.97845851      79.50007973       0.02458332      -0.02778760      -0.00210733
Na      12.30956878       0.00780848      81.81343526      -0.00395832      -0.00331452      -0.00865063
Na      14.32001554       2.03641542      84.05657988       0.00135968       0.00186948      -0.01182324
Na      12.28955378       0.00449727      86.15990793       0.00241586       0.00018686       0.00297306
Na      14.32950930       2.05008691      88.20966819       0.00013713       0.00030906       0.00318260
Na      12.28223240       0.00148715      90.15344705      -0.00123669      -0.00012754       0.00765403
Na      14.33064446       2.04691289      92.11846666      -0.00016241       0.00038616       0.01640495
Na      12.28332542      -0.00008950      94.22712927      -0.00010762       0.00008849       0.00467548
Na      14.33052023       2.04722450      96.07038489      -0.00012390       0.00011902      -0.02628007
Na      12.10379900       4.09153014      74.02049974       0.02170106      -0.06130311      -0.04883161
Na      14.67565891       6.21767050      75.45784331      -0.03705492       0.00183409       0.08502707
Na      12.31543010       4.12918327      77.44457375      -0.00863824       0.02412549       0.03597136
Na      14.35307552       6.31728486      79.59048782       0.01873194       0.01751392      -0.01085726
Na      12.32168751       4.03696605      81.81529248      -0.00502572      -0.00317728      -0.01059916
Na      14.32336200       6.10060889      84.07561325       0.00252811      -0.00533757      -0.00931437
Na      12.28959652       4.08961274      86.16009351      -0.00069254      -0.00111399       0.00495256
Na      14.33092355       6.14011843      88.20701909       0.00013578      -0.00029505       0.00249394
Na      12.28244766       4.09593225      90.15309366      -0.00144784      -0.00025891       0.00881978
Na      14.33086934       6.14309278      92.11809755      -0.00042859      -0.00024875       0.01654846
Na      12.28320439       4.09467357      94.22681885      -0.00014598       0.00001893       0.00454366
Na      14.33043711       6.14188719      96.07036472      -0.00015132      -0.00025320      -0.02625608
Na      12.43600239       7.52926646      73.39107631       0.02711403       0.05760140       0.04151396
Na      14.31822276      10.25385461      75.63329786      -0.00303939       0.02785778      -0.14541714
Na      12.07879985       8.24553231      77.21443989      -0.02149535      -0.03242878       0.01797480
Na      14.34073324      10.19319976      79.42886216       0.02425771      -0.00941591      -0.03011926
Na      12.34205058       8.23576195      81.98800904      -0.00150952      -0.00027534       0.00118364
Na      14.31865514      10.27790717      84.15858728       0.00677230       0.01070771      -0.00550342
Na      12.28047263       8.17487032      86.15685708      -0.00064413      -0.00092137      -0.00270263
Na      14.32984172      10.23389331      88.20529618       0.00011885       0.00089328       0.00024467
Na      12.28063034       8.18736102      90.15045277      -0.00115054       0.00023618       0.00728728
Na      14.33082890      10.23468457      92.11713780      -0.00030169      -0.00057181       0.01640471
Na      12.28294739       8.18898046      94.22686740      -0.00014223      -0.00020430       0.00490005
Na      14.33057214      10.23621020      96.06980462      -0.00007611       0.00006606      -0.02623616
Na      13.10403859      10.86469252      71.55699284      -0.03777040       0.19042436       0.08345192
Na      14.49144343      14.26521334      75.45477133       0.00105870       0.03174670       0.12061619
Na      12.12773819      12.35297342      77.30059869      -0.02105531       0.04128581       0.04816699
Na      14.37912574      14.43392054      79.30328742       0.02100337       0.02270758      -0.00984221
Na      12.34212842      12.32681853      81.90964021       0.00591856       0.00884370       0.01272788
Na      14.31518008      14.33786774      84.10874159       0.00256043       0.00449039       0.00041856
Na      12.27354917      12.29930553      86.17108180      -0.00204601       0.00416634       0.00853782
Na      14.32946404      14.32500054      88.21911920       0.00020548      -0.00022361       0.00380592
Na      12.27977326      12.28046745      90.15468705      -0.00126477      -0.00093363       0.00851268
Na      14.33082685      14.33062994      92.11823374      -0.00025832      -0.00047238       0.01678258
Na      12.28307004      12.28269536      94.22653995      -0.00005184      -0.00009514       0.00451699
Na      14.33064239      14.33046330      96.06940742      -0.00012609       0.00007899      -0.02626978
Na      12.42854361      16.96357554      73.81469095       0.10796289       0.04414718       0.01601617
Na      14.47147252      18.42554066      75.80006315      -0.00417082      -0.04090156       0.07102907
Na      12.05995061      16.33954592      77.25410819      -0.00044248      -0.01947136       0.02485195
Na      14.34233948      18.47670028      79.33365635       0.00852135       0.00246366       0.03529216
Na      12.31878668      16.40326553      81.86162412       0.00294296       0.00294965      -0.00964673
Na      14.30829845      18.38040984      84.16871057      -0.00024100      -0.00516926       0.00766303
Na      12.27801657      16.35686372      86.18481014      -0.00160745      -0.00444532       0.01068513
Na      14.32912298      18.42259488      88.21119830       0.00002645       0.00030887       0.00150364
Na      12.27997694      16.37733528      90.15446907      -0.00175175      -0.00018560       0.00948681
Na      14.33052635      18.42527475      92.11735064      -0.00038477       0.00039508       0.01675656
Na      12.28311192      16.37811376      94.22661742      -0.00015666       0.00005800       0.00469968
Na      14.33061798      18.42513146      96.06941987      -0.00014349      -0.00006289      -0.02613497
Na      12.42494485      20.59974267      72.42150512      -0.34176769      -0.00549638      -0.01259135
Na      13.83055227      22.97425041      74.74452684       0.04888707       0.04602992      -0.11326522
Na      12.30621225      20.46306641      76.59975565       0.02812949       0.00484100       0.06282420
Na      14.26155679      22.35047424      79.60382821       0.00342169       0.00270996      -0.00164012
Na      12.32313322      20.38303342      81.94834754      -0.00066141       0.00124125       0.01877234
Na      14.31724826      22.52980247      84.05473392      -0.00238175      -0.00601385      -0.00706464
Na      12.28766174      20.48818391      86.16678077      -0.00189491       0.00065246       0.00422108
Na      14.33019179      22.52554956      88.21664802      -0.00072235      -0.00092633       0.00194191
Na      12.28001706      20.47262664      90.15135671      -0.00185655       0.00067756       0.00792839
Na      14.33058095      22.51861391      92.11852535      -0.00024221       0.00042819       0.01613169
Na      12.28282923      20.47244696      94.22662522      -0.00017053       0.00005507       0.00467653
Na      14.33050906      22.51960082      96.07039888      -0.00012122       0.00007376      -0.02642944
Na      11.74714425      24.67046092      71.73130749       2.39879132      -0.26711977       0.70872954
Na      14.22306287      26.56001362      75.11025315      -0.02690439       0.01447051      -0.05229283
Na      12.21352076      24.50078374      77.41780194      -0.07690240       0.05321504      -0.00913817
Na      14.35555553      26.59501886      79.55089610      -0.00966889       0.01022129      -0.00501063
Na      12.32443896      24.58043780      81.83565147      -0.00264834      -0.00412563      -0.00886347
Na      14.31414082      26.64233085      84.05737789       0.00018219      -0.00035975      -0.01350900
Na      12.29390985      24.56872460      86.15237336       0.00105021       0.00001891       0.00492150
Na      14.32978841      26.61741487      88.20996919      -0.00003171      -0.00068582       0.00247337
Na      12.28250663      24.56845928      90.15424327      -0.00194805       0.00058699       0.00809857
Na      14.33113303      26.61505429      92.11799713      -0.00026631       0.00014460       0.01674361
Na      12.28323246      24.56677090      94.22679053      -0.00023824       0.00008563       0.00442073
Na      14.33059416      26.61367936      96.07043541      -0.00015357      -0.00001652      -0.02622300
Na      17.09622110      -0.11134555      73.42842949       0.01777387       0.06712859       0.09375980
Na      18.42604969       2.42164275      75.32000208       0.02105027      -0.01556476      -0.01893436
Na      16.46521104      -0.16766612      77.21262261       0.00374852      -0.05637903       0.00148669
Na      18.49333791       1.91737989      79.58077813      -0.00470641       0.00237434      -0.00026070
Na      16.32756685       0.02300135      81.86809441      -0.00079319       0.00040338       0.00948219
Na      18.38984324       2.05612545      84.07263436      -0.00970359       0.00186274      -0.01239615
Na      16.36047235       0.00981649      86.16123748      -0.00043213       0.00013893       0.00010474
Na      18.42379181       2.05097810      88.19667262       0.00193268      -0.00001399       0.00105118
Na      16.37953690       0.00111506      90.15332840       0.00113319       0.00044745       0.00674811
Na      18.42545471       2.04701718      92.11762314       0.00115106       0.00005064       0.01571702
Na      16.37798194      -0.00027499      94.22698480       0.00023190       0.00010645       0.00469470
Na      18.42472826       2.04705291      96.07045466      -0.00004072       0.00012813      -0.02634166
Na      15.33499236       3.67060782      71.26421381       0.15841136       0.05492353       0.22561908
Na      18.39054101       6.56859841      74.97754210       0.02504607      -0.00503613      -0.00291058
Na      16.48556757       4.17000006      77.61269936       0.03365053       0.00601208       0.01214802
Na      18.29973134       6.35727432      79.81659359      -0.00315420       0.01424183      -0.03638191
Na      16.33450552       4.05480829      81.81069993       0.00736409       0.00218626       0.00263648
Na      18.39587874       6.13009201      84.04225054      -0.00512223      -0.00075543      -0.01294453
Na      16.36438531       4.09162836      86.14549800       0.00270017      -0.00231638       0.00469615
Na      18.42671915       6.13628877      88.19442883       0.00077772       0.00008002       0.00036937
Na      16.37757147       4.09542634      90.15340039       0.00161907      -0.00020195       0.00760157
Na      18.42619839       6.14101093      92.11692954       0.00077653      -0.00028679       0.01625010
Na      16.37789748       4.09477789      94.22710269       0.00012854      -0.00000919       0.00446325
Na      18.42470135       6.14147201      96.07074864       0.00003279      -0.00020130      -0.02632162
Na      16.05643508       8.43467936      72.45284038       0.24480590       0.00887770      -0.02090363
Na      18.35632794      10.29585658      75.25923176      -0.01884430      -0.01577303      -0.08787940
Na      16.48955241       8.36965670      76.94376113      -0.04707363       0.04768690      -0.19765126
Na      18.34853607      10.19785657      79.68585462      -0.02302141      -0.00997258      -0.04228019
Na      16.27674806       8.24675566      81.99018477       0.01182644       0.01251265       0.02492279
Na      18.39534145      10.27504814      84.09587392      -0.00987394       0.00972126      -0.00460333
Na      16.37123210       8.17469929      86.15237104       0.00119224       0.00097382      -0.00263316
Na      18.42615764      10.23284095      88.19374865       0.00114443       0.00081565      -0.00179220
Na      16.38011478       8.18677511      90.15173831       0.00094062       0.00034728       0.00632078
Na      18.42645893      10.23392691      92.11762381       0.00076294      -0.00052462       0.01612817
Na      16.37839733       8.18883940      94.22707022       0.00011906      -0.00013052       0.00480827
Na      18.42501792      10.23620371      96.07043481       0.00001557       0.00006576      -0.02636549
Na      16.47238765      11.98902473      73.03481031      -0.10615644       0.06135107       0.18606611
Na      18.11500045      14.42125871      74.91415653       0.11810832      -0.01491947       0.08395828
Na      16.50477312      12.26557161      77.28461562       0.01364545       0.03452129       0.01791182
Na      18.34857548      14.44511668      79.57103024      -0.00782042       0.01692834      -0.01569096
Na      16.30387164      12.33415233      81.86219196       0.00631981       0.00678759       0.00185250
Na      18.40492784      14.32999137      84.06718004      -0.00836871      -0.00221034      -0.00176136
Na      16.37471358      12.29984102      86.16622310       0.00282483       0.00515784       0.00714607
Na      18.42943535      14.32758691      88.20578536       0.00270865      -0.00039104       0.00288369
Na      16.38066872      12.28084652      90.15623364       0.00095241      -0.00125876       0.00733405
Na      18.42655402      14.33089003      92.11835491       0.00118334      -0.00028486       0.01616535
Na      16.37819209      12.28282041      94.22669246       0.00019946      -0.00012308       0.00437260
Na      18.42494040      14.33055788      96.07002087       0.00005105       0.00004632      -0.02645564
Na      15.97173319      16.74996061      72.32995438      -0.00956470      -0.10736932       0.05661467
Na      18.24811816      18.49920731      75.06824291       0.13176952       0.01763570       0.19179008
Na      16.47991340      16.42796955      76.86905442       0.01674145       0.06453005      -0.15989275
Na      18.20533346      18.36107933      79.42717323      -0.01647700       0.01592159      -0.02922030
Na      16.29666387      16.36836176      81.91750081       0.00574126      -0.00188799      -0.00256899
Na      18.38226575      18.39148733      84.12173336      -0.00758253      -0.00423640       0.00255839
Na      16.37066222      16.35687087      86.17646623       0.00416932      -0.00532744       0.00712323
Na      18.42504533      18.42734769      88.19821155      -0.00012490      -0.00009626       0.00014258
Na      16.38060148      16.37826267      90.15528955       0.00092733      -0.00056005       0.00826496
Na      18.42609298      18.42653969      92.11782661       0.00098221       0.00055745       0.01619512
Na      16.37810332      16.37813414      94.22640309       0.00018853       0.00007586       0.00473981
Na      18.42473511      18.42505552      96.07004032       0.00002088      -0.00004542      -0.02628040
Na      15.39513900      20.42490222      72.94929269      -0.00433763      -0.28573727       0.03951058
Na      18.45817736      22.32647894      74.83508349       0.54091176       0.15555772       0.02735778
Na      16.46840167      20.66956500      77.07083952      -0.03075712      -0.00332152      -0.06308633
Na      18.23902374      22.31516633      79.82020048      -0.03159382       0.01258922       0.00760828
Na      16.26357979      20.35967664      81.95392848       0.00148919       0.00309190      -0.00890624
Na      18.38657017      22.50306280      84.04789856       0.00165278      -0.00247435      -0.01709602
Na      16.35833691      20.48187070      86.16082361       0.00135469       0.00199336       0.00259293
Na      18.42709777      22.52381604      88.19669545      -0.00022410      -0.00073465      -0.00071884
Na      16.37939674      20.47282239      90.15321652       0.00107536       0.00067148       0.00702777
Na      18.42684889      22.51981222      92.11708106       0.00083375       0.00021156       0.01561899
Na      16.37809413      20.47251671      94.22685619       0.00023087       0.00007216       0.00475261
Na      18.42450152      22.51984449      96.07063554       0.00001113       0.00004749      -0.02644169
Na      15.82218579      25.02756000      71.67844214      -0.00125409      -0.03796711      -0.01626731
Na      18.46769743      25.99106246      75.21305510       0.36812387      -0.03187879       0.08817833
Na      16.32836534      24.43135388      77.41079533       0.01477960       0.04687224      -0.05429889
Na      18.34510504      26.65379240      79.68424945       0.14475506      -0.03992669      -0.17113950
Na      16.30059831      24.58168385      81.87469372      -0.00157392      -0.02029150      -0.00475618
Na      18.38025002      26.62227618      84.09732167      -0.00817986      -0.00446784      -0.01830491
Na      16.35518711      24.56769694      86.15066661       0.00092465      -0.00251288      -0.00015596
Na      18.42515516      26.61625928      88.19515845       0.00039019      -0.00019360       0.00005938
Na      16.37988138      24.56874826      90.15413053       0.00165157       0.00061130       0.00684004
Na      18.42665680      26.61515254      92.11668447       0.00130657       0.00038494       0.01614428
Na      16.37807847      24.56679445      94.22656700       0.00027960       0.00003498       0.00451707
Na      18.42467727      26.61401837      96.07036351       0.00005160      -0.00002831      -0.02621038
Na      20.55808447       0.06304262      73.02555763       0.21381831      -0.20333153       0.09969837
Na      22.29483741       2.09026653      75.81729207      -0.18259847       0.00730346       0.08650558
Na      20.02891018      -0.21020613      77.06871842       0.27629927      -0.36868643      -0.04923943
Na      22.33186635       1.90375741      79.59639825       0.17158517      -0.18842865      -0.06210424
Na      20.44380975       0.00129275      82.00494043      -0.00481028      -0.00134061      -0.01104816
Na      22.55354037       2.05773082      84.06799376      -0.00399794      -0.00127257      -0.02053220
Na      20.48250445       0.01107639      86.14451776      -0.00453316       0.00077026      -0.00328617
Na      22.52875444       2.05009271      88.19683477      -0.00182683      -0.00082686       0.00085257
Na      20.47430414       0.00168082      90.14534939       0.00043147       0.00025374       0.00709422
Na      22.51972483       2.04686686      92.11632816       0.00005576      -0.00029722       0.01620143
Na      20.47275137      -0.00004225      94.22694160       0.00013053       0.00003842       0.00470767
Na      22.52000699       2.04709997      96.07062636       0.00024000       0.00007668      -0.02623283
Na      21.84732061       3.58710857      70.61924165       0.17962991      -0.43847252       0.19182477
Na      22.29368346       6.10250520      74.82572702      -0.07631111       0.03596492       0.07413558
Na      20.32273157       4.49629457      77.56217571       0.01684499      -0.03684236       0.00249937
Na      22.47040583       6.28581455      79.91780947       0.01053368       0.00581844      -0.02179666
Na      20.43754016       4.06591687      81.89783093      -0.00327177      -0.00026659      -0.01005258
Na      22.53875191       6.13162294      84.04541416       0.00192313      -0.00161011      -0.02472451
Na      20.47894340       4.09552474      86.13184662      -0.00418682       0.00048369      -0.00312544
Na      22.52319224       6.13677448      88.19614471      -0.00036000       0.00051324       0.00079426
Na      20.47334149       4.09236043      90.14771502       0.00091210      -0.00024022       0.00724567
Na      22.51928324       6.14097989      92.11548439      -0.00013728      -0.00008357       0.01674658
Na      20.47267738       4.09447167      94.22748970       0.00017205      -0.00011445       0.00449595
Na      22.52022762       6.14146621      96.07089163       0.00012208      -0.00019094      -0.02618318
Na      21.88360797       7.43709956      71.39463915      -0.22497553       0.11557130       0.12500115
Na      22.42595357      10.17625777      75.25188613      -0.07691279       0.06497317      -0.03089161
Na      20.41264773       8.19562622      77.43473460       0.02145168       0.01947930       0.01682849
Na      22.51345604      10.27804516      79.58502010       0.00830438       0.00610937       0.00996541
Na      20.47020391       8.27650505      82.02254582      -0.00503726       0.00581524      -0.01031560
Na      22.54728353      10.27569015      84.07803095      -0.00099176       0.00492984      -0.00619932
Na      20.47706639       8.18157122      86.12882284      -0.00286856       0.00268597      -0.00689898
Na      22.52361134      10.23091833      88.19517360       0.00020918       0.00127137      -0.00045020
Na      20.47259788       8.18552277      90.14576949       0.00049650       0.00020241       0.00638526
Na      22.51945656      10.23343604      92.11563581       0.00014481      -0.00038435       0.01628920
Na      20.47286328       8.18831409      94.22747556       0.00010106      -0.00017730       0.00491599
Na      22.52019348      10.23618942      96.07056016       0.00012866       0.00001445      -0.02630376
Na      20.79963966      11.59690865      70.99953048      -0.04962231      -0.01383592      -0.01938535
Na      22.20480229      14.00795632      74.60287708       0.09683379       0.26018943      -0.11205821
Na      20.27824854      12.29377421      77.32636990       0.02914593       0.03798900      -0.01811093
Na      22.47298262      14.34995985      79.69999144       0.08720702       0.05625147      -0.04598484
Na      20.45740842      12.30779063      81.89555312      -0.00051945       0.00315340       0.00440309
Na      22.53834880      14.33042284      84.03164809       0.00031096       0.00595104      -0.01346919
Na      20.48308506      12.29373773      86.14148860      -0.00176091       0.00451829      -0.00179120
Na      22.51954005      14.32803989      88.20976161      -0.00174303      -0.00057257       0.00423805
Na      20.47363774      12.27980957      90.15064731       0.00013709      -0.00203416       0.00777805
Na      22.51874257      14.33101730      92.11770859      -0.00022262      -0.00035699       0.01618931
Na      20.47285462      12.28256960      94.22721633       0.00013397      -0.00014861       0.00440493
Na      22.51998755      14.33043239      96.07038848       0.00008028       0.00007029      -0.02641932
Na      21.87754613      16.75408799      71.72199346       0.03155860       0.27762934       0.03600972
Na      22.03003798      18.83891749      74.85100425       0.96492618       0.33348068      -0.42690773
Na      20.38354230      16.41148676      77.02849189       0.17684044       0.07169059      -0.01056215
Na      22.46131349      18.32787486      79.62476160       0.46932205       0.65678124      -0.34978641
Na      20.43312852      16.38553355      81.93895129      -0.00253016      -0.00213017      -0.00989299
Na      22.54564957      18.39428844      84.08208550       0.00897071       0.00520656      -0.02123913
Na      20.48266473      16.36482565      86.15351341      -0.00071401      -0.00463703      -0.00478414
Na      22.52440333      18.42998758      88.19811833       0.00006455      -0.00077466       0.00109040
Na      20.47327765      16.38136129      90.15047378       0.00041427       0.00061288       0.00783087
Na      22.51969904      18.42727190      92.11670185      -0.00004159       0.00037271       0.01624208
Na      20.47265145      16.37841544      94.22713318       0.00014626       0.00023340       0.00464134
Na      22.52007947      18.42492400      96.07039062       0.00011780      -0.00001046      -0.02618299
Na      21.34928462      20.52035569      71.60551078       0.70751107       0.31197131       1.20719265
Na      21.97170920      22.47136625      75.33207512      -3.81662230      -3.19997067      -0.41920242
Na      20.24822001      20.41040094      77.44301842       0.49664898       0.14541588       0.26431667
Na      22.41475412      22.42086976      79.90314250       0.21367549      -0.08104771       0.00564778
Na      20.41982954      20.33633106      81.94362938       0.20588066       0.01377533      -0.23838283
Na      22.51953075      22.50264301      84.04216291       0.09774334      -0.00967000      -0.12906867
Na      20.47473485      20.47172276      86.13291127      -0.00228762      -0.00023021      -0.00014592
Na      22.52429534      22.52484123      88.19280222      -0.00042286      -0.00111958      -0.00024441
Na      20.47444189      20.47413179      90.14663286       0.00038842       0.00113378       0.00628154
Na      22.52008977      22.51995244      92.11521579      -0.00023142       0.00036995       0.01604637
Na      20.47290397      20.47288919      94.22763911       0.00006359       0.00020200       0.00459669
Na      22.52025428      22.51988894      96.07075746       0.00016180       0.00012009      -0.02612330
Na      20.70613960      25.38360098      71.22061679       1.34286955      -0.06153239      -0.63773182
Na      22.02638554      26.30822641      75.44285139      -0.15179394       1.84718932      -1.76565301
Na      20.22715917      24.27221101      77.75236255       0.37767706      -0.07523358      -0.18750731
Na      22.30464237      26.65896766      79.62979906       0.17972728      -0.36235289      -0.34791509
Na      20.41187035      24.58349717      81.91532549       0.01704558      -0.01473151      -0.02287766
Na      22.53956960      26.61596391      84.08674105       0.09915161      -0.00988878      -0.13342313
Na      20.47343660      24.56618270      86.12939679      -0.00409873      -0.00610292      -0.00531422
Na      22.52623069      26.61511200      88.19467706      -0.00136956       0.00098396       0.00050065
Na      20.47502765      24.56934612      90.14715625       0.00006954       0.00016997       0.00644334
Na      22.51975412      26.61488365      92.11520454      -0.00009645       0.00051442       0.01645195
Na      20.47294073      24.56700374      94.22720067       0.00012132       0.00000871       0.00452414
Na      22.52009112      26.61420592      96.07046275       0.00022693      -0.00006307      -0.02604701
Na      24.11330111      -0.01820581      73.89470021      -0.36036081      -0.27401615      -0.65029420
Na      26.72391286       2.05253901      75.76416563      -0.57479965       0.91253512      -0.61610771
Na      24.39415683      -0.19059141      77.51074443      -1.14637323       0.67454693       0.26354378
Na      26.61365873       1.95595963      79.62870884       0.25434404      -0.34801383       0.08385989
Na      24.52413482      -0.00056875      81.85299488       0.18263702      -0.20491324      -0.35867630
Na      26.62083934       2.04606562      84.02484201      -0.00756900      -0.05463252      -0.06711955
Na      24.59137438       0.00576988      86.14681517      -0.00414191       0.00077453      -0.00769427
Na      26.61895941       2.04791583      88.20347152       0.00060235      -0.00037262       0.00360925
Na      24.56764512      -0.00018509      90.15030608       0.00082239       0.00007438       0.00625277
Na      26.61396178       2.04675458      92.11881450      -0.00024682      -0.00005238       0.01603222
Na      24.56637219      -0.00012098      94.22671076      -0.00007147       0.00007265       0.00464571
Na      26.61402505       2.04732864      96.07089884      -0.00019376       0.00008564      -0.02636752
Na      24.91939308       4.09481119      74.05996685       0.19571110       0.21198036      -0.20605301
Na      27.10087764       6.11354812      75.91877348       0.23353135       0.25740913      -0.54928150
Na      24.53598617       4.17198675      77.68935444       0.05798537      -0.15365301       0.03856874
Na      26.71804868       6.29664800      79.71739057      -0.06566092      -0.07715065       0.05843851
Na      24.56118227       4.07752063      81.82360594       0.00020373      -0.01217291      -0.00772675
Na      26.61473588       6.10665330      84.05531646       0.00228210       0.00613265      -0.03030208
Na      24.58455901       4.08954182      86.14926449      -0.00237881      -0.00194446      -0.00158059
Na      26.61928387       6.13567509      88.20182477       0.00126665       0.00191791       0.00019358
Na      24.56924165       4.09388289      90.15290485       0.00002130       0.00013778       0.00720781
Na      26.61463605       6.14216734      92.11816552       0.00016759      -0.00024648       0.01632570
Na      24.56661402       4.09465853      94.22712754      -0.00017613       0.00007127       0.00435408
Na      26.61429621       6.14173101      96.07078808      -0.00017820      -0.00023660      -0.02624716
Na      25.16719327       7.73331499      73.84563085       0.13293253       0.37710313       0.35828122
Na      26.84420286      10.16259925      75.54734622       0.58668993      -0.55123640      -0.37329618
Na      24.34460750       8.16048752      77.39143319      -0.07603595      -0.00543361       0.03835676
Na      26.60046354      10.26753293      79.44787414      -0.06070023       0.06525736       0.13232456
Na      24.59975519       8.25667146      81.91944612       0.01166075       0.02758215      -0.01595946
Na      26.59889120      10.28426375      84.11492624      -0.00102284       0.00510531      -0.02444340
Na      24.57482624       8.17767845      86.14139409      -0.00164094       0.00139470      -0.00534581
Na      26.61541239      10.23519771      88.20115546       0.00033066       0.00088092      -0.00098665
Na      24.56767917       8.18557564      90.14985745       0.00077268      -0.00006128       0.00612086
Na      26.61387300      10.23460278      92.11715711      -0.00007171      -0.00027108       0.01605057
Na      24.56644641       8.18857853      94.22679547      -0.00007210      -0.00016360       0.00472679
Na      26.61385022      10.23629938      96.07025325      -0.00019032       0.00008289      -0.02629116
Na      24.97495163      11.97164486      72.09955872       0.02219892      -0.02864726       0.06675000
Na      26.64421824      14.01615218      75.33637206       0.03625333      -0.52691199      -0.26441485
Na      24.41306297      12.40276400      77.05007564       0.01876055       0.09744134       0.04012075
Na      26.57588041      14.31280605      79.55189631       0.20045177       0.29123702      -0.02783110
Na      24.56930273      12.29722916      81.87507235       0.01858527      -0.00295803      -0.00659688
Na      26.61951030      14.32894656      84.04383916      -0.00059624       0.01004354      -0.02058046
Na      24.57265330      12.30667288      86.16045106      -0.00533024       0.00630815       0.00312902
Na      26.61898784      14.32824480      88.21219243       0.00009765      -0.00071635       0.00625768
Na      24.56625697      12.28188438      90.15308274       0.00020557      -0.00111688       0.00793823
Na      26.61381466      14.33097505      92.11789500       0.00025614      -0.00035659       0.01612854
Na      24.56635479      12.28271738      94.22611076      -0.00013079      -0.00009311       0.00434338
Na      26.61373370      14.33032395      96.07006856      -0.00012178       0.00000911      -0.02641286
Na      24.71287115      16.78441773      73.86600378       0.21592326       1.02582107      -0.72624976
Na      27.59120564      19.90290209      74.84725884      37.01093063      79.10118454      -9.25913431
Na      24.55880754      16.16495273      77.09079431      -0.22030689       0.06056994       0.26499864
Na      26.64166284      18.36317678      79.63167272       0.16862632       0.20987635       0.02736381
Na      24.59636123      16.36731138      81.86042471       0.12043708       0.11357459      -0.12754216
Na      26.61349136      18.38664500      84.11153496      -0.00664928       0.15143840      -0.40865674
Na      24.57080633      16.35239461      86.16822169      -0.00292772      -0.00265312      -0.00270895
Na      26.61669233      18.42577109      88.20051215       0.00043318      -0.00048261       0.00268133
Na      24.56592728      16.37967189      90.15357670       0.00132033       0.00028999       0.00626588
Na      26.61349005      18.42642894      92.11776016       0.00032161       0.00025838       0.01494752
Na      24.56632015      16.37813863      94.22650498      -0.00007497       0.00002136       0.00452964
Na      26.61380285      18.42487984      96.07000301      -0.00019552      -0.00009864      -0.02596681
Na      26.08774172      21.26969599      74.65515552      34.25080764      42.86278085      54.41125689
Na      27.20355093      22.74967423      75.88318469      15.57800626     -16.18609616      42.45249367
Na      24.18726190      20.50151136      77.69387867      -1.30123542      -1.67082491      -0.34973806
Na      26.68555903      22.37085021      79.91121256      -2.54187692      -1.97856011       7.87514934
Na      24.60625392      20.39573397      81.84349945       0.00445654       0.11266869      -0.62826376
Na      26.62111857      22.52309714      84.02838847       0.16985559      -0.01048916      -1.14528497
Na      24.57389847      20.47802465      86.14691394       0.00367219       0.00644403      -0.01333378
Na      26.61979774      22.52484908      88.20197801       0.00180090      -0.00052850      -0.00385271
Na      24.56816802      20.47484310      90.15031207       0.00141305       0.00099342       0.00411895
Na      26.61465721      22.51890882      92.11736307       0.00060655       0.00055220       0.01481499
Na      24.56649596      20.47283175      94.22683281      -0.00009414       0.00010214       0.00481946
Na      26.61420868      22.51974566      96.07036538      -0.00025649       0.00014917      -0.02565865
Na      25.47602005      23.92765045      74.51728973      45.06603611     -41.05953343      90.23972723
Na      27.08167807      25.35777807      75.63170107      37.03619473     -69.32522811       7.80495141
Na      24.19113034      24.48998794      77.63865037      -3.05905653       0.46655437       2.16538319
Na      26.50551361      26.59066087      79.83888075      -0.98346205       1.82283402       3.11956847
Na      24.53902609      24.54431199      81.84302816      -0.03286534      -0.18707125       0.32713153
Na      26.63304472      26.63503181      84.02883821      -0.03135774      -0.03882848      -0.63227743
Na      24.58593405      24.57525791      86.14591154       0.00093742      -0.01134137      -0.02087392
Na      26.62216051      26.61782791      88.20141764       0.00058646      -0.00133639       0.00082644
Na      24.56899873      24.56863233      90.15042706       0.00056802      -0.00015025       0.00552039
Na      26.61380618      26.61452504      92.11771835       0.00042983       0.00022305       0.01567126
Na      24.56652038      24.56681622      94.22624374      -0.00010607       0.00003267       0.00462061
Na      26.61397444      26.61389512      96.07065412      -0.00021764       0.00002059      -0.02605580
